&control
 title='crystal',
 prefix='crystal',
 pseudo_dir='.',
 calculation='vc-relax',
/
&system
 ibrav=0,
 celldm(1)=1.0,
 nat=    50,
 ntyp=  3,
 ecutwfc=60.0,
 ecutrho=600.0,
 xdm=.true.,
 xdm_a1=0.4073,
 xdm_a2=2.4150,
/
&electrons
 conv_thr = 1d-8,
/
&ions
/
&cell
/
ATOMIC_SPECIES
h      1.007940 h.UPF
c     12.010700 c.UPF
o     15.999400 o.UPF

ATOMIC_POSITIONS crystal
o     0.20501366     0.19106171     0.64587403
c     0.25472732     0.07467612     0.71293211
c     0.18685082     0.90083622     0.60805770
c     0.08592303     0.90236187     0.46225895
c     0.98827409     0.77194054     0.30981076
c     0.90614601     0.82457650     0.19347930
c     0.92103881     0.00602230     0.23030184
c     0.84469044     0.09686756     0.12974498
o     0.91239954     0.28930106     0.23452007
c     0.01318840     0.31357499     0.38138671
c     0.01925193     0.13797022     0.37984202
c     0.10178293     0.08439796     0.49425491
c     0.91665879     0.08562442     0.97386676
c     0.83043438     0.17624262     0.87515334
o     0.08195588     0.46330838     0.48787184
h     0.33483620     0.13912288     0.83633898
h     0.20427189     0.78341732     0.62890683
h     0.97823533     0.63134842     0.28303502
h     0.83028618     0.72422153     0.07551913
h     0.68398316     0.04836498     0.10610537
h     0.87657055     0.93966857     0.90624783
h     0.07719709     0.14605335     0.00184913
h     0.88551825     0.16626176     0.76419396
h     0.87038220     0.32172355     0.94236716
h     0.66987328     0.11309780     0.84399771
o     0.32745394     0.47254361     0.94986430
c     0.28725042     0.59332119     0.88332198
c     0.32957210     0.75952415     0.99604453
c     0.40159288     0.74714220     0.14684077
c     0.46858811     0.86739020     0.30644634
c     0.52201035     0.80475581     0.42667871
c     0.50713384     0.62319905     0.38684002
c     0.53667119     0.51856484     0.49342370
o     0.50728683     0.33700885     0.38077350
c     0.45546966     0.32718802     0.22552604
c     0.44843873     0.50327374     0.22876448
c     0.39551812     0.56720324     0.10997300
c     0.73273518     0.59693007     0.60889004
c     0.74251635     0.48960462     0.72101110
o     0.42409996     0.18822588     0.11206447
h     0.31076448     0.87784129     0.97798605
h     0.47548348     0.00730458     0.33563218
h     0.57106579     0.89634439     0.55063247
h     0.41685212     0.49556947     0.55882455
h     0.75710925     0.73938102     0.67751022
h     0.84821357     0.60138590     0.54001656
h     0.62916032     0.48482111     0.79274850
h     0.88580536     0.55125089     0.80303374
h     0.22625800     0.53565567     0.75545778
h     0.72174333     0.34842720     0.65284108

K_POINTS automatic
2 2 2 1 1 1

CELL_PARAMETERS cubic
   13.976430000000    -0.138710000000     0.056720000000
   -4.975308000000    14.754354000000    -0.016245000000
   -1.696126000000    -5.692732000000    15.748408000000
