%nprocs=4
%mem=4GB
#p pbepbe aug-cc-pvtz output=wfx scf=(conver=6) int=(grid=ultrafine)

title

0 1
o 3.625459461446288 -1.215432433098518 1.593729730603124
c 3.479459461366273 -0.444432432675991 0.672729730098399
o 3.552459461406283 -0.835432432890268 -0.602270270600329
h 3.323459461280784 -0.067432432469389 -1.182270270918178
c 3.210459461218859 1.041567568138367 0.880729730212387
h 3.998459461650695 1.614567568452384 0.387729729942211
h 3.235459461232559 1.236567568245229 1.946729730796574
n 1.921459460512457 1.469567568372917 0.366729729930706
h 1.173459460102541 1.759567568531846 0.996729730275960
c 1.695459460388606 1.603567568446353 -0.946270270788848
o 2.515459460837985 1.281567568269892 -1.818270271266721
c 0.362459459658094 2.241567568795990 -1.314270270990519
h 0.316459459632884 2.276567568815174 -2.397270271584022
h 0.352459459652615 3.259567569353878 -0.921270270775148
n -0.806540540982540 1.545567568414569 -0.819270270719249
h -1.394540541304778 1.002567568116993 -1.437270271057923
c -1.220540541209421 1.625567568458410 0.456729729980027
o -0.577540540857042 2.185567568765301 1.352729730471052
c -2.549540541937739 0.951567568089047 0.747729730139499
n -3.323540542361907 0.792567568001911 -0.481270270534014
h -3.707540542572346 1.687567568492389 -0.765270270689654
h -4.116540542796486 0.185567567669262 -0.307270270438663
h -3.034540542203530 1.582567568434847 1.497729730550514
c -2.282540541791419 -0.417432432661197 1.398729730496262
h -1.821540541538780 -0.232432432559814 2.369729731028387
h -3.251540542322449 -0.888432432919315 1.584729730598193
c -1.402540541309162 -1.323432433157701 0.585729730050721
c -0.059540540573171 -1.500432433254700 0.938729730244171
h 0.330459459640558 -1.003432432982335 1.818729730726428
c 0.776459459884975 -2.327432433707915 0.189729729833708
h 1.803459460447795 -2.469432433785735 0.491729729999205
c 0.279459459612610 -2.975432434063032 -0.939270270785011
h 0.928459459968275 -3.612432434412122 -1.524270271105602
c -1.056540541119543 -2.812432433973701 -1.300270270982845
h -1.452540541336562 -3.326432434255387 -2.166270271457429
c -1.891540541577143 -1.998432433527618 -0.538270270565256
h -2.931540542147084 -1.893432433470071 -0.817270270718154

224.wfx

