&control
 title='crystal',
 prefix='crystal',
 pseudo_dir='.',
 calculation='vc-relax',
/
&system
 ibrav=0,
 celldm(1)=1.0,
 nat=   132,
 ntyp=  3,
 ecutwfc=60.0,
 ecutrho=600.0,
 xdm=.true.,
 xdm_a1=0.4073,
 xdm_a2=2.4150,
/
&electrons
 conv_thr = 1d-8,
/
&ions
/
&cell
/
ATOMIC_SPECIES
h      1.007940 h.UPF
c     12.010700 c.UPF
o     15.999400 o.UPF

ATOMIC_POSITIONS crystal
c     0.67474787     0.18018553     0.19791264
c     0.32525217     0.81981442     0.80208737
c     0.82540837     0.68019082     0.30208632
c     0.17459168     0.31980913     0.69791369
h     0.57587247     0.14959294     0.16585310
h     0.42412758     0.85040701     0.83414690
h     0.92427938     0.64961247     0.33414669
h     0.07572066     0.35038748     0.66585332
h     0.81060638     0.06738753     0.20683175
h     0.18939366     0.93261242     0.79316825
h     0.68955111     0.56738615     0.29316867
h     0.31044894     0.43261380     0.70683134
c     0.84536054     0.34957571     0.19327468
c     0.15463950     0.65042424     0.80672532
c     0.65479131     0.84957774     0.30672122
c     0.34520873     0.15042221     0.69327879
h     0.97353032     0.33011209     0.16482835
h     0.02646973     0.66988786     0.83517166
h     0.52660938     0.83011559     0.33516631
h     0.47339066     0.16988436     0.66483370
c     0.67184961     0.51718485     0.18541782
c     0.32815044     0.48281510     0.81458218
c     0.82828843     0.01719469     0.31458076
c     0.17171161     0.98280526     0.68541925
h     0.55533273     0.54802872     0.21456534
h     0.44466731     0.45197123     0.78543467
h     0.94486949     0.04802633     0.28543928
h     0.05513056     0.95197362     0.71456073
h     0.80491716     0.63167084     0.17847242
h     0.19508288     0.36832911     0.82152758
h     0.69519849     0.13167910     0.32151593
h     0.30480156     0.86832085     0.67848407
c     0.31470445     0.61656484     0.13538615
c     0.68529559     0.38343511     0.86461386
c     0.18536894     0.11659804     0.36461972
c     0.81463111     0.88340191     0.63538029
c     0.12770596     0.57421924     0.10065755
c     0.87229409     0.42578071     0.89934245
c     0.37238419     0.07424079     0.39934543
c     0.62761585     0.92575916     0.60065458
c     0.94787060     0.70823904     0.08572684
c     0.05212945     0.29176092     0.91427317
c     0.55230831     0.20823009     0.41426542
c     0.44769173     0.79176986     0.58573458
h     0.80040614     0.67649231     0.05929569
h     0.19959391     0.32350764     0.94070431
h     0.69980933     0.17646910     0.44068983
h     0.30019072     0.82353085     0.55931017
c     0.95057780     0.87989925     0.10398854
c     0.04942224     0.12010070     0.89601147
c     0.54966555     0.37988384     0.39600041
c     0.45033449     0.62011611     0.60399960
h     0.80767858     0.98154716     0.09163755
h     0.19232146     0.01845279     0.90836245
h     0.69262614     0.48150890     0.40834286
h     0.30737391     0.51849105     0.59165715
c     0.13587897     0.91794456     0.13842213
c     0.86412108     0.08205539     0.86157788
c     0.36430011     0.41794899     0.36157515
c     0.63569994     0.58205096     0.63842486
h     0.14137198     0.05041742     0.15334461
h     0.85862806     0.94958253     0.84665539
h     0.35883836     0.55041911     0.34665274
h     0.64116168     0.44958084     0.65334726
c     0.31676742     0.78681531     0.15455579
c     0.68323262     0.21318464     0.84544422
c     0.18333057     0.28684596     0.34545163
c     0.81666948     0.71315399     0.65454837
h     0.45771845     0.81791015     0.18180009
h     0.54228160     0.18208980     0.81819991
h     0.04233703     0.31795514     0.31821304
h     0.95766302     0.68204481     0.68178696
c     0.12811338     0.39135535     0.07980597
c     0.87188666     0.60864460     0.92019404
c     0.37194880     0.89137238     0.42019267
c     0.62805125     0.10862757     0.57980733
h     0.19526188     0.29009272     0.10394748
h     0.80473817     0.70990723     0.89605253
h     0.30475752     0.79012274     0.39604931
h     0.69524253     0.20987721     0.60395070
h     0.91862231     0.35529910     0.06874584
h     0.08137774     0.64470085     0.93125416
h     0.58144537     0.85529745     0.43124563
h     0.41855467     0.14470250     0.56875438
c     0.31817624     0.38141158     0.04104640
c     0.68182380     0.61858837     0.95895360
c     0.18194559     0.88139773     0.45895925
c     0.81805445     0.11860222     0.54104076
h     0.51993652     0.43368117     0.05178847
h     0.48006352     0.56631878     0.94821154
h     0.98013809     0.93361416     0.44822718
h     0.01986195     0.06638579     0.55177283
h     0.24092071     0.47280304     0.01517716
h     0.75907933     0.52719691     0.98482285
h     0.25920111     0.97280412     0.48482655
h     0.74079894     0.02719583     0.51517346
c     0.34809050     0.19161282     0.02322255
c     0.65190955     0.80838713     0.97677745
c     0.15220213     0.69158550     0.47678204
c     0.84779791     0.30841445     0.52321796
h     0.42360579     0.09960724     0.04900224
h     0.57639426     0.90039271     0.95099777
h     0.07675566     0.59955431     0.45100194
h     0.92324438     0.40044564     0.54899807
h     0.49249620     0.18723733     0.99662443
h     0.50750384     0.81276262     0.00337558
h     0.00781495     0.68714419     0.50338192
h     0.99218509     0.31285576     0.49661809
h     0.15103718     0.13841308     0.01049797
h     0.84896287     0.86158687     0.98950204
h     0.34931026     0.63846572     0.48950322
h     0.65068978     0.36153423     0.51049679
o     0.47384648     0.19994545     0.23050772
o     0.52615356     0.80005450     0.76949229
o     0.02631526     0.69994196     0.26949206
o     0.97368478     0.30005799     0.73050794
o     0.01717837     0.38417260     0.23140843
o     0.98282168     0.61582735     0.76859158
o     0.48298848     0.88416100     0.26858555
o     0.51701156     0.11583895     0.73141446
o     0.48817349     0.48105178     0.14888494
o     0.51182655     0.51894817     0.85111506
o     0.01188133     0.98108731     0.35112389
o     0.98811872     0.01891264     0.64887612
h     0.46333661     0.08336353     0.24669109
h     0.53666344     0.91663642     0.75330892
h     0.03681735     0.58335875     0.25330793
h     0.96318270     0.41664120     0.74669208
h     0.19263617     0.31446616     0.22940482
h     0.80736387     0.68553379     0.77059519
h     0.30752327     0.81445961     0.27059038
h     0.69247677     0.18554034     0.72940963

K_POINTS automatic
2 2 2 1 1 1

CELL_PARAMETERS cubic
    9.232180000000    -0.000080000000     0.035444000000
   -0.000135000000    14.085043000000    -0.000116000000
   -2.414337000000    -0.000502000000    57.771474000000
