&control
 title='crystal',
 prefix='crystal',
 pseudo_dir='.',
 calculation='vc-relax',
/
&system
 ibrav=0,
 celldm(1)=1.0,
 nat=    44,
 ntyp=  4,
 ecutwfc=60.0,
 ecutrho=600.0,
 xdm=.true.,
 xdm_a1=0.4073,
 xdm_a2=2.4150,
/
&electrons
 conv_thr = 1d-8,
/
&ions
/
&cell
/
ATOMIC_SPECIES
h      1.007940 h.UPF
c     12.010700 c.UPF
o     15.999400 o.UPF
cl    35.453000 cl.UPF

ATOMIC_POSITIONS crystal
cl    0.33278237     0.93690057     0.02367909
cl    0.66721764     0.43690059     0.97632089
cl    0.75083303     0.81604747     0.35576360
cl    0.24916699     0.31604750     0.64423639
o     0.10127943     0.70733177     0.38123961
o     0.89872058     0.20733179     0.61876038
o     0.99269448     0.27933146     0.40964287
o     0.00730553     0.77933148     0.59035712
o     0.19416657     0.53663518     0.17295247
o     0.80583344     0.03663521     0.82704752
c     0.06357772     0.44014325     0.35063431
c     0.93642229     0.94014327     0.64936567
c     0.11024022     0.33070292     0.23029866
c     0.88975979     0.83070294     0.76970132
c     0.98759634     0.27455733     0.14336165
c     0.01240368     0.77455735     0.85663834
c     0.32332703     0.57984833     0.21929316
c     0.67667299     0.07984835     0.78070683
c     0.40146078     0.77707647     0.15601116
c     0.59853924     0.27707649     0.84398883
c     0.53254122     0.84832742     0.19712293
c     0.46745879     0.34832744     0.80287706
c     0.58806311     0.71709476     0.30246256
c     0.41193690     0.21709478     0.69753743
c     0.51475887     0.51503092     0.36535436
c     0.48524114     0.01503095     0.63464563
c     0.38261998     0.44806734     0.32384604
c     0.61738004     0.94806737     0.67615394
h     0.16472366     0.12405306     0.24807625
h     0.83527636     0.62405309     0.75192373
h     0.06235808     0.76496978     0.46088343
h     0.93764194     0.26496981     0.53911656
h     0.58959752     0.00557883     0.14757127
h     0.41040250     0.50557885     0.85242872
h     0.55971546     0.40927915     0.44626466
h     0.44028455     0.90927917     0.55373532
h     0.32633889     0.29273608     0.37504922
h     0.67366113     0.79273611     0.62495077
h     0.93084165     0.47740902     0.12560012
h     0.06915837     0.97740904     0.87439986
h     0.92108121     0.11557994     0.18300630
h     0.07891880     0.61557996     0.81699368
h     0.02026136     0.18829836     0.05817999
h     0.97973866     0.68829838     0.94182000

K_POINTS automatic
2 2 2 1 1 1

CELL_PARAMETERS cubic
   18.768309000000     0.000000000000     0.058105000000
    0.000000000000     8.635079000000     0.000000000000
   -1.483480000000     0.000000000000    20.895810000000
