%nprocs=6
%mem=4GB
#p blyp gen pseudo=read output=wfx scf=(conver=6) int=(grid=ultrafine)
 
title
 
0 1
Br -3.7773100000 0.0269380000 -0.4890800000
Br -1.6969910000 -0.5750700000 0.3130230000
Cl 1.0301800000 -1.1695410000 1.3195160000
H 2.7555470000 1.4220280000 -1.0983110000
P 3.5161310000 -1.1953920000 -0.8645130000
P 0.7154800000 2.1937600000 0.3978760000
H -0.0601920000 2.0710590000 1.5618390000
H -0.2816570000 2.5444410000 -0.5267830000
H 2.9069390000 -2.3190000000 -1.4464180000
H 4.2595960000 -1.8286480000 0.1445950000
H 4.5364520000 -0.9675370000 -1.8028660000
H 1.2831860000 3.4613460000 0.6099530000
Pd 2.0698560000 0.4284260000 -0.1459180000

Br     0 
S   10   1.00
  78967.5000000              0.0000280        
  11809.7000000              0.0002140        
   2687.1400000              0.0010560        
    760.0360000              0.0036880        
    241.8110000              0.0079340        
     38.4914000              0.1528680        
     24.0586000             -0.2786020        
     14.3587000             -0.2188500        
      4.3773700              0.4960050        
      2.3518200              0.5523410        
S   10   1.00
  78967.5000000             -0.0000110        
  11809.7000000             -0.0000860        
   2687.1400000             -0.0004350        
    760.0360000             -0.0014570        
    241.8110000             -0.0033810        
     38.4914000             -0.0576580        
     24.0586000              0.1123250        
     14.3587000              0.0756730        
      4.3773700             -0.2249200        
      2.3518200             -0.4067380        
S   1   1.00
      1.2510500              1.0000000        
S   1   1.00
      0.5294680              1.0000000        
S   1   1.00
      0.2418960              1.0000000        
S   1   1.00
      0.1064860              1.0000000        
S   1   1.00
      0.0407000              1.0000000        
P   8   1.00
    503.6320000              0.0004640        
     93.0023000              0.0054560        
     42.5100000             -0.0013070        
     26.5778000             -0.0887240        
      7.5809700              0.3001460        
      3.8588700              0.4722000        
      1.9430900              0.2982910        
      0.9242090              0.0537770        
P   8   1.00
    503.6320000             -0.0001290        
     93.0023000             -0.0017470        
     42.5100000              0.0018620        
     26.5778000              0.0234510        
      7.5809700             -0.0989990        
      3.8588700             -0.1577990        
      1.9430900             -0.1232600        
      0.9242090              0.1538350        
P   1   1.00
      0.4177330              1.0000000        
P   1   1.00
      0.1808530              1.0000000        
P   1   1.00
      0.0751540              1.0000000        
P   1   1.00
      0.0295000              1.0000000        
D   9   1.00
   1097.7200000              0.0001110        
    332.9290000              0.0011530        
    130.8000000              0.0076900        
     60.1271000              0.0357150        
     29.7430000              0.0930320        
     15.0381000              0.1885660        
      7.7313200              0.2835430        
      3.9619300              0.3179110        
      2.0044900              0.2481490        
D   1   1.00
      0.9732760              1.0000000        
D   1   1.00
      0.4146780              1.0000000        
D   1   1.00
      0.1747000              1.0000000        
D   1   1.00
      0.0747000              1.0000000        
F   1   1.00
      0.8255000              1.0000000        
F   1   1.00
      0.3409000              1.0000000        
F   1   1.00
      0.1613000              1.0000000        
G   1   1.00
      0.6582000              1.0000000        
G   1   1.00
      0.3067000              1.0000000        
****
Cl 0
aug-cc-pVQZ
****
H 0
aug-cc-pVQZ
****
P 0
aug-cc-pVQZ
****
Pd     0 
S   13   1.00
   7844.8900000              0.0000150        
   1169.5300000              0.0001070        
    259.6440000              0.0004120        
     39.2211000              0.0098640        
     24.4934000             -0.0719220        
     15.2969000              0.2128330        
      6.0389600             -0.4542200        
      3.7622800             -0.2996210        
      1.8071000              0.5046120        
      0.9743050              0.6622770        
      0.4972030              0.2406810        
      0.1620200              0.0126460        
      0.0714600             -0.0004720        
S   13   1.00
   7844.8900000             -0.0000050        
   1169.5300000             -0.0000330        
    259.6440000             -0.0001350        
     39.2211000             -0.0027160        
     24.4934000              0.0205170        
     15.2969000             -0.0636890        
      6.0389600              0.1551180        
      3.7622800              0.0800520        
      1.8071000             -0.1865700        
      0.9743050             -0.3054990        
      0.4972030             -0.1813090        
      0.1620200              0.3039740        
      0.0714600              0.6177640        
S   13   1.00
   7844.8900000             -0.0000100        
   1169.5300000             -0.0000840        
    259.6440000             -0.0002300        
     39.2211000             -0.0090740        
     24.4934000              0.0563390        
     15.2969000             -0.1563130        
      6.0389600              0.3943670        
      3.7622800              0.1184910        
      1.8071000             -0.3911140        
      0.9743050             -1.3967980        
      0.4972030              1.1011240        
      0.1620200              1.3128540        
      0.0714600             -0.6576300        
S   13   1.00
   7844.8900000              0.0000020        
   1169.5300000              0.0000150        
    259.6440000              0.0000580        
     39.2211000              0.0012900        
     24.4934000             -0.0092020        
     15.2969000              0.0283700        
      6.0389600             -0.0690030        
      3.7622800             -0.0717590        
      1.8071000              0.2549580        
      0.9743050              0.1451930        
      0.4972030             -0.4647570        
      0.1620200              0.2244370        
      0.0714600              0.1291750        
S   13   1.00
   7844.8900000             -0.0000150        
   1169.5300000             -0.0001090        
    259.6440000             -0.0004080        
     39.2211000             -0.0090780        
     24.4934000              0.0648030        
     15.2969000             -0.1999130        
      6.0389600              0.4866890        
      3.7622800              0.5061480        
      1.8071000             -1.8058520        
      0.9743050             -1.0058890        
      0.4972030              3.2670160        
      0.1620200             -1.5764190        
      0.0714600             -0.9382990        
S   1   1.00
      0.0313100              1.0000000        
S   1   1.00
      0.0137000              1.0000000        
P   10   1.00
     98.8243000              0.0003180        
     27.9859000             -0.0046710        
     17.4873000              0.0292410        
      6.7863800             -0.1992820        
      1.9878800              0.4101390        
      1.0657300              0.4471440        
      0.5838290              0.2362210        
      0.3146360              0.0624690        
      0.1357370              0.0060750        
      0.0602770             -0.0000850        
P   10   1.00
     98.8243000             -0.0000510        
     27.9859000              0.0006780        
     17.4873000             -0.0066790        
      6.7863800              0.0544150        
      1.9878800             -0.1382020        
      1.0657300             -0.1410000        
      0.5838290             -0.1010710        
      0.3146360              0.1265930        
      0.1357370              0.4211200        
      0.0602770              0.4722370        
P   10   1.00
     98.8243000             -0.0001660        
     27.9859000              0.0022660        
     17.4873000             -0.0161180        
      6.7863800              0.1219530        
      1.9878800             -0.3403790        
      1.0657300             -0.3281810        
      0.5838290             -0.0330520        
      0.3146360              0.5487950        
      0.1357370              0.5332220        
      0.0602770              0.0994340        
P   10   1.00
     98.8243000              0.0004190        
     27.9859000             -0.0058840        
     17.4873000              0.0317000        
      6.7863800             -0.2240400        
      1.9878800              0.8656960        
      1.0657300              0.3452800        
      0.5838290             -0.9931720        
      0.3146360             -0.6775520        
      0.1357370              0.7731840        
      0.0602770              0.3765310        
P   10   1.00
     98.8243000              0.0000090        
     27.9859000             -0.0013240        
     17.4873000              0.0372040        
      6.7863800             -0.3882460        
      1.9878800              2.6384130        
      1.0657300             -2.7457290        
      0.5838290             -0.6384020        
      0.3146360              1.9045610        
      0.1357370             -0.1954810        
      0.0602770             -0.6798620        
P   1   1.00
      0.0265400              1.0000000        
P   1   1.00
      0.0117000              1.0000000        
D   9   1.00
     78.3406000              0.0003190        
     21.0235000              0.0031690        
      7.5187300             -0.0301280        
      3.6893300              0.0820580        
      2.0193400              0.2405330        
      1.0717600              0.3254140        
      0.5516620              0.3009480        
      0.2739330              0.2050090        
      0.1301110              0.0921770        
D   9   1.00
     78.3406000             -0.0003900        
     21.0235000             -0.0033600        
      7.5187300              0.0334560        
      3.6893300             -0.0998880        
      2.0193400             -0.3344540        
      1.0717600             -0.3267360        
      0.5516620              0.0663700        
      0.2739330              0.4205140        
      0.1301110              0.4170070        
D   9   1.00
     78.3406000             -0.0005710        
     21.0235000             -0.0049650        
      7.5187300              0.0523140        
      3.6893300             -0.1757260        
      2.0193400             -0.6558300        
      1.0717600              0.0297190        
      0.5516620              0.8321610        
      0.2739330              0.1960240        
      0.1301110             -0.5651970        
D   9   1.00
     78.3406000             -0.0004130        
     21.0235000             -0.0116470        
      7.5187300              0.1255530        
      3.6893300             -0.5684920        
      2.0193400             -0.7972550        
      1.0717600              1.5702270        
      0.5516620              0.0164980        
      0.2739330             -1.1631360        
      0.1301110              0.3227120        
D   1   1.00
      0.0574730              1.0000000        
D   1   1.00
      0.0254000              1.0000000        
F   1   1.00
      3.7196000              1.0000000        
F   1   1.00
      1.2537000              1.0000000        
F   1   1.00
      0.4226000              1.0000000        
F   1   1.00
      0.1540000              1.0000000        
G   1   1.00
      2.2230000              1.0000000        
G   1   1.00
      0.7801000              1.0000000        
G   1   1.00
      0.3364000              1.0000000        
H   1   1.00
      1.5307000              1.0000000        
H   1   1.00
      0.6971000              1.0000000        
****

BR     0
BR-ECP     4     10
g-ul potential
  1
2      1.0000000              0.0000000        
s-ul potential
  3
2     70.0242570             49.9628340        
2     31.1784120            370.0142050        
2      7.1565930             10.2414390        
p-ul potential
  4
2     46.7734710             99.1122440        
2     46.1841200            198.2530460        
2     21.7138580             28.2617400        
2     20.9417920             56.6233660        
d-ul potential
  6
2     50.6988390            -18.6058530        
2     50.6447640            -27.9232800        
2     15.4475090             -0.3796930        
2     15.5002590             -0.7805830        
2      2.8003910              0.0359680        
2      1.0774800              0.0943970        
f-ul potential
  2
2     14.4656060             -1.0912690        
2     21.2340650             -2.8876910        
PD     0
PD-ECP     4     28
g-ul potential
  1
2      1.0000000              0.0000000        
s-ul potential
  2
2     12.79882500           240.26278900       
2      5.80052800            34.72996100       
p-ul potential
  4
2     11.87469700            56.74692900       
2     11.47433500           113.44441700       
2      5.51599900             9.34563900       
2      5.24804300            18.34544700       
d-ul potential
  4
2      8.50221200            28.59555400       
2      7.98332400            43.45392100       
2      3.10762800             1.85228600       
2      2.47673400             1.40676500       
f-ul potential
  2
2      9.67957100           -10.98725500       
2      9.69134900           -14.62619000       

BrBr_PdHP2Cl.wfx

