%nprocs=6
%mem=4GB
#p blyp aug-cc-pvqz output=wfx scf=(conver=6) int=(grid=ultrafine)
 
title
 
0 1
Cl 0.0000000000 0.0000000000 0.5629020000
F 0.0000000000 0.0000000000 -1.0632600000

FCl.wfx

