%nprocs=6
%mem=4GB
#p blyp gen pseudo=read output=wfx scf=(conver=6) int=(grid=ultrafine)
 
title
 
0 1
F -3.6538240000 0.0485360000 -1.1119990000
I -2.0733760000 -0.3092580000 0.0098060000
H 2.5074780000 0.9640840000 -1.2112750000
P 2.6610670000 -1.6808360000 -0.6055480000
P 0.7189500000 2.4105090000 0.0743880000
H -0.2037970000 2.6031240000 1.1152070000
H -0.0269060000 2.8874170000 -1.0145280000
H 1.7936590000 -2.6961130000 -1.0409860000
H 3.2671910000 -2.3367110000 0.4785570000
H 3.6803620000 -1.8088300000 -1.5623990000
H 1.5631070000 3.5152750000 0.2779310000
Pd 1.6348050000 0.3154210000 -0.1323630000
Cl 0.2524110000 -0.7428730000 1.5589320000

Cl 0
aug-cc-pVQZ
****
F 0
aug-cc-pVQZ
****
H 0
aug-cc-pVQZ
****
I     0 
S   10   1.00
      1.690000E+04           4.000000E-05     
      2.541390E+03           2.940000E-04     
      5.744130E+02           1.214000E-03     
      1.509450E+02           2.596000E-03     
      2.916310E+01          -5.362300E-02     
      1.821960E+01           3.439170E-01     
      1.133650E+01          -3.674270E-01     
      6.924080E+00          -5.389040E-01     
      2.509810E+00           7.095670E-01     
      1.351130E+00           6.280610E-01     
S   10   1.00
      1.690000E+04           1.900000E-05     
      2.541390E+03           1.420000E-04     
      5.744130E+02           5.920000E-04     
      1.509450E+02           1.243000E-03     
      2.916310E+01          -2.272100E-02     
      1.821960E+01           1.577080E-01     
      1.133650E+01          -2.000920E-01     
      6.924080E+00          -2.161520E-01     
      2.509810E+00           4.134390E-01     
      1.351130E+00           5.345850E-01     
S   1   1.00
      6.163790E-01           1.0000000        
S   1   1.00
      3.834550E-01           1.0000000        
S   1   1.00
      1.800560E-01           1.0000000        
S   1   1.00
      8.232700E-02           1.0000000        
S   1   1.00
      3.310000E-02           1.0000000        
P   7   1.00
      6.491590E+02           9.500000E-05     
      1.480870E+02           6.290000E-04     
      2.010180E+01           4.532400E-02     
      1.044660E+01          -2.302310E-01     
      6.358830E+00          -4.960000E-03     
      3.048460E+00           5.139270E-01     
      1.559500E+00           5.060930E-01     
P   7   1.00
      6.491590E+02          -3.200000E-05     
      1.480870E+02          -2.530000E-04     
      2.010180E+01          -1.609800E-02     
      1.044660E+01           8.991000E-02     
      6.358830E+00          -1.565500E-02     
      3.048460E+00          -2.077830E-01     
      1.559500E+00          -2.480810E-01     
P   1   1.00
      7.689110E-01           1.0000000        
P   1   1.00
      3.548140E-01           1.0000000        
P   1   1.00
      1.547660E-01           1.0000000        
P   1   1.00
      6.469900E-02           1.0000000        
P   1   1.00
      2.570000E-02           1.0000000        
D   9   1.00
      5.854450E+02           2.500000E-05     
      1.774680E+02           2.310000E-04     
      6.921930E+01           1.173000E-03     
      2.863920E+01           5.584000E-03     
      1.271530E+01          -2.383000E-02     
      5.479270E+00           1.168140E-01     
      3.354930E+00           2.727310E-01     
      1.984230E+00           3.401740E-01     
      1.152540E+00           2.686990E-01     
D   1   1.00
      6.510170E-01           1.0000000        
D   1   1.00
      3.474450E-01           1.0000000        
D   1   1.00
      1.547000E-01           1.0000000        
D   1   1.00
      6.400000E-02           1.0000000        
F   1   1.00
      5.865000E-01           1.0000000        
F   1   1.00
      2.494000E-01           1.0000000        
F   1   1.00
      1.270000E-01           1.0000000        
G   1   1.00
      4.730000E-01           1.0000000        
G   1   1.00
      2.338000E-01           1.0000000        
****
P 0
aug-cc-pVQZ
****
Pd     0 
S   13   1.00
   7844.8900000              0.0000150        
   1169.5300000              0.0001070        
    259.6440000              0.0004120        
     39.2211000              0.0098640        
     24.4934000             -0.0719220        
     15.2969000              0.2128330        
      6.0389600             -0.4542200        
      3.7622800             -0.2996210        
      1.8071000              0.5046120        
      0.9743050              0.6622770        
      0.4972030              0.2406810        
      0.1620200              0.0126460        
      0.0714600             -0.0004720        
S   13   1.00
   7844.8900000             -0.0000050        
   1169.5300000             -0.0000330        
    259.6440000             -0.0001350        
     39.2211000             -0.0027160        
     24.4934000              0.0205170        
     15.2969000             -0.0636890        
      6.0389600              0.1551180        
      3.7622800              0.0800520        
      1.8071000             -0.1865700        
      0.9743050             -0.3054990        
      0.4972030             -0.1813090        
      0.1620200              0.3039740        
      0.0714600              0.6177640        
S   13   1.00
   7844.8900000             -0.0000100        
   1169.5300000             -0.0000840        
    259.6440000             -0.0002300        
     39.2211000             -0.0090740        
     24.4934000              0.0563390        
     15.2969000             -0.1563130        
      6.0389600              0.3943670        
      3.7622800              0.1184910        
      1.8071000             -0.3911140        
      0.9743050             -1.3967980        
      0.4972030              1.1011240        
      0.1620200              1.3128540        
      0.0714600             -0.6576300        
S   13   1.00
   7844.8900000              0.0000020        
   1169.5300000              0.0000150        
    259.6440000              0.0000580        
     39.2211000              0.0012900        
     24.4934000             -0.0092020        
     15.2969000              0.0283700        
      6.0389600             -0.0690030        
      3.7622800             -0.0717590        
      1.8071000              0.2549580        
      0.9743050              0.1451930        
      0.4972030             -0.4647570        
      0.1620200              0.2244370        
      0.0714600              0.1291750        
S   13   1.00
   7844.8900000             -0.0000150        
   1169.5300000             -0.0001090        
    259.6440000             -0.0004080        
     39.2211000             -0.0090780        
     24.4934000              0.0648030        
     15.2969000             -0.1999130        
      6.0389600              0.4866890        
      3.7622800              0.5061480        
      1.8071000             -1.8058520        
      0.9743050             -1.0058890        
      0.4972030              3.2670160        
      0.1620200             -1.5764190        
      0.0714600             -0.9382990        
S   1   1.00
      0.0313100              1.0000000        
S   1   1.00
      0.0137000              1.0000000        
P   10   1.00
     98.8243000              0.0003180        
     27.9859000             -0.0046710        
     17.4873000              0.0292410        
      6.7863800             -0.1992820        
      1.9878800              0.4101390        
      1.0657300              0.4471440        
      0.5838290              0.2362210        
      0.3146360              0.0624690        
      0.1357370              0.0060750        
      0.0602770             -0.0000850        
P   10   1.00
     98.8243000             -0.0000510        
     27.9859000              0.0006780        
     17.4873000             -0.0066790        
      6.7863800              0.0544150        
      1.9878800             -0.1382020        
      1.0657300             -0.1410000        
      0.5838290             -0.1010710        
      0.3146360              0.1265930        
      0.1357370              0.4211200        
      0.0602770              0.4722370        
P   10   1.00
     98.8243000             -0.0001660        
     27.9859000              0.0022660        
     17.4873000             -0.0161180        
      6.7863800              0.1219530        
      1.9878800             -0.3403790        
      1.0657300             -0.3281810        
      0.5838290             -0.0330520        
      0.3146360              0.5487950        
      0.1357370              0.5332220        
      0.0602770              0.0994340        
P   10   1.00
     98.8243000              0.0004190        
     27.9859000             -0.0058840        
     17.4873000              0.0317000        
      6.7863800             -0.2240400        
      1.9878800              0.8656960        
      1.0657300              0.3452800        
      0.5838290             -0.9931720        
      0.3146360             -0.6775520        
      0.1357370              0.7731840        
      0.0602770              0.3765310        
P   10   1.00
     98.8243000              0.0000090        
     27.9859000             -0.0013240        
     17.4873000              0.0372040        
      6.7863800             -0.3882460        
      1.9878800              2.6384130        
      1.0657300             -2.7457290        
      0.5838290             -0.6384020        
      0.3146360              1.9045610        
      0.1357370             -0.1954810        
      0.0602770             -0.6798620        
P   1   1.00
      0.0265400              1.0000000        
P   1   1.00
      0.0117000              1.0000000        
D   9   1.00
     78.3406000              0.0003190        
     21.0235000              0.0031690        
      7.5187300             -0.0301280        
      3.6893300              0.0820580        
      2.0193400              0.2405330        
      1.0717600              0.3254140        
      0.5516620              0.3009480        
      0.2739330              0.2050090        
      0.1301110              0.0921770        
D   9   1.00
     78.3406000             -0.0003900        
     21.0235000             -0.0033600        
      7.5187300              0.0334560        
      3.6893300             -0.0998880        
      2.0193400             -0.3344540        
      1.0717600             -0.3267360        
      0.5516620              0.0663700        
      0.2739330              0.4205140        
      0.1301110              0.4170070        
D   9   1.00
     78.3406000             -0.0005710        
     21.0235000             -0.0049650        
      7.5187300              0.0523140        
      3.6893300             -0.1757260        
      2.0193400             -0.6558300        
      1.0717600              0.0297190        
      0.5516620              0.8321610        
      0.2739330              0.1960240        
      0.1301110             -0.5651970        
D   9   1.00
     78.3406000             -0.0004130        
     21.0235000             -0.0116470        
      7.5187300              0.1255530        
      3.6893300             -0.5684920        
      2.0193400             -0.7972550        
      1.0717600              1.5702270        
      0.5516620              0.0164980        
      0.2739330             -1.1631360        
      0.1301110              0.3227120        
D   1   1.00
      0.0574730              1.0000000        
D   1   1.00
      0.0254000              1.0000000        
F   1   1.00
      3.7196000              1.0000000        
F   1   1.00
      1.2537000              1.0000000        
F   1   1.00
      0.4226000              1.0000000        
F   1   1.00
      0.1540000              1.0000000        
G   1   1.00
      2.2230000              1.0000000        
G   1   1.00
      0.7801000              1.0000000        
G   1   1.00
      0.3364000              1.0000000        
H   1   1.00
      1.5307000              1.0000000        
H   1   1.00
      0.6971000              1.0000000        
****

I     0
I-ECP     4     28
g-ul potential
  1
2      1.00000000             0.00000000       
s-ul potential
  3
2     40.03337600            49.98964900       
2     17.30057600           281.00655600       
2      8.85172000            61.41673900       
p-ul potential
  4
2     15.72014100            67.41623900       
2     15.20822200           134.80769600       
2      8.29418600            14.56654800       
2      7.75394900            28.96842200       
d-ul potential
  4
2     13.81775100            35.53875600       
2     13.58780500            53.33975900       
2      6.94763000             9.71646600       
2      6.96009900            14.97750000       
f-ul potential
  4
2     18.52295000           -20.17661800       
2     18.25103500           -26.08807700       
2      7.55790100            -0.22043400       
2      7.59740400            -0.22164600       
PD     0
PD-ECP     4     28
g-ul potential
  1
2      1.0000000              0.0000000        
s-ul potential
  2
2     12.79882500           240.26278900       
2      5.80052800            34.72996100       
p-ul potential
  4
2     11.87469700            56.74692900       
2     11.47433500           113.44441700       
2      5.51599900             9.34563900       
2      5.24804300            18.34544700       
d-ul potential
  4
2      8.50221200            28.59555400       
2      7.98332400            43.45392100       
2      3.10762800             1.85228600       
2      2.47673400             1.40676500       
f-ul potential
  2
2      9.67957100           -10.98725500       
2      9.69134900           -14.62619000       

FI_PdHP2Cl.wfx

