%nprocs=6
%mem=4GB
#p blyp aug-cc-pvqz output=wfx scf=(conver=6) int=(grid=ultrafine)
 
title
 
0 1
F 0.0000000000 0.0000000000 0.7507480000
C 0.0000000000 0.0000000000 -0.6335550000
H 0.0000000000 1.0313900000 -0.9851350000
H -0.8932100000 -0.5156950000 -0.9851350000
H 0.8932100000 -0.5156950000 -0.9851350000

FMe.wfx

