%nprocs=6
%mem=4GB
#p blyp aug-cc-pvqz output=wfx scf=(conver=6) int=(grid=ultrafine)
 
title
 
0 1
O 0.0000000000 0.0000000000 0.6761820000
C 0.0000000000 0.0000000000 -0.5314320000
H 0.0000000000 0.9378870000 -1.1104300000
H 0.0000000000 -0.9378870000 -1.1104300000

H2CO.wfx

