%nprocs=6
%mem=4GB
#p blyp aug-cc-pvqz output=wfx scf=(conver=6) int=(grid=ultrafine)
 
title
 
0 1
H 0.0000000000 0.0000000000 -1.2023530000
Li 0.0000000000 0.0000000000 0.4007840000

HLi.wfx

