%nprocs=6
%mem=4GB
#p blyp gen pseudo=read output=wfx scf=(conver=6) int=(grid=ultrafine)
 
title
 
0 1
N 0.0000000000 0.0000000000 -2.0383930000
C 0.0000000000 0.0000000000 -3.1782660000
H 0.0000000000 0.0000000000 -4.2462030000
Br 0.0000000000 0.0000000000 0.4901520000
F 0.0000000000 0.0000000000 2.2699130000

Br     0 
S   10   1.00
  78967.5000000              0.0000280        
  11809.7000000              0.0002140        
   2687.1400000              0.0010560        
    760.0360000              0.0036880        
    241.8110000              0.0079340        
     38.4914000              0.1528680        
     24.0586000             -0.2786020        
     14.3587000             -0.2188500        
      4.3773700              0.4960050        
      2.3518200              0.5523410        
S   10   1.00
  78967.5000000             -0.0000110        
  11809.7000000             -0.0000860        
   2687.1400000             -0.0004350        
    760.0360000             -0.0014570        
    241.8110000             -0.0033810        
     38.4914000             -0.0576580        
     24.0586000              0.1123250        
     14.3587000              0.0756730        
      4.3773700             -0.2249200        
      2.3518200             -0.4067380        
S   1   1.00
      1.2510500              1.0000000        
S   1   1.00
      0.5294680              1.0000000        
S   1   1.00
      0.2418960              1.0000000        
S   1   1.00
      0.1064860              1.0000000        
S   1   1.00
      0.0407000              1.0000000        
P   8   1.00
    503.6320000              0.0004640        
     93.0023000              0.0054560        
     42.5100000             -0.0013070        
     26.5778000             -0.0887240        
      7.5809700              0.3001460        
      3.8588700              0.4722000        
      1.9430900              0.2982910        
      0.9242090              0.0537770        
P   8   1.00
    503.6320000             -0.0001290        
     93.0023000             -0.0017470        
     42.5100000              0.0018620        
     26.5778000              0.0234510        
      7.5809700             -0.0989990        
      3.8588700             -0.1577990        
      1.9430900             -0.1232600        
      0.9242090              0.1538350        
P   1   1.00
      0.4177330              1.0000000        
P   1   1.00
      0.1808530              1.0000000        
P   1   1.00
      0.0751540              1.0000000        
P   1   1.00
      0.0295000              1.0000000        
D   9   1.00
   1097.7200000              0.0001110        
    332.9290000              0.0011530        
    130.8000000              0.0076900        
     60.1271000              0.0357150        
     29.7430000              0.0930320        
     15.0381000              0.1885660        
      7.7313200              0.2835430        
      3.9619300              0.3179110        
      2.0044900              0.2481490        
D   1   1.00
      0.9732760              1.0000000        
D   1   1.00
      0.4146780              1.0000000        
D   1   1.00
      0.1747000              1.0000000        
D   1   1.00
      0.0747000              1.0000000        
F   1   1.00
      0.8255000              1.0000000        
F   1   1.00
      0.3409000              1.0000000        
F   1   1.00
      0.1613000              1.0000000        
G   1   1.00
      0.6582000              1.0000000        
G   1   1.00
      0.3067000              1.0000000        
****
C 0
aug-cc-pVQZ
****
F 0
aug-cc-pVQZ
****
H 0
aug-cc-pVQZ
****
N 0
aug-cc-pVQZ
****

BR     0
BR-ECP     4     10
g-ul potential
  1
2      1.0000000              0.0000000        
s-ul potential
  3
2     70.0242570             49.9628340        
2     31.1784120            370.0142050        
2      7.1565930             10.2414390        
p-ul potential
  4
2     46.7734710             99.1122440        
2     46.1841200            198.2530460        
2     21.7138580             28.2617400        
2     20.9417920             56.6233660        
d-ul potential
  6
2     50.6988390            -18.6058530        
2     50.6447640            -27.9232800        
2     15.4475090             -0.3796930        
2     15.5002590             -0.7805830        
2      2.8003910              0.0359680        
2      1.0774800              0.0943970        
f-ul potential
  2
2     14.4656060             -1.0912690        
2     21.2340650             -2.8876910        

NCH_FBr.wfx

