%nprocs=6
%mem=4GB
#p blyp aug-cc-pvqz output=wfx scf=(conver=6) int=(grid=ultrafine)
 
title
 
0 1
O 0.0000000000 0.0000000000 0.6715990000
C 0.0000000000 0.0000000000 -0.5261420000
H 0.0000000000 0.9389690000 -1.1079710000
H 0.0000000000 -0.9389690000 -1.1079710000

OCH2.wfx

