&control
 title='crystal',
 prefix='crystal',
 pseudo_dir='.',
 calculation='vc-relax',
/
&system
 ibrav=0,
 celldm(1)=1.0,
 nat=   112,
 ntyp=  4,
 ecutwfc=60.0,
 ecutrho=600.0,
 xdm=.true.,
 xdm_a1=0.4073,
 xdm_a2=2.4150,
/
&electrons
 conv_thr = 1d-8,
/
&ions
/
&cell
/
ATOMIC_SPECIES
h      1.007940 h.UPF
b     10.811000 b.UPF
c     12.010700 c.UPF
o     15.999400 o.UPF

ATOMIC_POSITIONS crystal
h     0.73214666     0.28272011     0.73073665
h     0.26785331     0.71727990     0.26926335
h     0.26783029     0.78260365     0.76927648
h     0.73216968     0.21739636     0.23072351
h     0.81669208     0.91283629     0.64954829
h     0.18330789     0.08716372     0.35045170
h     0.18329775     0.41272169     0.85046030
h     0.81670222     0.58727832     0.14953970
h     0.74213644     0.76553853     0.27979174
h     0.25786353     0.23446149     0.72020826
h     0.25787806     0.26548873     0.22019716
h     0.74212191     0.73451128     0.77980284
c     0.68463556     0.19378168     0.69139833
c     0.31536441     0.80621833     0.30860166
c     0.31534786     0.69366154     0.80860977
c     0.68465211     0.30633847     0.19139023
h     0.60371526     0.56874767     0.48231493
h     0.39628471     0.43125234     0.51768507
h     0.39630540     0.06863563     0.01767196
h     0.60369457     0.93136438     0.98232804
c     0.73185456     0.98491639     0.64606132
c     0.26814541     0.01508362     0.35393867
c     0.26813761     0.48479523     0.85394309
c     0.73186236     0.51520478     0.14605691
o     0.71822600     0.15479260     0.39226301
o     0.28177397     0.84520741     0.60773699
o     0.28179232     0.65471120     0.10772749
o     0.71820765     0.34528881     0.89227251
c     0.80896609     0.78363022     0.31261616
c     0.19103388     0.21636979     0.68738384
c     0.19104404     0.28359815     0.18737591
c     0.80895593     0.71640186     0.81262409
h     0.91424116     0.46544004     0.25776741
h     0.08575881     0.53455997     0.74223259
h     0.08575624     0.96547007     0.24223099
h     0.91424373     0.03452995     0.75776901
c     0.80298419     0.96979259     0.36858299
c     0.19701578     0.03020742     0.63141700
c     0.19702840     0.46974218     0.13141037
c     0.80297157     0.53025783     0.86858962
c     0.68678882     0.51444458     0.49502176
c     0.31321115     0.48555543     0.50497823
c     0.31322724     0.01434104     0.00497168
c     0.68677273     0.98565897     0.99502831
h     0.53914479     0.45261865     0.72136234
h     0.46085518     0.54738136     0.27863766
h     0.46083324     0.95250220     0.77864417
h     0.53916673     0.04749781     0.22135583
c     0.90495159     0.61505349     0.30113755
c     0.09504838     0.38494652     0.69886245
c     0.09505222     0.11505565     0.19885815
c     0.90494775     0.88494436     0.80114185
b     0.75362919     0.28973016     0.45100833
b     0.24637078     0.71026985     0.54899167
b     0.24638655     0.78965312     0.04898655
b     0.75361342     0.21034689     0.95101344
c     0.57638654     0.28810962     0.68642133
c     0.42361343     0.71189039     0.31357867
c     0.42359818     0.78798842     0.81358276
c     0.57640179     0.21201159     0.18641724
c     0.67236614     0.86446592     0.59502147
c     0.32763383     0.13553409     0.40497853
c     0.32763212     0.36434877     0.90497841
c     0.67236785     0.63565124     0.09502159
c     0.72716729     0.64839774     0.54880688
c     0.27283268     0.35160228     0.45119311
c     0.27283846     0.14829278     0.95119224
c     0.72716151     0.85170723     0.04880776
c     0.88763428     0.98823608     0.41181382
c     0.11236569     0.01176393     0.58818618
c     0.11237278     0.48821242     0.08818404
c     0.88762719     0.51178759     0.91181596
o     0.85852089     0.18611205     0.46366326
o     0.14147908     0.81388796     0.53633673
o     0.14148693     0.68607341     0.03633643
o     0.85851303     0.31392660     0.96366357
c     0.98927450     0.63317469     0.34471524
c     0.01072547     0.36682533     0.65528476
c     0.01072735     0.13318842     0.15528239
c     0.98927262     0.86681159     0.84471761
h     0.81126915     0.59357792     0.55971508
h     0.18873081     0.40642209     0.44028492
h     0.18873111     0.09348734     0.94029120
h     0.81126886     0.90651267     0.05970880
c     0.98203187     0.82068753     0.40172823
c     0.01796810     0.17931248     0.59827177
c     0.01797036     0.32068763     0.09827108
c     0.98202961     0.67931238     0.90172892
h     0.06185075     0.49646277     0.33428239
h     0.93814922     0.50353724     0.66571761
h     0.93814852     0.99649195     0.16571498
h     0.06185145     0.00350806     0.83428502
c     0.51583785     0.16946982     0.63626748
c     0.48416212     0.83053019     0.36373252
c     0.48415419     0.66934532     0.86373006
c     0.51584578     0.33065469     0.13626994
c     0.56278152     0.95940025     0.59131028
c     0.43721845     0.04059976     0.40868971
c     0.43722002     0.45927565     0.90868382
c     0.56277995     0.54072436     0.09131617
h     0.04579066     0.83078048     0.43697749
h     0.95420931     0.16921953     0.56302250
h     0.95421124     0.33078549     0.06302267
h     0.04578872     0.66921452     0.93697732
h     0.43120418     0.24094832     0.63244754
h     0.56879579     0.75905169     0.36755246
h     0.56878903     0.74082084     0.86754777
h     0.43121094     0.25917917     0.13245223
h     0.51349149     0.86703903     0.55338603
h     0.48650848     0.13296098     0.44661397
h     0.48651529     0.36692212     0.94660474
h     0.51348468     0.63307789     0.05339526

K_POINTS automatic
2 2 2 1 1 1

CELL_PARAMETERS cubic
   22.793465000000     0.000135000000     0.416908000000
    0.000043000000     8.999609000000    -0.000113000000
    4.020984000000    -0.001079000000    35.901417000000
