&control
 title='crystal',
 prefix='crystal',
 pseudo_dir='.',
 calculation='vc-relax',
/
&system
 ibrav=0,
 celldm(1)=1.0,
 nat=   112,
 ntyp=  4,
 ecutwfc=60.0,
 ecutrho=600.0,
 xdm=.true.,
 xdm_a1=0.4073,
 xdm_a2=2.4150,
/
&electrons
 conv_thr = 1d-8,
/
&ions
/
&cell
/
ATOMIC_SPECIES
h      1.007940 h.UPF
b     10.811000 b.UPF
c     12.010700 c.UPF
o     15.999400 o.UPF

ATOMIC_POSITIONS crystal
b     0.74571832     0.21372705     0.95065158
b     0.25428165     0.78627299     0.04934843
b     0.25428886     0.71376286     0.54934795
b     0.74571111     0.28623718     0.45065206
o     0.64114667     0.31784524     0.96354246
o     0.35885329     0.68215480     0.03645755
o     0.35886507     0.81780068     0.53645861
o     0.64113489     0.18219936     0.46354140
c     0.61207537     0.51568958     0.91163824
c     0.38792459     0.48431046     0.08836177
c     0.38793602     0.01565195     0.58835790
c     0.61206395     0.98434809     0.41164211
c     0.51805316     0.68394142     0.90179194
c     0.48194680     0.31605863     0.09820807
c     0.48196067     0.18384746     0.59820158
c     0.51803930     0.81615258     0.40179843
c     0.51085997     0.87155125     0.84472911
c     0.48914000     0.12844879     0.15527090
c     0.48915323     0.37148528     0.65525896
c     0.51084673     0.62851476     0.34474105
c     0.59484150     0.88899303     0.80086287
c     0.40515847     0.11100701     0.19913714
c     0.40516639     0.38901134     0.69912132
c     0.59483357     0.61098870     0.30087869
c     0.69044694     0.71963615     0.81210110
c     0.30955302     0.28036389     0.18789890
c     0.30955686     0.21971345     0.68788427
c     0.69044311     0.78028660     0.31211574
c     0.69640700     0.53351849     0.86813555
c     0.30359297     0.46648155     0.13186446
c     0.30360028     0.03356247     0.63185532
c     0.69639969     0.96643758     0.36814469
o     0.78094147     0.34822598     0.89170142
o     0.21905850     0.65177406     0.10829859
o     0.21906407     0.84831495     0.60829270
o     0.78093590     0.15168510     0.39170731
c     0.81251832     0.98905110     0.99462612
c     0.18748165     0.01094894     0.00537389
c     0.18748928     0.48911807     0.50537411
c     0.81251068     0.51088197     0.49462590
c     0.77220253     0.85412367     0.04836077
c     0.22779744     0.14587638     0.95163924
c     0.22780297     0.35417476     0.45163898
c     0.77219699     0.64582528     0.54836103
c     0.82706320     0.63791292     0.09448583
c     0.17293677     0.36208712     0.90551418
c     0.17294178     0.13798227     0.40551687
c     0.82705819     0.86201777     0.59448314
c     0.93679960     0.54477662     0.09092175
c     0.06320037     0.45522342     0.90907826
c     0.06320458     0.04492027     0.40908596
c     0.93679539     0.95507977     0.59091405
c     0.98393446     0.33502769     0.13588982
c     0.01606551     0.66497236     0.86411019
c     0.01606168     0.83518651     0.36411992
c     0.98393829     0.16481353     0.63588009
c     0.92338039     0.21473064     0.18586229
c     0.07661957     0.78526940     0.81413772
c     0.07661047     0.71484221     0.31414721
c     0.92338950     0.28515784     0.68585280
c     0.81488880     0.30680991     0.19059171
c     0.18511117     0.69319013     0.80940830
c     0.18510204     0.80684730     0.30941384
c     0.81489792     0.19315274     0.69058617
c     0.76750540     0.51551057     0.14527795
c     0.23249457     0.48448947     0.85472205
c     0.23249183     0.01552938     0.35472442
c     0.76750813     0.98447066     0.64527559
h     0.45457091     0.67413117     0.93726381
h     0.54542905     0.32586888     0.06273620
h     0.54544625     0.17398102     0.56273314
h     0.45455371     0.82601902     0.43726686
h     0.43861598     0.00894962     0.83447700
h     0.56138399     0.99105042     0.16552301
h     0.56139912     0.50883664     0.66550922
h     0.43860084     0.49116341     0.33449079
h     0.58559518     0.03872245     0.75747110
h     0.41440479     0.96127759     0.24252891
h     0.41441192     0.53875857     0.74250775
h     0.58558804     0.46124147     0.25749226
h     0.75703351     0.73712097     0.77905916
h     0.24296646     0.26287907     0.22094085
h     0.24296701     0.23725710     0.72092172
h     0.75703295     0.76274295     0.27907829
h     0.89554104     0.93540442     0.98186658
h     0.10445893     0.06459562     0.01813343
h     0.10446890     0.43550150     0.51813628
h     0.89553106     0.56449855     0.48186373
h     0.68811668     0.90807979     0.05928664
h     0.31188329     0.09192025     0.94071337
h     0.31188808     0.40809553     0.44071017
h     0.68811189     0.59190452     0.55928984
h     0.98602331     0.63830829     0.05308893
h     0.01397665     0.36169176     0.94691108
h     0.01398578     0.13848330     0.44691947
h     0.98601418     0.86151674     0.55308054
h     0.06874301     0.26529011     0.13224535
h     0.93125695     0.73470994     0.86775466
h     0.93125315     0.76551534     0.36776859
h     0.06874682     0.23448471     0.63223142
h     0.96077387     0.05051588     0.22081860
h     0.03922610     0.94948417     0.77918141
h     0.03921058     0.55063984     0.27919324
h     0.96078939     0.44936020     0.72080677
h     0.76730847     0.21616247     0.22971142
h     0.23269150     0.78383758     0.77028859
h     0.23267857     0.71616712     0.27029284
h     0.76732140     0.28383292     0.72970717
h     0.68245025     0.58565260     0.14854421
h     0.31754971     0.41434745     0.85145580
h     0.31754717     0.08561960     0.35145381
h     0.68245280     0.91438045     0.64854620

K_POINTS automatic
2 2 2 1 1 1

CELL_PARAMETERS cubic
   22.820840000000     0.001118000000     0.085974000000
    0.000445000000     9.018377000000     0.000039000000
   -4.817295000000    -0.000076000000    35.707050000000
