&control
 title='crystal',
 prefix='crystal',
 pseudo_dir='.',
 calculation='vc-relax',
/
&system
 ibrav=0,
 celldm(1)=1.0,
 nat=   224,
 ntyp=  4,
 ecutwfc=60.0,
 ecutrho=600.0,
 xdm=.true.,
 xdm_a1=0.4073,
 xdm_a2=2.4150,
/
&electrons
 conv_thr = 1d-8,
/
&ions
/
&cell
/
ATOMIC_SPECIES
h      1.007940 h.UPF
b     10.811000 b.UPF
c     12.010700 c.UPF
o     15.999400 o.UPF

ATOMIC_POSITIONS crystal
h     0.93882823     0.32961637     0.95754746
h     0.06117176     0.67038362     0.04245256
h     0.93882823     0.17038362     0.45754746
h     0.06117175     0.82961637     0.54245256
h     0.56112665     0.67037838     0.45755572
h     0.43887335     0.32962162     0.54244430
h     0.56112665     0.82962162     0.95755572
h     0.43887334     0.17037837     0.04244430
h     0.86529012     0.24109530     0.94812479
h     0.13470988     0.75890469     0.05187523
h     0.86529012     0.25890470     0.44812479
h     0.13470987     0.74109530     0.55187523
h     0.63469116     0.75889802     0.44813435
h     0.36530884     0.24110198     0.55186567
h     0.63469116     0.74110198     0.94813435
h     0.36530883     0.25889801     0.05186567
h     0.01688265     0.94111646     0.27479619
h     0.98311734     0.05888354     0.72520383
h     0.01688265     0.55888354     0.77479619
h     0.98311733     0.44111645     0.22520383
h     0.48311569     0.05888210     0.77480095
h     0.51688431     0.94111790     0.22519907
h     0.48311569     0.44111790     0.27480095
h     0.51688430     0.55888209     0.72519907
c     0.98124636     0.30559732     0.02981369
c     0.01875364     0.69440268     0.97018633
c     0.98124636     0.19440268     0.52981369
c     0.01875363     0.80559731     0.47018633
c     0.51871767     0.69439813     0.52982265
c     0.48128232     0.30560187     0.47017737
c     0.51871767     0.80560187     0.02982265
c     0.48128231     0.19439812     0.97017737
h     0.04550936     0.14436784     0.26985610
h     0.95449063     0.85563215     0.73014392
h     0.04550936     0.35563215     0.76985610
h     0.95449063     0.64436784     0.23014392
h     0.45448043     0.85563072     0.76985740
h     0.54551957     0.14436927     0.23014262
h     0.45448043     0.64436928     0.26985740
h     0.54551956     0.35563072     0.73014262
c     0.93928365     0.25574880     0.02445048
c     0.06071634     0.74425119     0.97554954
c     0.93928365     0.24425120     0.52445048
c     0.06071634     0.75574880     0.47554954
c     0.56069143     0.74424575     0.52445984
c     0.43930856     0.25575425     0.47554018
c     0.56069143     0.75575425     0.02445984
c     0.43930855     0.24424574     0.97554018
o     0.97588704     0.04236722     0.23091874
o     0.02411296     0.95763278     0.76908128
o     0.97588704     0.45763278     0.73091874
o     0.02411295     0.54236721     0.26908128
o     0.52409959     0.95763084     0.73091665
o     0.47590040     0.04236915     0.26908337
o     0.52409959     0.54236916     0.23091665
o     0.47590039     0.45763084     0.76908337
c     0.93214976     0.95254132     0.19988296
c     0.06785023     0.04745867     0.80011706
c     0.93214976     0.54745868     0.69988296
c     0.06785023     0.45254132     0.30011706
c     0.56784570     0.04745655     0.69988274
c     0.43215430     0.95254345     0.30011728
c     0.56784570     0.45254345     0.19988274
c     0.43215429     0.54745655     0.80011728
h     0.86782644     0.87959553     0.13899030
h     0.13217355     0.12040447     0.86100972
h     0.86782644     0.62040447     0.63899030
h     0.13217354     0.37959552     0.36100972
h     0.63215242     0.12040259     0.63898686
h     0.36784757     0.87959740     0.36101316
h     0.63215242     0.37959740     0.13898686
h     0.36784756     0.62040259     0.86101316
c     0.90547416     0.00163080     0.17321433
c     0.09452583     0.99836919     0.82678569
c     0.90547416     0.49836919     0.67321433
c     0.09452583     0.50163080     0.32678569
c     0.59451476     0.99836814     0.67321633
c     0.40548523     0.00163185     0.32678369
c     0.59451476     0.50163186     0.17321633
c     0.40548522     0.49836814     0.82678369
c     0.97217489     0.13589042     0.18759160
c     0.02782510     0.86410958     0.81240842
c     0.97217489     0.36410958     0.68759160
c     0.02782510     0.63589041     0.31240842
c     0.52779486     0.86410769     0.68758410
c     0.47220514     0.13589230     0.31241593
c     0.52779486     0.63589231     0.18758410
c     0.47220513     0.36410769     0.81241593
h     0.11240506     0.36345659     0.13039897
h     0.88759494     0.63654340     0.86960106
h     0.11240506     0.13654340     0.63039897
h     0.88759493     0.86345659     0.36960106
h     0.38753244     0.63654140     0.63040385
h     0.61246755     0.36345859     0.36959617
h     0.38753244     0.86345860     0.13040385
h     0.61246754     0.13654140     0.86959617
c     0.84849635     0.91862911     0.12315839
c     0.15150364     0.08137088     0.87684163
c     0.84849635     0.58137089     0.62315839
c     0.15150363     0.41862911     0.37684163
c     0.65148535     0.08136927     0.62315854
c     0.34851464     0.91863073     0.37684148
c     0.65148535     0.41863073     0.12315854
c     0.34851463     0.58136927     0.87684148
b     0.91623024     0.08270850     0.16319142
b     0.08376975     0.91729149     0.83680860
b     0.91623024     0.41729149     0.66319142
b     0.08376974     0.58270850     0.33680860
b     0.58374080     0.91728975     0.66318310
b     0.41625919     0.08271024     0.33681692
b     0.58374080     0.58271025     0.16318310
b     0.41625919     0.41728975     0.83681692
c     0.07763727     0.32457563     0.12702447
c     0.92236273     0.67542436     0.87297555
c     0.07763727     0.17542437     0.62702447
c     0.92236272     0.82457563     0.37297555
c     0.42232076     0.67542109     0.62703363
c     0.57767923     0.32457890     0.37296640
c     0.42232076     0.82457891     0.12703363
c     0.57767922     0.17542109     0.87296640
c     0.99110702     0.22377108     0.11672362
c     0.00889297     0.77622892     0.88327640
c     0.99110702     0.27622892     0.61672362
c     0.00889296     0.72377108     0.38327640
c     0.50886736     0.77622498     0.61672923
c     0.49113263     0.22377501     0.38327079
c     0.50886736     0.72377501     0.11672923
c     0.49113262     0.27622498     0.88327079
c     0.94169060     0.17197007     0.10729877
c     0.05830939     0.82802993     0.89270125
c     0.94169060     0.32802993     0.60729877
c     0.05830939     0.67197006     0.39270125
c     0.55826515     0.82802722     0.60729428
c     0.44173484     0.17197277     0.39270574
c     0.55826515     0.67197278     0.10729428
c     0.44173483     0.32802722     0.89270574
c     0.80198485     0.01685203     0.07514848
c     0.19801514     0.98314796     0.92485154
c     0.80198485     0.48314797     0.57514848
c     0.19801513     0.51685203     0.42485154
c     0.69799705     0.98314676     0.57514029
c     0.30200295     0.01685324     0.42485974
c     0.69799705     0.51685324     0.07514029
c     0.30200294     0.48314676     0.92485974
o     0.80396911     0.06739963     0.06832577
o     0.19603088     0.93260036     0.93167426
o     0.80396911     0.43260037     0.56832577
o     0.19603088     0.56739963     0.43167426
o     0.69599932     0.93259867     0.56831652
o     0.30400067     0.06740132     0.43168351
o     0.69599932     0.56740133     0.06831652
o     0.30400066     0.43259867     0.93168351
c     0.74457756     0.93386904     0.02496030
c     0.25542243     0.06613095     0.97503972
c     0.74457756     0.56613096     0.52496030
c     0.25542242     0.43386904     0.47503972
c     0.75539544     0.06612905     0.52495028
c     0.24460455     0.93387094     0.47504974
c     0.75539544     0.43387095     0.02495028
c     0.24460454     0.56612905     0.97504974
h     0.87148894     0.16215434     0.02472599
h     0.12851105     0.83784566     0.97527404
h     0.87148894     0.33784566     0.52472599
h     0.12851105     0.66215434     0.47527404
h     0.62844266     0.83784206     0.52471103
h     0.37155733     0.16215793     0.47528900
h     0.62844266     0.66215794     0.02471103
h     0.37155733     0.33784206     0.97528900
c     0.71993468     0.98369233     0.99854643
c     0.28006531     0.01630767     0.00145360
c     0.71993468     0.51630767     0.49854643
c     0.28006530     0.48369233     0.50145360
c     0.78003163     0.01630620     0.49854039
c     0.21996837     0.98369379     0.50145963
c     0.78003163     0.48369379     0.99854039
c     0.21996836     0.51630620     0.00145963
h     0.68324377     0.90664883     0.96630175
h     0.31675623     0.09335117     0.03369828
h     0.68324377     0.59335117     0.46630175
h     0.31675622     0.40664882     0.53369828
h     0.81670971     0.09334999     0.46628769
h     0.18329029     0.90665000     0.53371233
h     0.81670971     0.40665001     0.96628769
h     0.18329028     0.59334999     0.03371233
c     0.13038238     0.29310825     0.21920094
c     0.86961761     0.70689174     0.78079908
c     0.13038238     0.20689175     0.71920094
c     0.86961761     0.79310825     0.28079908
c     0.36959957     0.70688873     0.71921433
c     0.63040042     0.29311126     0.28078569
c     0.36959957     0.79311127     0.21921433
c     0.63040041     0.20688873     0.78078569
c     0.08704478     0.24343103     0.21441129
c     0.91295521     0.75656896     0.78558873
c     0.08704478     0.25656897     0.71441129
c     0.91295521     0.74343103     0.28558873
c     0.41294273     0.75656544     0.71442374
c     0.58705727     0.24343456     0.28557628
c     0.41294273     0.74343456     0.21442374
c     0.58705726     0.25656544     0.78557628
h     0.64229829     0.99548564     0.92124932
h     0.35770170     0.00451436     0.07875070
h     0.64229829     0.50451436     0.42124932
h     0.35770169     0.49548563     0.57875070
h     0.85765576     0.00451284     0.42123270
h     0.14234423     0.99548715     0.57876732
h     0.85765576     0.49548716     0.92123270
h     0.14234422     0.50451284     0.07876732
h     0.20747533     0.30711788     0.29494686
h     0.79252466     0.69288211     0.70505316
h     0.20747533     0.19288212     0.79494686
h     0.79252465     0.80711788     0.20505316
h     0.29250928     0.69287980     0.79496254
h     0.70749071     0.30712019     0.20503748
h     0.29250928     0.80712019     0.29496254
h     0.70749071     0.19287980     0.70503748
h     0.12964736     0.21964215     0.28687940
h     0.87035263     0.78035785     0.71312062
h     0.12964736     0.28035785     0.78687940
h     0.87035262     0.71964215     0.21312062
h     0.37035326     0.78035440     0.78689422
h     0.62964673     0.21964559     0.21310580
h     0.37035326     0.71964560     0.28689422
h     0.62964672     0.28035440     0.71310580

K_POINTS automatic
2 2 2 1 1 1

CELL_PARAMETERS cubic
   13.619172000000     0.000000000000    -0.000009000000
    0.000000000000    51.487996000000     0.000000000000
   -0.000007000000     0.000000000000    21.309717000000
