&control
 title='crystal',
 prefix='crystal',
 pseudo_dir='.',
 calculation='vc-relax',
/
&system
 ibrav=0,
 celldm(1)=1.0,
 nat=   112,
 ntyp=  4,
 ecutwfc=60.0,
 ecutrho=600.0,
 xdm=.true.,
 xdm_a1=0.4073,
 xdm_a2=2.4150,
/
&electrons
 conv_thr = 1d-8,
/
&ions
/
&cell
/
ATOMIC_SPECIES
h      1.007940 h.UPF
b     10.811000 b.UPF
c     12.010700 c.UPF
o     15.999400 o.UPF

ATOMIC_POSITIONS crystal
h     0.62995994     0.59670128     0.13775229
h     0.12995941     0.09670042     0.13775313
h     0.62996010     0.40329754     0.63775154
h     0.12995957     0.90329668     0.63775239
c     0.72532572     0.58506682     0.14068337
c     0.22532519     0.08506596     0.14068422
c     0.72532617     0.41493170     0.64068242
c     0.22532564     0.91493084     0.64068326
c     0.76790486     0.74120119     0.18045718
c     0.26790433     0.24120033     0.18045803
c     0.76790484     0.25879921     0.68045672
c     0.26790431     0.75879835     0.68045757
h     0.70263330     0.87664099     0.21152070
h     0.20263277     0.37664013     0.21152155
h     0.70263345     0.12335824     0.71151997
h     0.20263292     0.62335738     0.71152082
c     0.89278363     0.72634340     0.18146501
c     0.39278310     0.22634254     0.18146586
c     0.89278344     0.27365668     0.68146487
c     0.39278291     0.77365582     0.68146572
h     0.92215101     0.85212893     0.21230690
h     0.42215048     0.35212807     0.21230775
h     0.92215079     0.14787197     0.71230676
h     0.42215025     0.64787111     0.71230761
c     0.98095748     0.55530475     0.14309847
c     0.48095695     0.05530389     0.14309932
c     0.98095684     0.44469649     0.64309817
c     0.48095631     0.94469563     0.64309902
h     0.07942605     0.54644988     0.14176781
h     0.57942552     0.04644902     0.14176866
h     0.07942551     0.45355176     0.64176785
h     0.57942498     0.95355090     0.64176870
c     0.93733894     0.40108322     0.10481376
c     0.43733841     0.90108236     0.10481461
c     0.93733880     0.59891661     0.60481366
c     0.43733827     0.09891575     0.60481451
c     0.81283963     0.41585160     0.10359996
c     0.31283910     0.91585073     0.10360081
c     0.81283927     0.58414874     0.60359979
c     0.31283874     0.08414788     0.60360064
o     0.79669812     0.24105151     0.06098636
o     0.29669759     0.74105065     0.06098721
o     0.79669841     0.75894816     0.56098570
o     0.29669788     0.25894730     0.56098655
b     0.91488321     0.11817213     0.03625507
b     0.41488268     0.61817127     0.03625592
b     0.91488344     0.88182782     0.53625461
b     0.41488291     0.38182696     0.53625546
o     0.00266269     0.21715584     0.06332213
o     0.50266216     0.71715498     0.06332298
o     0.00266253     0.78284474     0.56332199
o     0.50266200     0.28284388     0.56332284
c     0.94376390     0.90903962     0.98674149
c     0.44376337     0.40903876     0.98674234
c     0.94376388     0.09096041     0.48674095
c     0.44376335     0.59095955     0.48674180
h     0.86579040     0.84048305     0.97263452
h     0.36578987     0.34048219     0.97263537
h     0.86579107     0.15951638     0.47263362
h     0.36579054     0.65951552     0.47263447
c     0.06340229     0.80850235     0.96012388
c     0.56340176     0.30850149     0.96012473
c     0.06340285     0.19149784     0.46012380
c     0.56340232     0.69149698     0.46012465
h     0.13884006     0.88022740     0.97607269
h     0.63883953     0.38022654     0.97607354
h     0.13883979     0.11977350     0.47607264
h     0.63883926     0.61977264     0.47607349
c     0.10752481     0.61272969     0.91046442
c     0.60752428     0.11272883     0.91046527
c     0.10752479     0.38727106     0.41046380
c     0.60752426     0.88727020     0.41046465
c     0.02614543     0.49155048     0.88401598
c     0.52614490     0.99154962     0.88401683
c     0.02614558     0.50844913     0.38401583
c     0.52614505     0.00844827     0.38401668
h     0.92304371     0.54059342     0.90209833
h     0.42304318     0.04059256     0.90209918
h     0.92304380     0.45940609     0.40209794
h     0.42304327     0.95940523     0.40209879
c     0.07634875     0.30886999     0.83522119
c     0.57634822     0.80886913     0.83522204
c     0.07634852     0.69112972     0.33522088
c     0.57634799     0.19112886     0.33522173
h     0.01281926     0.21704722     0.81483441
h     0.51281873     0.71704636     0.81483526
h     0.01281906     0.78295225     0.31483402
h     0.51281853     0.28295139     0.31483487
c     0.20788997     0.24092265     0.81219431
c     0.70788944     0.74092179     0.81219515
c     0.20789033     0.75907744     0.31219381
c     0.70788980     0.25907658     0.31219465
h     0.24555470     0.09598535     0.77511970
h     0.74555417     0.59598449     0.77512055
h     0.24555437     0.90401480     0.27511938
h     0.74555384     0.40401394     0.27512023
c     0.28938515     0.35895789     0.83810171
c     0.78938462     0.85895703     0.83810256
c     0.28938446     0.64104303     0.33810142
c     0.78938393     0.14104217     0.33810227
h     0.39221100     0.30792681     0.82011946
h     0.89221047     0.80792595     0.82012031
h     0.39221112     0.69207463     0.32011908
h     0.89221059     0.19207377     0.32011993
c     0.23942858     0.54247086     0.88671178
c     0.73942805     0.04247000     0.88671263
c     0.23942907     0.45752982     0.38671159
c     0.73942854     0.95752896     0.38671244
h     0.30227702     0.63472859     0.90751253
h     0.80227649     0.13472773     0.90751338
h     0.30227721     0.36527278     0.40751216
h     0.80227668     0.86527192     0.40751301

K_POINTS automatic
2 2 2 1 1 1

CELL_PARAMETERS cubic
   21.010210000000    -0.000006000000     0.617940000000
    0.000003000000    11.622794000000     0.000001000000
   14.057629000000    -0.000013000000    31.468494000000
