&control
 title='crystal',
 prefix='crystal',
 pseudo_dir='.',
 calculation='vc-relax',
/
&system
 ibrav=0,
 celldm(1)=1.0,
 nat=   112,
 ntyp=  4,
 ecutwfc=60.0,
 ecutrho=600.0,
 xdm=.true.,
 xdm_a1=0.4073,
 xdm_a2=2.4150,
/
&electrons
 conv_thr = 1d-8,
/
&ions
/
&cell
/
ATOMIC_SPECIES
h      1.007940 h.UPF
b     10.811000 b.UPF
c     12.010700 c.UPF
o     15.999400 o.UPF

ATOMIC_POSITIONS crystal
c     0.29432802     0.60403318     0.42797602
c     0.70567199     0.39596680     0.57202398
c     0.70571274     0.10402212     0.07203935
c     0.29428727     0.89597785     0.92796065
h     0.18198203     0.52877148     0.39773213
h     0.81801798     0.47122850     0.60226787
h     0.81805218     0.02876118     0.10228742
h     0.18194783     0.97123880     0.89771258
c     0.48507500     0.59706680     0.41540525
c     0.51492501     0.40293317     0.58459475
c     0.51495187     0.09704862     0.08459849
c     0.48504814     0.90295135     0.91540151
h     0.59875023     0.67160456     0.44550825
h     0.40124978     0.32839542     0.55449175
h     0.40128598     0.17158618     0.05449042
h     0.59871402     0.82841380     0.94550958
b     0.22114206     0.70963277     0.48173190
b     0.77885795     0.29036721     0.51826810
b     0.77890027     0.20962436     0.01828856
b     0.22109974     0.79037562     0.98171144
o     0.33782680     0.81265396     0.52741486
o     0.66217320     0.18734602     0.47258514
o     0.66220222     0.31264057     0.97260565
o     0.33779779     0.68735941     0.02739435
o     0.02015302     0.71290233     0.49218527
o     0.97984699     0.28709765     0.50781473
o     0.97988951     0.21289600     0.00783533
o     0.02011049     0.78710398     0.99216467
c     0.20615385     0.87874460     0.56622492
c     0.79384616     0.12125538     0.43377508
c     0.79386999     0.37872959     0.93379552
c     0.20613002     0.62127039     0.06620448
c     0.01411116     0.81857400     0.54479308
c     0.98588885     0.18142598     0.45520692
c     0.98591816     0.31856410     0.95522638
c     0.01408185     0.68143588     0.04477362
c     0.85078116     0.86373229     0.57448920
c     0.14921884     0.13626769     0.42551080
c     0.14923542     0.36371668     0.92552790
c     0.85076459     0.63628329     0.07447210
h     0.70132720     0.81878863     0.55709384
h     0.29867281     0.18121135     0.44290616
h     0.29869910     0.31877495     0.94292300
h     0.70130091     0.68122503     0.05707700
c     0.88870914     0.97195933     0.62823613
c     0.11129086     0.02804065     0.37176387
c     0.11129182     0.47192721     0.87178005
c     0.88870818     0.52807277     0.12821995
h     0.76548208     0.00966802     0.65363189
h     0.23451792     0.99033195     0.34636811
h     0.23451350     0.50962998     0.84638119
h     0.76548651     0.49037000     0.15361881
c     0.08061375     0.03179293     0.64986414
c     0.91938625     0.96820705     0.35013586
c     0.91938410     0.53176084     0.85015196
c     0.08061591     0.46823914     0.14984804
h     0.10453484     0.11538500     0.69180429
h     0.89546516     0.88461498     0.30819571
h     0.89544872     0.61534295     0.80821145
h     0.10455129     0.38465703     0.19178855
c     0.24431923     0.98709925     0.61877319
c     0.75568078     0.01290072     0.38122681
c     0.75568558     0.48707517     0.88124753
c     0.24431443     0.51292481     0.11875247
h     0.39361101     0.03330611     0.63556156
h     0.60638899     0.96669387     0.36443844
h     0.60639091     0.53328086     0.86446022
h     0.39360910     0.46671912     0.13553978
c     0.55876890     0.49996705     0.36368548
c     0.44123110     0.50003293     0.63631452
c     0.44123928     0.99995224     0.13631216
c     0.55876073     0.00004774     0.86368784
c     0.75908289     0.52139083     0.35391779
c     0.24091712     0.47860915     0.64608221
c     0.24091744     0.02139033     0.14607131
c     0.75908257     0.97860965     0.85392869
h     0.85327802     0.60793432     0.38586001
h     0.14672199     0.39206565     0.61413999
h     0.14673593     0.10794216     0.11412723
h     0.85326408     0.89205782     0.88587277
c     0.83480696     0.43605578     0.30402055
c     0.16519305     0.56394420     0.69597945
c     0.16517450     0.93606108     0.19596354
c     0.83482551     0.06393890     0.80403646
h     0.98940982     0.45643477     0.29665620
h     0.01059019     0.54356521     0.70334380
h     0.01056637     0.95645265     0.20332255
h     0.98943364     0.04354732     0.79667745
c     0.71314204     0.32453597     0.26357916
c     0.28685797     0.67546401     0.73642084
c     0.28682445     0.82453169     0.23640643
c     0.71317555     0.17546828     0.76359357
h     0.77224373     0.25448927     0.22526631
h     0.22775627     0.74551071     0.77473369
h     0.22770626     0.75448856     0.27471531
h     0.77229374     0.24551142     0.72528469
c     0.51450016     0.29979968     0.27319553
c     0.48549985     0.70020030     0.72680447
c     0.48547525     0.79978356     0.22679973
c     0.51452476     0.20021641     0.77320027
h     0.42008038     0.21037488     0.24245842
h     0.57991963     0.78962510     0.75754158
h     0.57988448     0.71035538     0.25753964
h     0.42011553     0.28964459     0.74246036
c     0.43825354     0.38660913     0.32246858
c     0.56174647     0.61339084     0.67753142
c     0.56174230     0.88658956     0.17753209
c     0.43825771     0.11341042     0.82246791
h     0.28432386     0.36314334     0.32986724
h     0.71567615     0.63685663     0.67013276
h     0.71567824     0.86311356     0.17014017
h     0.28432177     0.13688642     0.82985983

K_POINTS automatic
2 2 2 1 1 1

CELL_PARAMETERS cubic
   12.800307000000     0.000286000000    -0.075134000000
    0.000313000000    14.115339000000    -0.000132000000
   -4.735390000000    -0.000473000000    40.115918000000
