&control
 title='crystal',
 prefix='crystal',
 pseudo_dir='.',
 calculation='vc-relax',
/
&system
 ibrav=0,
 celldm(1)=1.0,
 nat=    56,
 ntyp=  4,
 ecutwfc=60.0,
 ecutrho=600.0,
 xdm=.true.,
 xdm_a1=0.4073,
 xdm_a2=2.4150,
/
&electrons
 conv_thr = 1d-8,
/
&ions
/
&cell
/
ATOMIC_SPECIES
h      1.007940 h.UPF
b     10.811000 b.UPF
c     12.010700 c.UPF
o     15.999400 o.UPF

ATOMIC_POSITIONS crystal
h     0.25430461     0.75000001     0.99680280
h     0.74569539     0.25000001     0.00319719
c     0.22365624     0.75000001     0.90325532
c     0.77634375     0.25000001     0.09674467
c     0.14291425     0.75000001     0.66413638
c     0.85708574     0.25000001     0.33586361
c     0.27622588     0.75000001     0.78456722
c     0.72377411     0.25000001     0.21543278
c     0.13080384     0.75000001     0.90223163
c     0.86919616     0.25000001     0.09776837
c     0.08861344     0.75000001     0.78297086
c     0.91138655     0.25000001     0.21702913
c     0.23559714     0.75000001     0.66509322
c     0.76440285     0.25000001     0.33490678
h     0.34895719     0.75000001     0.78494940
h     0.65104280     0.25000001     0.21505059
h     0.09000193     0.75000001     0.99532414
h     0.90999806     0.25000001     0.00467586
c     0.99106429     0.75000001     0.78807899
c     0.00893571     0.25000001     0.21192100
h     0.27602003     0.75000001     0.57193575
h     0.72397997     0.25000001     0.42806425
h     0.11276363     0.75000001     0.56995520
h     0.88723636     0.25000001     0.43004480
c     0.93769397     0.75000001     0.68585083
c     0.06230602     0.25000001     0.31414917
h     0.95845636     0.75000001     0.88787258
h     0.04154363     0.25000001     0.11212741
b     0.83587036     0.75000001     0.70569400
b     0.16412963     0.25000001     0.29430600
h     0.96835459     0.75000001     0.58507592
h     0.03164540     0.25000001     0.41492408
o     0.78592667     0.75000001     0.82850600
o     0.21407333     0.25000001     0.17149399
o     0.77793234     0.75000001     0.60248476
o     0.22206766     0.25000001     0.39751524
h     0.46849280     0.75000001     0.65001445
h     0.53150719     0.25000001     0.34998554
c     0.69225758     0.75000001     0.66282072
c     0.30774241     0.25000001     0.33717927
c     0.53853081     0.75000001     0.82812131
c     0.46146918     0.25000001     0.17187869
c     0.61112439     0.75000001     0.60520250
c     0.38887560     0.25000001     0.39479750
c     0.69711532     0.75000001     0.79955881
c     0.30288468     0.25000001     0.20044118
c     0.62102035     0.75000001     0.88548144
c     0.37897964     0.25000001     0.11451855
c     0.53368052     0.75000001     0.69132338
c     0.46631947     0.25000001     0.30867661
h     0.60783201     0.75000001     0.49871473
h     0.39216798     0.25000001     0.50128526
h     0.47713938     0.75000001     0.89241636
h     0.52286061     0.25000001     0.10758364
h     0.62544174     0.75000001     0.99175035
h     0.37455825     0.25000001     0.00824964

K_POINTS automatic
2 2 2 1 1 1

CELL_PARAMETERS cubic
   28.258072000000     0.000000000000    -0.128552000000
    0.000000000000     7.112973000000     0.000000000000
    1.454343000000     0.000000000000    19.168120000000
