&control
 title='crystal',
 prefix='crystal',
 pseudo_dir='.',
 calculation='vc-relax',
/
&system
 ibrav=0,
 celldm(1)=1.0,
 nat=    56,
 ntyp=  4,
 ecutwfc=60.0,
 ecutrho=600.0,
 xdm=.true.,
 xdm_a1=0.4073,
 xdm_a2=2.4150,
/
&electrons
 conv_thr = 1d-8,
/
&ions
/
&cell
/
ATOMIC_SPECIES
h      1.007940 h.UPF
b     10.811000 b.UPF
c     12.010700 c.UPF
o     15.999400 o.UPF

ATOMIC_POSITIONS crystal
b     0.79390556     0.00357008     0.16456006
b     0.20609442     0.50357008     0.83543993
c     0.81232533     0.00654196     0.06231816
c     0.18767466     0.50654196     0.93768184
c     0.71040333     0.99461417     0.00793354
c     0.28959665     0.49461417     0.99206646
c     0.71716221     0.99728128     0.90988914
c     0.28283778     0.49728128     0.09011085
c     0.83723283     0.00958138     0.85749814
c     0.16276716     0.50958138     0.14250185
c     0.83882732     0.01201946     0.76428389
c     0.16117266     0.51201946     0.23571611
c     0.72069553     0.00214661     0.72122626
c     0.27930445     0.50214661     0.27877373
c     0.60080099     0.98975896     0.77186650
c     0.39919899     0.48975896     0.22813349
c     0.59917346     0.98736509     0.86531866
c     0.40082652     0.48736509     0.13468133
o     0.89832551     0.01494617     0.22231817
o     0.10167447     0.51494617     0.77768182
o     0.67210077     0.98982814     0.21515697
o     0.32789921     0.48982814     0.78484302
c     0.83978231     0.00789343     0.30850187
c     0.16021767     0.50789343     0.69149812
c     0.70291026     0.99330190     0.30419002
c     0.29708972     0.49330190     0.69580997
c     0.61855687     0.98495057     0.38092790
c     0.38144311     0.48495057     0.61907210
c     0.67771655     0.99068278     0.46348388
c     0.32228344     0.49068278     0.53651612
c     0.81468767     0.00429738     0.46769293
c     0.18531231     0.50429738     0.53230706
c     0.89922705     0.01330844     0.38965290
c     0.10077294     0.51330844     0.61034709
h     0.93031784     0.01685038     0.88975045
h     0.06968215     0.51685038     0.11024955
h     0.93279870     0.02127791     0.72532834
h     0.06720128     0.52127791     0.27467166
h     0.72236400     0.00405856     0.64808339
h     0.27763599     0.50405856     0.35191660
h     0.50839417     0.98214920     0.73907328
h     0.49160582     0.48214920     0.26092671
h     0.50515461     0.97795469     0.90466353
h     0.49484537     0.47795469     0.09533647
h     0.61038238     0.98174906     0.03959295
h     0.38961760     0.48174906     0.96040704
h     0.91281171     0.01972024     0.03173357
h     0.08718827     0.51972024     0.96826642
h     0.51215043     0.97486639     0.37695332
h     0.48784955     0.47486639     0.62304668
h     0.61472232     0.98411777     0.52539690
h     0.38527767     0.48411777     0.47460309
h     0.85766954     0.00837857     0.53282944
h     0.14233045     0.50837857     0.46717055
h     0.00583275     0.02378933     0.39244108
h     0.99416724     0.52378933     0.60755891

K_POINTS automatic
2 2 2 1 1 1

CELL_PARAMETERS cubic
   19.207100000000     0.000000000000     0.140149000000
    0.000000000000     7.117541000000     0.000000000000
    1.560771000000     0.000000000000    28.085545000000
