&control
 title='crystal',
 prefix='crystal',
 pseudo_dir='.',
 calculation='vc-relax',
/
&system
 ibrav=0,
 celldm(1)=1.0,
 nat=   112,
 ntyp=  4,
 ecutwfc=60.0,
 ecutrho=600.0,
 xdm=.true.,
 xdm_a1=0.4073,
 xdm_a2=2.4150,
/
&electrons
 conv_thr = 1d-8,
/
&ions
/
&cell
/
ATOMIC_SPECIES
h      1.007940 h.UPF
b     10.811000 b.UPF
c     12.010700 c.UPF
o     15.999400 o.UPF

ATOMIC_POSITIONS crystal
h     0.27388540     0.74999996     0.92858098
h     0.27387714     0.74999996     0.42856490
h     0.72611461     0.25000000     0.07141901
h     0.72610634     0.25000000     0.57140292
c     0.27197309     0.74999996     0.97536290
c     0.27196482     0.74999996     0.47534682
c     0.72802693     0.25000000     0.02463709
c     0.72801866     0.25000000     0.52462100
c     0.26484716     0.74999997     0.09536088
c     0.26483889     0.74999997     0.59534480
c     0.73515285     0.24999999     0.90463911
c     0.73514459     0.24999999     0.40462303
c     0.36436929     0.74999997     0.00968540
c     0.36436103     0.74999997     0.50966932
c     0.63563072     0.25000000     0.99031459
c     0.63562245     0.25000000     0.49029850
c     0.17630534     0.74999997     0.00085149
c     0.17629708     0.74999997     0.50083541
c     0.82369467     0.25000000     0.99914850
c     0.82368640     0.25000000     0.49913242
c     0.17068034     0.74999997     0.06128436
c     0.17067207     0.74999997     0.56126828
c     0.82931968     0.24999999     0.93871563
c     0.82931141     0.24999999     0.43869954
c     0.36022782     0.74999997     0.06987781
c     0.36021955     0.74999997     0.56986172
c     0.63977219     0.24999999     0.93012218
c     0.63976392     0.24999999     0.43010610
h     0.43934973     0.74999996     0.98980243
h     0.43934147     0.74999996     0.48978635
h     0.56065028     0.25000000     0.01019755
h     0.56064201     0.25000000     0.51018147
h     0.10467080     0.74999996     0.97345471
h     0.10466253     0.74999996     0.47343863
h     0.89532922     0.25000000     0.02654528
h     0.89532095     0.25000000     0.52652920
c     0.06860054     0.74999997     0.08612891
c     0.06859227     0.74999997     0.58611283
c     0.93139948     0.25000000     0.91387107
c     0.93139121     0.25000000     0.41385499
h     0.43200224     0.74999997     0.09708096
h     0.43199397     0.74999997     0.59706488
h     0.56799777     0.25000000     0.90291903
h     0.56798950     0.25000000     0.40290295
h     0.26328644     0.74999997     0.14222475
h     0.26327817     0.74999997     0.64220867
h     0.73671358     0.25000000     0.85777524
h     0.73670531     0.25000000     0.35775916
c     0.04785353     0.74999996     0.14279606
c     0.04784526     0.74999996     0.64277998
c     0.95214648     0.25000000     0.85720393
c     0.95213821     0.25000000     0.35718785
h     0.00266426     0.74999997     0.05423486
h     0.00265599     0.74999997     0.55421878
h     0.99733575     0.24999999     0.94576513
h     0.99732748     0.24999999     0.44574905
b     0.93784338     0.74999996     0.16448224
b     0.93783512     0.74999996     0.66446616
b     0.06215663     0.25000000     0.83551775
b     0.06214836     0.25000000     0.33550167
h     0.11224107     0.74999997     0.17542019
h     0.11223280     0.74999997     0.67540411
h     0.88775894     0.24999999     0.82457980
h     0.88775068     0.24999999     0.32456372
o     0.84508951     0.74999996     0.12900072
o     0.84508124     0.74999996     0.62898464
o     0.15491050     0.25000000     0.87099927
o     0.15490224     0.25000000     0.37098318
o     0.91477501     0.74999997     0.22304506
o     0.91476675     0.74999997     0.72302898
o     0.08522500     0.24999999     0.77695492
o     0.08521673     0.24999999     0.27693884
h     0.58636251     0.74999997     0.29433811
h     0.58635424     0.74999997     0.79432203
h     0.41363751     0.24999999     0.70566188
h     0.41362924     0.24999999     0.20564580
c     0.80766306     0.74999996     0.22338385
c     0.80765479     0.74999996     0.72336777
c     0.19233695     0.25000000     0.77661613
c     0.19232869     0.25000000     0.27660005
c     0.59527622     0.74999997     0.20182075
c     0.59526795     0.74999997     0.70180467
c     0.40472379     0.24999999     0.79817924
c     0.40471552     0.24999999     0.29816316
c     0.74598266     0.74999997     0.27050528
c     0.74597439     0.74999997     0.77048920
c     0.25401736     0.24999999     0.72949471
c     0.25400909     0.24999999     0.22947862
c     0.76517835     0.74999996     0.16660555
c     0.76517009     0.74999996     0.66658947
c     0.23482166     0.25000000     0.83339444
c     0.23481339     0.25000000     0.33337836
c     0.65844004     0.74999997     0.15430618
c     0.65843177     0.74999997     0.65429010
c     0.34155997     0.25000000     0.84569381
c     0.34155171     0.25000000     0.34567772
c     0.63798160     0.74999997     0.25859458
c     0.63797333     0.74999997     0.75857849
c     0.36201841     0.24999999     0.74140541
c     0.36201015     0.24999999     0.24138933
h     0.78021963     0.74999997     0.31438572
h     0.78021136     0.74999997     0.81436964
h     0.21978039     0.24999999     0.68561427
h     0.21977212     0.24999999     0.18559819
h     0.51091988     0.74999997     0.19463525
h     0.51091162     0.74999997     0.69461917
h     0.48908013     0.24999999     0.80536474
h     0.48907186     0.24999999     0.30534865
h     0.62578990     0.74999996     0.11003275
h     0.62578163     0.74999996     0.61001666
h     0.37421011     0.25000000     0.88996724
h     0.37420185     0.25000000     0.38995116

K_POINTS automatic
2 2 2 1 1 1

CELL_PARAMETERS cubic
   24.272589000000     0.000000000000     0.321077000000
    0.000000000000     7.274912000000     0.000000000000
   -2.895247000000     0.000000000000    43.697390000000
