&control
 title='crystal',
 prefix='crystal',
 pseudo_dir='.',
 calculation='vc-relax',
/
&system
 ibrav=0,
 celldm(1)=1.0,
 nat=   112,
 ntyp=  4,
 ecutwfc=60.0,
 ecutrho=600.0,
 xdm=.true.,
 xdm_a1=0.4073,
 xdm_a2=2.4150,
/
&electrons
 conv_thr = 1d-8,
/
&ions
/
&cell
/
ATOMIC_SPECIES
h      1.007940 h.UPF
b     10.811000 b.UPF
c     12.010700 c.UPF
o     15.999400 o.UPF

ATOMIC_POSITIONS crystal
c     0.20663180     0.35607669     0.13074218
c     0.79336820     0.64392329     0.86925783
c     0.20663180     0.14392330     0.63074218
c     0.79336820     0.85607668     0.36925783
c     0.04644434     0.31173754     0.18693527
c     0.95355566     0.68826244     0.81306474
c     0.04644435     0.18826245     0.68693527
c     0.95355566     0.81173754     0.31306474
c     0.03172882     0.30477514     0.31911685
c     0.96827118     0.69522484     0.68088316
c     0.03172883     0.19522485     0.81911685
c     0.96827118     0.80477514     0.18088316
c     0.17738449     0.34176211     0.40149372
c     0.82261551     0.65823788     0.59850629
c     0.17738449     0.15823789     0.90149372
c     0.82261551     0.84176210     0.09850629
c     0.34949251     0.39250513     0.21282981
c     0.65050749     0.60749486     0.78717020
c     0.34949252     0.10749487     0.71282981
c     0.65050749     0.89250512     0.28717020
c     0.33503031     0.38541275     0.34496886
c     0.66496969     0.61458724     0.65503115
c     0.33503032     0.11458725     0.84496886
c     0.66496969     0.88541274     0.15503115
o     0.49890227     0.42595615     0.40238822
o     0.50109773     0.57404383     0.59761179
o     0.49890228     0.07404384     0.90238822
o     0.50109773     0.92595615     0.09761179
o     0.52227754     0.43790189     0.18397919
o     0.47772246     0.56209809     0.81602082
o     0.52227755     0.06209810     0.68397919
o     0.47772246     0.93790188     0.31602082
b     0.61458069     0.45852172     0.30228333
b     0.38541931     0.54147826     0.69771668
b     0.61458069     0.04147827     0.80228333
b     0.38541931     0.95852171     0.19771668
c     0.81364546     0.50780633     0.31976974
c     0.18635454     0.49219365     0.68023027
c     0.81364547     0.99219366     0.81976974
c     0.18635454     0.00780633     0.18023027
c     0.92240332     0.53517770     0.21969483
c     0.07759668     0.46482229     0.78030518
c     0.92240333     0.96482230     0.71969483
c     0.07759668     0.03517769     0.28030518
c     0.11225708     0.58342038     0.22141619
c     0.88774292     0.41657960     0.77858382
c     0.11225709     0.91657961     0.72141619
c     0.88774292     0.08342038     0.27858382
c     0.19942919     0.60504485     0.10455838
c     0.80057081     0.39495513     0.89544163
c     0.19942919     0.89495514     0.60455838
c     0.80057081     0.10504484     0.39544163
c     0.37561246     0.65397579     0.09951454
c     0.62438754     0.34602419     0.90048547
c     0.37561247     0.84602420     0.59951454
c     0.62438754     0.15397579     0.40048547
c     0.46997206     0.68197052     0.21180787
c     0.53002795     0.31802946     0.78819214
c     0.46997206     0.81802947     0.71180787
c     0.53002795     0.18197052     0.28819214
c     0.38738998     0.65973008     0.32877766
c     0.61261002     0.34026991     0.67122235
c     0.38738999     0.84026992     0.82877766
c     0.61261002     0.15973007     0.17122235
c     0.21153096     0.61082171     0.33400035
c     0.78846904     0.38917828     0.66599966
c     0.21153097     0.88917829     0.83400035
c     0.78846904     0.11082170     0.16599966
h     0.21861008     0.36145820     0.02802914
h     0.78138992     0.63854178     0.97197087
h     0.21861009     0.13854179     0.52802914
h     0.78138992     0.86145819     0.47197087
h     0.93048861     0.28198127     0.12648878
h     0.06951139     0.71801872     0.87351123
h     0.93048862     0.21801873     0.62648878
h     0.06951139     0.78198126     0.37351123
h     0.90565725     0.26928256     0.35844698
h     0.09434275     0.73071743     0.64155303
h     0.90565726     0.23071744     0.85844698
h     0.09434275     0.76928255     0.14155303
h     0.16871273     0.33546586     0.50432650
h     0.83128727     0.66453412     0.49567351
h     0.16871274     0.16453413     0.00432650
h     0.83128727     0.83546586     0.99567351
h     0.86955910     0.52109369     0.41622964
h     0.13044090     0.47890629     0.58377037
h     0.86955910     0.97890630     0.91622964
h     0.13044090     0.02109368     0.08377037
h     0.86241096     0.52111922     0.12424301
h     0.13758904     0.47888076     0.87575700
h     0.86241097     0.97888077     0.62424301
h     0.13758904     0.02111921     0.37575700
h     0.12644784     0.58331965     0.01662273
h     0.87355216     0.41668033     0.98337728
h     0.12644785     0.91668034     0.51662273
h     0.87355216     0.08331964     0.48337728
h     0.43885716     0.67011203     0.00778000
h     0.56114284     0.32988796     0.99222001
h     0.43885717     0.82988797     0.50778000
h     0.56114284     0.17011202     0.49222001
h     0.60794243     0.72008099     0.20894355
h     0.39205757     0.27991900     0.79105646
h     0.60794244     0.77991901     0.70894355
h     0.39205757     0.22008098     0.29105646
h     0.46186130     0.68016239     0.41676133
h     0.53813870     0.31983760     0.58323868
h     0.46186131     0.81983761     0.91676133
h     0.53813870     0.18016238     0.08323868
h     0.15128663     0.59387532     0.42630295
h     0.84871337     0.40612466     0.57369706
h     0.15128664     0.90612467     0.92630295
h     0.84871337     0.09387531     0.07369706

K_POINTS automatic
2 2 2 1 1 1

CELL_PARAMETERS cubic
   12.268856000000     0.000000000000    -0.108568000000
    0.000000000000    30.472924000000     0.000000000000
   -0.207215000000     0.000000000000    19.869370000000
