&control
 title='crystal',
 prefix='crystal',
 pseudo_dir='.',
 calculation='vc-relax',
/
&system
 ibrav=0,
 celldm(1)=1.0,
 nat=    56,
 ntyp=  4,
 ecutwfc=60.0,
 ecutrho=600.0,
 xdm=.true.,
 xdm_a1=0.4073,
 xdm_a2=2.4150,
/
&electrons
 conv_thr = 1d-8,
/
&ions
/
&cell
/
ATOMIC_SPECIES
h      1.007940 h.UPF
b     10.811000 b.UPF
c     12.010700 c.UPF
o     15.999400 o.UPF

ATOMIC_POSITIONS crystal
h     0.42109694     0.17537334     0.50965389
h     0.57890305     0.82462654     0.49034609
c     0.41433637     0.19330449     0.61261808
c     0.58566362     0.80669540     0.38738190
c     0.48872219     0.20509646     0.69683395
c     0.51127781     0.79490343     0.30316604
c     0.33200533     0.21000026     0.66696685
c     0.66799466     0.78999962     0.33303314
c     0.32267945     0.23523654     0.79906974
c     0.67732055     0.76476335     0.20093025
c     0.47946562     0.23042155     0.82900912
c     0.52053438     0.76957834     0.17099087
h     0.55454386     0.19029769     0.65829117
h     0.44545614     0.80970220     0.34170882
o     0.24928687     0.20719188     0.60659049
o     0.75071313     0.79280800     0.39340950
c     0.39563934     0.24662515     0.88316871
c     0.60436066     0.75337473     0.11683128
o     0.23355990     0.24690961     0.82556859
o     0.76644009     0.75309028     0.17443140
h     0.53810380     0.23318407     0.89190606
h     0.46189620     0.76681582     0.10809392
b     0.18806069     0.22695498     0.70571963
b     0.81193931     0.77304490     0.29428036
h     0.38797938     0.26640669     0.98583402
h     0.61202061     0.73359320     0.01416597
c     0.08783854     0.23414413     0.68498505
c     0.91216145     0.76585576     0.31501494
h     0.06256740     0.23913672     0.58642466
h     0.93743259     0.76086317     0.41357532
c     0.02927231     0.23138450     0.78437403
c     0.97072769     0.76861539     0.21562596
h     0.05655379     0.22533005     0.88191815
h     0.94344621     0.77466984     0.11808184
c     0.93325522     0.24404104     0.77897110
c     0.06674478     0.75595885     0.22102888
c     0.88885056     0.27158924     0.89439833
c     0.11114944     0.72841065     0.10560166
c     0.88321052     0.23711184     0.66364213
c     0.11678948     0.76288804     0.33635786
c     0.79315516     0.26368948     0.66417339
c     0.20684483     0.73631040     0.33582660
c     0.79933151     0.30375111     0.89504723
c     0.20066848     0.69624877     0.10495276
h     0.92577625     0.26912449     0.98473595
h     0.07422375     0.73087540     0.01526404
h     0.91447272     0.20785437     0.57289564
h     0.08552728     0.79214551     0.42710435
c     0.75133660     0.30004002     0.77965621
c     0.24866339     0.69995987     0.22034378
h     0.75585971     0.26046817     0.57401825
h     0.24414028     0.73953171     0.42598174
h     0.76824623     0.33773323     0.98511746
h     0.23175377     0.66226665     0.01488253
h     0.68228808     0.33304157     0.77916705
h     0.31771191     0.66695832     0.22083294

K_POINTS automatic
2 2 2 1 1 1

CELL_PARAMETERS cubic
   28.238897000000    -0.528808000000     0.016941000000
   -2.723622000000     6.689452000000    -0.251164000000
   -0.065934000000     2.414971000000    19.511864000000
