&control
 title='crystal',
 prefix='crystal',
 pseudo_dir='.',
 calculation='vc-relax',
/
&system
 ibrav=0,
 celldm(1)=1.0,
 nat=   112,
 ntyp=  4,
 ecutwfc=60.0,
 ecutrho=600.0,
 xdm=.true.,
 xdm_a1=0.4073,
 xdm_a2=2.4150,
/
&electrons
 conv_thr = 1d-8,
/
&ions
/
&cell
/
ATOMIC_SPECIES
h      1.007940 h.UPF
b     10.811000 b.UPF
c     12.010700 c.UPF
o     15.999400 o.UPF

ATOMIC_POSITIONS crystal
h     0.02206241     0.71160144     0.00444942
h     0.97793749     0.28839853     0.99555059
h     0.47793668     0.21160000     0.49555051
h     0.52206321     0.78839997     0.50444950
c     0.01673171     0.71274288     0.04936631
c     0.98326818     0.28725709     0.95063370
c     0.48326697     0.21274056     0.45063362
c     0.51673293     0.78725941     0.54936639
c     0.97394075     0.79706318     0.08235853
c     0.02605915     0.20293679     0.91764147
c     0.52605803     0.29706051     0.41764135
c     0.47394186     0.70293946     0.58235866
h     0.94258652     0.86354683     0.06259504
h     0.05741338     0.13645314     0.93740497
h     0.55741294     0.36354436     0.43740486
h     0.44258696     0.63645561     0.56259515
c     0.96569949     0.79711884     0.14033500
c     0.03430041     0.20288113     0.85966501
c     0.53429941     0.29711687     0.35966523
c     0.46570049     0.70288310     0.64033478
h     0.93064986     0.86380785     0.16482110
h     0.06935003     0.13619212     0.83517891
h     0.56935017     0.36380640     0.33517924
h     0.43064972     0.63619357     0.66482077
c     0.00440207     0.71325525     0.16754923
c     0.99559783     0.28674472     0.83245078
c     0.49559610     0.21325360     0.33245093
c     0.50440380     0.78674637     0.66754907
h     0.00116284     0.71284392     0.21229466
h     0.99883706     0.28715605     0.78770535
h     0.49883586     0.21284406     0.28770545
h     0.50116403     0.78715591     0.71229456
c     0.04859573     0.63059783     0.13443048
c     0.95140416     0.36940214     0.86556953
c     0.45140424     0.13059582     0.36556933
c     0.54859566     0.86940415     0.63443068
c     0.05143184     0.63021036     0.07690097
c     0.94856806     0.36978961     0.92309904
c     0.44856864     0.13020759     0.42309898
c     0.55143125     0.86979238     0.57690103
o     0.09633449     0.53868679     0.05483667
o     0.90366540     0.46131318     0.94516334
o     0.40367235     0.03868355     0.44516272
o     0.59632754     0.96131642     0.55483729
b     0.12916482     0.48276809     0.09969652
b     0.87083508     0.51723188     0.90030349
b     0.37084268     0.98276408     0.40030288
b     0.62915721     0.01723589     0.59969713
o     0.09780009     0.53925404     0.14969266
o     0.90219981     0.46074593     0.85030735
o     0.40220557     0.03925154     0.35030691
o     0.59779433     0.96074843     0.64969310
c     0.18960213     0.37566560     0.09504568
c     0.81039776     0.62433437     0.90495433
c     0.31039931     0.87566281     0.40495452
c     0.68960058     0.12433716     0.59504549
h     0.20089295     0.33921730     0.05477460
h     0.79910694     0.66078267     0.94522541
h     0.29910399     0.83921394     0.44522559
h     0.70089591     0.16078603     0.55477442
c     0.23421477     0.32523328     0.13836671
c     0.76578513     0.67476669     0.86163330
c     0.26578245     0.82523142     0.36163280
c     0.73421744     0.17476855     0.63836721
h     0.22267636     0.36374386     0.17816994
h     0.77732354     0.63625611     0.82183007
h     0.27732515     0.86374385     0.32183021
h     0.72267475     0.13625612     0.67816980
c     0.29537598     0.22348813     0.13941575
c     0.70462392     0.77651184     0.86058426
c     0.20461943     0.72348700     0.36058419
c     0.79538046     0.27651297     0.63941581
c     0.34151385     0.16119396     0.09122195
c     0.65848605     0.83880601     0.90877805
c     0.15848343     0.66119299     0.40877769
c     0.84151646     0.33880698     0.59122231
h     0.33314724     0.18816298     0.05006230
h     0.66685266     0.81183699     0.94993770
h     0.16684994     0.68816248     0.44993720
h     0.83314996     0.31183749     0.55006280
c     0.39481399     0.06481148     0.09605697
c     0.60518590     0.93518849     0.90394304
c     0.10518723     0.56480972     0.40394326
c     0.89481267     0.43519025     0.59605674
h     0.42919136     0.01738269     0.05846005
h     0.57080854     0.98261728     0.94153996
h     0.07081079     0.51738205     0.44154034
h     0.92918911     0.48261792     0.55845967
c     0.39949648     0.02826660     0.14904136
c     0.60050341     0.97173337     0.85095865
c     0.10050643     0.52826429     0.35095838
c     0.89949346     0.47173568     0.64904163
h     0.44070055     0.95268412     0.15242736
h     0.55929934     0.04731585     0.84757265
h     0.05930101     0.45268199     0.34757296
h     0.94069888     0.54731798     0.65242705
c     0.35133926     0.08887052     0.19742719
c     0.64866063     0.91112945     0.80257282
c     0.14866209     0.58886846     0.30257297
c     0.85133781     0.41113151     0.69742704
h     0.35488894     0.06123499     0.23884931
h     0.64511096     0.93876498     0.76115070
h     0.14511251     0.56123324     0.26115062
h     0.85488738     0.43876673     0.73884938
c     0.30351399     0.18542829     0.19204117
c     0.69648591     0.81457168     0.80795884
c     0.19648399     0.68542671     0.30795847
c     0.80351590     0.31457326     0.69204154
h     0.26586631     0.23368527     0.22938884
h     0.73413359     0.76631470     0.77061116
h     0.23413189     0.73368344     0.27061082
h     0.76586801     0.26631653     0.72938919

K_POINTS automatic
2 2 2 1 1 1

CELL_PARAMETERS cubic
    7.319851000000     0.000000000000     0.119825000000
   -0.000002000000    26.682696000000     0.000042000000
   21.714553000000     0.000062000000    40.648871000000
