&control
 title='crystal',
 prefix='crystal',
 pseudo_dir='.',
 calculation='vc-relax',
/
&system
 ibrav=0,
 celldm(1)=1.0,
 nat=   112,
 ntyp=  4,
 ecutwfc=60.0,
 ecutrho=600.0,
 xdm=.true.,
 xdm_a1=0.4073,
 xdm_a2=2.4150,
/
&electrons
 conv_thr = 1d-8,
/
&ions
/
&cell
/
ATOMIC_SPECIES
h      1.007940 h.UPF
b     10.811000 b.UPF
c     12.010700 c.UPF
o     15.999400 o.UPF

ATOMIC_POSITIONS crystal
c     0.25537526     0.48701509     0.88145813
c     0.74462475     0.51298491     0.11854187
c     0.74462619     0.98701630     0.61856364
c     0.25537382     0.01298370     0.38143636
c     0.41890104     0.53149597     0.85026073
c     0.58109897     0.46850403     0.14973927
c     0.58109312     0.03151519     0.64975957
c     0.41890689     0.96848481     0.35024044
c     0.61075745     0.47152214     0.87179165
c     0.38924256     0.52847786     0.12820835
c     0.38923883     0.97155241     0.62822400
c     0.61076117     0.02844759     0.37177601
c     0.64882097     0.36336784     0.92555096
c     0.35117904     0.63663216     0.07444904
c     0.35118235     0.86338816     0.57446564
c     0.64881766     0.13661184     0.42553437
c     0.29365992     0.37864989     0.93399566
c     0.70634009     0.62135011     0.06600434
c     0.70634728     0.87865382     0.56602401
c     0.29365272     0.12134618     0.43397600
c     0.48565588     0.31835342     0.95533924
c     0.51434412     0.68164658     0.04466077
c     0.51435077     0.81836666     0.54467586
c     0.48564924     0.18163334     0.45532415
o     0.47974297     0.21275974     0.00797832
o     0.52025704     0.78724026     0.99202168
o     0.52027914     0.71277633     0.49203537
o     0.47972087     0.28722367     0.50796464
o     0.16213381     0.31269762     0.97287161
o     0.83786620     0.68730238     0.02712840
o     0.83787732     0.81270391     0.52714573
o     0.16212269     0.18729609     0.47285428
b     0.27887190     0.20965520     0.01852000
b     0.72112811     0.79034480     0.98148001
b     0.72115083     0.70966842     0.48149420
b     0.27884917     0.29033158     0.51850580
c     0.20561846     0.10413086     0.07228116
c     0.79438155     0.89586914     0.92771885
c     0.79439645     0.60413802     0.42773055
c     0.20560356     0.39586198     0.57226945
c     0.01478833     0.09690034     0.08473167
c     0.98521167     0.90309966     0.91526833
c     0.98521264     0.59692284     0.41526583
c     0.01478737     0.40307716     0.58473418
c     0.94099202     0.99965272     0.13640525
c     0.05900799     0.00034728     0.86359476
c     0.05899040     0.49967078     0.36358669
c     0.94100961     0.50032922     0.63641332
c     0.74075592     0.02108441     0.14621537
c     0.25924409     0.97891559     0.85378463
c     0.25922243     0.52108653     0.35376712
c     0.74077758     0.47891347     0.64623288
c     0.66512849     0.93575863     0.19614267
c     0.33487151     0.06424137     0.80385733
c     0.33482882     0.43574732     0.30383378
c     0.66517119     0.56425268     0.69616622
c     0.78681010     0.82417730     0.23653692
c     0.21318990     0.17582270     0.76346308
c     0.21312857     0.32417175     0.26344194
c     0.78687144     0.67582825     0.73655806
c     0.98530250     0.79926700     0.22682690
c     0.01469751     0.20073300     0.77317311
c     0.01463714     0.29928304     0.27315990
c     0.98536287     0.70071696     0.72684010
c     0.06145463     0.88609613     0.17753761
c     0.93854538     0.11390387     0.82246239
c     0.93851534     0.38612381     0.32245583
c     0.06148467     0.61387619     0.67754417
h     0.10610022     0.53331891     0.86476830
h     0.89389979     0.46668109     0.13523170
h     0.89390245     0.03329773     0.63526114
h     0.10609756     0.96670227     0.36473887
h     0.39492897     0.61497160     0.80829470
h     0.60507104     0.38502840     0.19170530
h     0.60505713     0.11498933     0.69172838
h     0.39494288     0.88501067     0.30827162
h     0.73382927     0.50903958     0.84629883
h     0.26617074     0.49096042     0.15370117
h     0.26615760     0.00908846     0.65371367
h     0.73384240     0.99091154     0.34628633
h     0.79825117     0.31836741     0.94289625
h     0.20174884     0.68163259     0.05710375
h     0.20175476     0.81839500     0.55711592
h     0.79824525     0.18160500     0.44288408
h     0.31784828     0.02901413     0.10259899
h     0.68215173     0.97098587     0.89740102
h     0.68216510     0.52900877     0.39741885
h     0.31783491     0.47099123     0.60258115
h     0.90120242     0.17129106     0.05456221
h     0.09879758     0.82870894     0.94543779
h     0.09880431     0.67132584     0.44542726
h     0.90119569     0.32867416     0.55457274
h     0.64659743     0.10762863     0.11427831
h     0.35340258     0.89237137     0.88572169
h     0.35339111     0.60762907     0.38570052
h     0.64660890     0.39237093     0.61429949
h     0.51062697     0.95617189     0.20359065
h     0.48937303     0.04382811     0.79640936
h     0.48932612     0.45614522     0.29638092
h     0.51067389     0.54385478     0.70361908
h     0.72782626     0.75418194     0.27488453
h     0.27217375     0.24581806     0.72511547
h     0.27209414     0.25417117     0.22508953
h     0.72790587     0.74582883     0.77491047
h     0.07965083     0.70971025     0.25750904
h     0.92034918     0.29028975     0.74249096
h     0.92027790     0.20973830     0.24247646
h     0.07972211     0.79026170     0.75752354
h     0.21520731     0.86242740     0.17001597
h     0.78479270     0.13757260     0.82998403
h     0.78476149     0.36247502     0.32998026
h     0.21523852     0.63752498     0.67001974

K_POINTS automatic
2 2 2 1 1 1

CELL_PARAMETERS cubic
   12.794817000000     0.000257000000    -0.475021000000
    0.000292000000    14.121241000000    -0.000089000000
   -3.471183000000    -0.000617000000    40.233325000000
