&control
 title='crystal',
 prefix='crystal',
 pseudo_dir='.',
 calculation='vc-relax',
/
&system
 ibrav=0,
 celldm(1)=1.0,
 nat=   224,
 ntyp=  4,
 ecutwfc=60.0,
 ecutrho=600.0,
 xdm=.true.,
 xdm_a1=0.4073,
 xdm_a2=2.4150,
/
&electrons
 conv_thr = 1d-8,
/
&ions
/
&cell
/
ATOMIC_SPECIES
h      1.007940 h.UPF
b     10.811000 b.UPF
c     12.010700 c.UPF
o     15.999400 o.UPF

ATOMIC_POSITIONS crystal
c     0.76725491     0.58959875     0.21379298
c     0.26725490     0.08960280     0.21379328
c     0.23274509     0.41040126     0.78620704
c     0.73274509     0.91040531     0.78620734
c     0.23274500     0.58959882     0.28620723
c     0.73274500     0.08960287     0.28620753
c     0.76725500     0.41040119     0.71379279
c     0.26725499     0.91040524     0.71379309
c     0.71156586     0.48906158     0.18733454
c     0.21156586     0.98906563     0.18733484
c     0.28843414     0.51093843     0.81266547
c     0.78843413     0.01094248     0.81266578
c     0.28843414     0.48906169     0.31266546
c     0.78843413     0.98906574     0.31266577
c     0.71156586     0.51093832     0.68733455
c     0.21156585     0.01094237     0.68733485
c     0.75428117     0.49631622     0.13056984
c     0.25428116     0.99632027     0.13057014
c     0.24571884     0.50368380     0.86943018
c     0.74571883     0.00368785     0.86943048
c     0.24571923     0.49631595     0.36943020
c     0.74571922     0.99632000     0.36943050
c     0.75428078     0.50368406     0.63056981
c     0.25428077     0.00368811     0.63057012
c     0.85505672     0.60671522     0.10223856
c     0.35505671     0.10671927     0.10223886
c     0.14494328     0.39328479     0.89776146
c     0.64494328     0.89328884     0.89776176
c     0.14494326     0.60671543     0.39776163
c     0.64494325     0.10671948     0.39776193
c     0.85505674     0.39328458     0.60223838
c     0.35505673     0.89328863     0.60223869
c     0.91090072     0.70763659     0.12852235
c     0.41090071     0.20764064     0.12852265
c     0.08909928     0.29236343     0.87147767
c     0.58909927     0.79236748     0.87147797
c     0.08909912     0.70763663     0.37147794
c     0.58909911     0.20764068     0.37147825
c     0.91090089     0.29236339     0.62852207
c     0.41090088     0.79236744     0.62852237
c     0.86876744     0.70212279     0.18452249
c     0.36876743     0.20212684     0.18452279
c     0.13123257     0.29787722     0.81547753
c     0.63123256     0.79788127     0.81547783
c     0.13123247     0.70212307     0.31547750
c     0.63123246     0.20212712     0.31547780
c     0.86876753     0.29787695     0.68452252
c     0.36876752     0.79788100     0.68452282
o     0.91631476     0.63684942     0.04679243
o     0.41631475     0.13685347     0.04679273
o     0.08368525     0.36315060     0.95320759
o     0.58368524     0.86315465     0.95320789
o     0.08368590     0.63684898     0.45320765
o     0.58368589     0.13685303     0.45320795
o     0.91631411     0.36315104     0.54679236
o     0.41631410     0.86315509     0.54679266
b     0.01201286     0.75850537     0.03953136
b     0.51201285     0.25850942     0.03953166
b     0.98798715     0.24149465     0.96046866
b     0.48798714     0.74149870     0.96046896
b     0.98798756     0.75850506     0.46046866
b     0.48798755     0.25850911     0.46046896
b     0.01201245     0.24149495     0.53953135
b     0.51201244     0.74149900     0.53953165
o     0.00829353     0.80512624     0.09031836
o     0.50829352     0.30513029     0.09031866
o     0.99170647     0.19487378     0.90968165
o     0.49170646     0.69487783     0.90968196
o     0.99170630     0.80512621     0.40968181
o     0.49170630     0.30513026     0.40968211
o     0.00829370     0.19487380     0.59031821
o     0.50829369     0.69487785     0.59031851
c     0.10490825     0.82890786     0.98406349
c     0.60490824     0.32891191     0.98406379
c     0.89509176     0.17109215     0.01593653
c     0.39509175     0.67109620     0.01593683
c     0.89509157     0.82890843     0.51593656
c     0.39509157     0.32891248     0.51593686
c     0.10490843     0.17109159     0.48406346
c     0.60490842     0.67109564     0.48406376
c     0.19752738     0.94459024     0.97720578
c     0.69752737     0.44459429     0.97720609
c     0.80247262     0.05540978     0.02279423
c     0.30247262     0.55541383     0.02279453
c     0.80247304     0.94458988     0.52279436
c     0.30247303     0.44459393     0.52279467
c     0.19752697     0.05541015     0.47720565
c     0.69752696     0.55541420     0.47720595
c     0.28803847     0.02216808     0.92601218
c     0.78803846     0.52217213     0.92601248
c     0.71196154     0.97783193     0.07398784
c     0.21196153     0.47783598     0.07398814
c     0.71196114     0.02216850     0.57398800
c     0.21196113     0.52217255     0.57398830
c     0.28803886     0.97783152     0.42601201
c     0.78803885     0.47783557     0.42601231
c     0.29295285     0.97817096     0.87490728
c     0.79295284     0.47817501     0.87490758
c     0.70704716     0.02182906     0.12509274
c     0.20704715     0.52183311     0.12509304
c     0.70704736     0.97817051     0.62509281
c     0.20704735     0.47817456     0.62509312
c     0.29295265     0.02182950     0.37490720
c     0.79295264     0.52183355     0.37490750
c     0.38072299     0.05636174     0.82729372
c     0.88072298     0.55636579     0.82729402
c     0.61927702     0.94363828     0.17270630
c     0.11927701     0.44364233     0.17270660
c     0.61927669     0.05636185     0.67270651
c     0.11927668     0.55636590     0.67270681
c     0.38072331     0.94363817     0.32729350
c     0.88072330     0.44364222     0.32729380
c     0.46469261     0.18237038     0.82948748
c     0.96469260     0.68237443     0.82948778
c     0.53530739     0.81762964     0.17051254
c     0.03530738     0.31763369     0.17051284
c     0.53530741     0.18237023     0.67051258
c     0.03530740     0.68237428     0.67051288
c     0.46469259     0.81762979     0.32948744
c     0.96469258     0.31763384     0.32948774
c     0.46046508     0.22872718     0.87977601
c     0.96046507     0.72873123     0.87977631
c     0.53953492     0.77127284     0.12022400
c     0.03953491     0.27127689     0.12022431
c     0.53953439     0.22872761     0.62022426
c     0.03953438     0.72873166     0.62022456
c     0.46046561     0.77127241     0.37977576
c     0.96046560     0.27127646     0.37977606
c     0.37366355     0.14842639     0.92750379
c     0.87366354     0.64843044     0.92750409
c     0.62633646     0.85157362     0.07249623
c     0.12633645     0.35157767     0.07249653
c     0.62633624     0.14842650     0.57249637
c     0.12633623     0.64843055     0.57249667
c     0.37366376     0.85157352     0.42750365
c     0.87366375     0.35157757     0.42750395
h     0.73128167     0.58020298     0.25798010
h     0.23128166     0.08020703     0.25798040
h     0.26871833     0.41979704     0.74201992
h     0.76871832     0.91980109     0.74202022
h     0.26871797     0.58020331     0.24202008
h     0.76871796     0.08020736     0.24202039
h     0.73128203     0.41979670     0.75797993
h     0.23128202     0.91980075     0.75798023
h     0.63211633     0.40414272     0.21121770
h     0.13211632     0.90414677     0.21121800
h     0.36788368     0.59585729     0.78878232
h     0.86788367     0.09586134     0.78878262
h     0.36788372     0.40414245     0.28878230
h     0.86788371     0.90414650     0.28878260
h     0.63211628     0.59585756     0.71121771
h     0.13211627     0.09586161     0.71121802
h     0.70954201     0.42162052     0.10996772
h     0.20954200     0.92162457     0.10996802
h     0.29045800     0.57837950     0.89003230
h     0.79045799     0.07838355     0.89003260
h     0.29045841     0.42162009     0.39003229
h     0.79045840     0.92162414     0.39003259
h     0.70954159     0.57837992     0.60996772
h     0.20954158     0.07838397     0.60996803
h     0.91370934     0.77967248     0.20445501
h     0.41370933     0.27967653     0.20445531
h     0.08629066     0.22032753     0.79554501
h     0.58629065     0.72033158     0.79554531
h     0.08629056     0.77967275     0.29554499
h     0.58629055     0.27967680     0.29554529
h     0.91370944     0.22032728     0.70445503
h     0.41370944     0.72033133     0.70445533
h     0.09442176     0.78359567     0.94830702
h     0.59442176     0.28359972     0.94830732
h     0.90557824     0.21640435     0.05169299
h     0.40557823     0.71640840     0.05169330
h     0.90557871     0.78359537     0.55169308
h     0.40557870     0.28359942     0.55169338
h     0.09442129     0.21640466     0.44830694
h     0.59442128     0.71640871     0.44830724
h     0.20735272     0.98830922     0.01332060
h     0.70735271     0.48831327     0.01332090
h     0.79264729     0.01169079     0.98667941
h     0.29264728     0.51169484     0.98667971
h     0.79264684     0.98830997     0.48667959
h     0.29264683     0.48831402     0.48667989
h     0.20735317     0.01169004     0.51332043
h     0.70735316     0.51169409     0.51332073
h     0.22766499     0.88125848     0.87257093
h     0.72766498     0.38126253     0.87257123
h     0.77233501     0.11874153     0.12742909
h     0.27233500     0.61874558     0.12742939
h     0.77233499     0.88125816     0.62742928
h     0.27233499     0.38126221     0.62742958
h     0.22766501     0.11874186     0.37257074
h     0.72766500     0.61874591     0.37257104
h     0.38303363     0.02079413     0.78815264
h     0.88303362     0.52079818     0.78815294
h     0.61696637     0.97920589     0.21184738
h     0.11696636     0.47920994     0.21184768
h     0.61696635     0.02079394     0.71184747
h     0.11696634     0.52079799     0.71184778
h     0.38303365     0.97920607     0.28815254
h     0.88303364     0.47921012     0.28815284
h     0.53266137     0.24434157     0.79210828
h     0.03266137     0.74434562     0.79210858
h     0.46733863     0.75565845     0.20789174
h     0.96733862     0.25566250     0.20789204
h     0.46733846     0.24434165     0.70789190
h     0.96733845     0.74434570     0.70789220
h     0.53266154     0.75565837     0.29210812
h     0.03266154     0.25566242     0.29210842
h     0.52369152     0.32987147     0.88187089
h     0.02369151     0.82987552     0.88187119
h     0.47630848     0.67012854     0.11812913
h     0.97630847     0.17013259     0.11812943
h     0.47630801     0.32987191     0.61812937
h     0.97630800     0.82987596     0.61812967
h     0.52369199     0.67012810     0.38187065
h     0.02369198     0.17013215     0.38187095
h     0.37080872     0.18256450     0.96683648
h     0.87080871     0.68256855     0.96683678
h     0.62919128     0.81743551     0.03316353
h     0.12919127     0.31743956     0.03316384
h     0.62919077     0.18256506     0.53316372
h     0.12919077     0.68256911     0.53316403
h     0.37080923     0.81743495     0.46683629
h     0.87080922     0.31743900     0.46683659

K_POINTS automatic
2 2 2 1 1 1

CELL_PARAMETERS cubic
   22.779372000000     0.000025000000    -0.202416000000
    0.000015000000    13.999602000000     0.000004000000
   23.233209000000     0.000041000000    46.064562000000
