&control
 title='crystal',
 prefix='crystal',
 pseudo_dir='.',
 calculation='vc-relax',
/
&system
 ibrav=0,
 celldm(1)=1.0,
 nat=   112,
 ntyp=  4,
 ecutwfc=60.0,
 ecutrho=600.0,
 xdm=.true.,
 xdm_a1=0.4073,
 xdm_a2=2.4150,
/
&electrons
 conv_thr = 1d-8,
/
&ions
/
&cell
/
ATOMIC_SPECIES
h      1.007940 h.UPF
b     10.811000 b.UPF
c     12.010700 c.UPF
o     15.999400 o.UPF

ATOMIC_POSITIONS crystal
h     0.32741072     0.41099664     0.96800407
h     0.67258930     0.58900337     0.03199595
h     0.67257563     0.91098965     0.53199969
h     0.32742438     0.08901036     0.46800033
c     0.37575615     0.36172294     0.03748502
c     0.62424387     0.63827707     0.96251500
c     0.62423476     0.86170424     0.46251672
c     0.37576526     0.13829577     0.53748330
c     0.46152735     0.40217870     0.13308520
c     0.53847266     0.59782131     0.86691483
c     0.53846633     0.90215167     0.36691860
c     0.46153369     0.09784834     0.63308142
h     0.48245075     0.48552160     0.13836552
h     0.51754927     0.51447841     0.86163450
h     0.51753698     0.98549250     0.36163676
h     0.48246304     0.01450751     0.63836326
c     0.52072705     0.33761524     0.22251530
c     0.47927297     0.66238476     0.77748473
c     0.47926976     0.83757638     0.27748325
c     0.52073026     0.16242363     0.72251678
h     0.58616434     0.37269939     0.29495810
h     0.41383568     0.62730062     0.70504192
h     0.41382971     0.87265434     0.20504312
h     0.58617031     0.12734566     0.79495691
c     0.49739747     0.22987762     0.22088977
c     0.50260255     0.77012239     0.77911025
c     0.50260753     0.72984247     0.27911176
c     0.49739249     0.27015753     0.72088827
h     0.54299193     0.17928532     0.29031390
h     0.45700808     0.82071469     0.70968613
h     0.45701332     0.67924012     0.20968759
h     0.54298670     0.32075989     0.79031243
c     0.41124909     0.19082645     0.12680866
c     0.58875093     0.80917356     0.87319137
c     0.58874625     0.69079893     0.37319552
c     0.41125377     0.30920108     0.62680450
c     0.35195115     0.25522904     0.03733397
c     0.64804887     0.74477097     0.96266605
c     0.64805737     0.75521528     0.46266620
c     0.35194265     0.24478473     0.53733382
o     0.26821064     0.19610567     0.95725969
o     0.73178938     0.80389434     0.04274033
o     0.73178420     0.69609555     0.54274605
o     0.26821582     0.30390446     0.45725398
b     0.27752710     0.09346143     0.99983928
b     0.72247292     0.90653858     0.00016074
b     0.72247261     0.59344665     0.50016641
b     0.27752740     0.40655336     0.49983361
o     0.36666867     0.08926726     0.10510917
o     0.63333134     0.91073275     0.89489086
o     0.63333738     0.58924380     0.39489386
o     0.36666264     0.41075620     0.60510617
c     0.20101395     0.00045783     0.93934455
c     0.79898607     0.99954218     0.06065548
c     0.79899001     0.50045464     0.56066409
c     0.20101001     0.49954537     0.43933594
h     0.13789521     0.01417787     0.85642805
h     0.86210481     0.98582214     0.14357198
h     0.86210269     0.51418072     0.64357978
h     0.13789733     0.48581929     0.35642024
c     0.20718668     0.90311676     0.98497952
c     0.79281333     0.09688325     0.01502051
c     0.79282025     0.40310559     0.51502125
c     0.20717977     0.59689442     0.48497878
h     0.27014592     0.89166412     0.06857590
h     0.72985410     0.10833589     0.93142412
h     0.72986758     0.39164889     0.43142574
h     0.27013244     0.60835112     0.56857429
c     0.13901720     0.80851700     0.93636297
c     0.86098282     0.19148301     0.06363705
c     0.86099530     0.30851386     0.56363868
c     0.13900472     0.69148615     0.43636135
c     0.04870143     0.80698007     0.83158835
c     0.95129858     0.19301994     0.16841167
c     0.95130604     0.30698148     0.66841313
c     0.04869397     0.69301853     0.33158690
h     0.02494991     0.87945170     0.78466246
h     0.97505011     0.12054831     0.21533756
h     0.97506188     0.37946013     0.71533788
h     0.02493813     0.62053987     0.28466214
c     0.98854128     0.71427021     0.78736667
c     0.01145874     0.28572980     0.21263336
c     0.01146177     0.21427761     0.71263473
c     0.98853825     0.78572240     0.28736529
h     0.91795193     0.71466179     0.70674971
h     0.08204809     0.28533822     0.29325031
h     0.08205002     0.21467123     0.79325311
h     0.91795000     0.78532878     0.20674691
c     0.01804764     0.62087419     0.84742469
c     0.98195238     0.37912582     0.15257533
c     0.98194862     0.12087372     0.65257710
c     0.01805140     0.87912629     0.34742292
h     0.97064597     0.54811498     0.81323104
h     0.02935404     0.45188503     0.18676899
h     0.02934262     0.04811779     0.68677265
h     0.97065740     0.95188222     0.31322738
c     0.10608138     0.62102196     0.95189311
c     0.89391864     0.37897804     0.04810692
c     0.89391932     0.12101835     0.54810640
c     0.10608070     0.87898166     0.45189363
h     0.12891531     0.54849680     0.99887464
h     0.87108471     0.45150321     0.00112538
h     0.87108270     0.04848703     0.50112463
h     0.12891732     0.95151297     0.49887540
c     0.16556395     0.71407583     0.99605838
c     0.83443607     0.28592418     0.00394164
c     0.83444311     0.21406638     0.50394228
c     0.16555691     0.78593363     0.49605774
h     0.23460142     0.71457647     0.07753663
h     0.76539860     0.28542353     0.92246339
h     0.76540895     0.21456563     0.42246121
h     0.23459107     0.78543438     0.57753881

K_POINTS automatic
2 2 2 1 1 1

CELL_PARAMETERS cubic
   15.582652000000     0.000035000000     0.066078000000
    0.000039000000    24.312663000000    -0.000594000000
    1.023511000000    -0.000546000000    20.832217000000
