&control
 title='crystal',
 prefix='crystal',
 pseudo_dir='.',
 calculation='vc-relax',
/
&system
 ibrav=0,
 celldm(1)=1.0,
 nat=    56,
 ntyp=  4,
 ecutwfc=60.0,
 ecutrho=600.0,
 xdm=.true.,
 xdm_a1=0.4073,
 xdm_a2=2.4150,
/
&electrons
 conv_thr = 1d-8,
/
&ions
/
&cell
/
ATOMIC_SPECIES
h      1.007940 h.UPF
b     10.811000 b.UPF
c     12.010700 c.UPF
o     15.999400 o.UPF

ATOMIC_POSITIONS crystal
c     0.61534289     0.27128666     0.97916152
c     0.38465703     0.72871337     0.02083848
c     0.76135406     0.16877199     0.96273978
c     0.23864586     0.83122803     0.03726022
c     0.68920360     0.02537696     0.87688837
c     0.31079632     0.97462307     0.12311163
c     0.46693725     0.99153236     0.80854753
c     0.53306267     0.00846767     0.19145247
c     0.32074524     0.09398366     0.82385937
c     0.67925468     0.90601637     0.17614062
c     0.39038113     0.23542368     0.90998021
c     0.60961879     0.76457635     0.09001979
o     0.35356962     0.86029657     0.71785120
o     0.64643030     0.13970346     0.28214880
b     0.13326549     0.88494625     0.67720803
b     0.86673443     0.11505378     0.32279197
o     0.11114131     0.02997908     0.74275178
o     0.88885861     0.97002095     0.25724822
c     0.94930932     0.76890127     0.57384406
c     0.05069060     0.23109876     0.42615594
c     0.74082719     0.79608170     0.51997111
c     0.25917273     0.20391833     0.48002889
c     0.55676670     0.69257601     0.41909091
c     0.44323322     0.30742402     0.58090909
c     0.57508097     0.54508289     0.35857908
c     0.42491895     0.45491714     0.64142092
c     0.39201388     0.44927347     0.26855242
c     0.60798604     0.55072656     0.73144758
c     0.18623135     0.49858204     0.23602363
c     0.81376857     0.50141799     0.76397637
c     0.16548744     0.64473741     0.29321679
c     0.83451248     0.35526262     0.70678321
c     0.34923269     0.74046574     0.38323110
c     0.65076723     0.25953429     0.61676890
h     0.67651612     0.38212185     0.04611376
h     0.32348380     0.61787818     0.95388624
h     0.93561279     0.20100327     0.01593736
h     0.06438713     0.79899676     0.98406264
h     0.80207547     0.94580079     0.86250233
h     0.19792445     0.05419924     0.13749767
h     0.27708616     0.31503268     0.92378580
h     0.72291376     0.68496735     0.07621419
h     0.99164465     0.65847431     0.53928887
h     0.00835527     0.34152572     0.46071113
h     0.70031008     0.90695379     0.55599144
h     0.29968984     0.09304624     0.44400856
h     0.73328096     0.50406096     0.38490902
h     0.26671896     0.49593907     0.61509098
h     0.41005772     0.33496356     0.22668868
h     0.58994220     0.66503647     0.77331132
h     0.04232994     0.42281206     0.16726416
h     0.95766998     0.57718796     0.83273584
h     0.00686127     0.68489238     0.26991158
h     0.99313865     0.31510765     0.73008842
h     0.33204295     0.85421744     0.42829459
h     0.66795697     0.14578259     0.57170541

K_POINTS automatic
2 2 2 1 1 1

CELL_PARAMETERS cubic
   12.182090000000     0.153895000000    -0.219077000000
   -1.272588000000    17.509281000000     0.055672000000
   -5.006503000000    -4.080100000000    17.419407000000
