&control
 title='crystal',
 prefix='crystal',
 pseudo_dir='.',
 calculation='vc-relax',
/
&system
 ibrav=0,
 celldm(1)=1.0,
 nat=   112,
 ntyp=  4,
 ecutwfc=60.0,
 ecutrho=600.0,
 xdm=.true.,
 xdm_a1=0.4073,
 xdm_a2=2.4150,
/
&electrons
 conv_thr = 1d-8,
/
&ions
/
&cell
/
ATOMIC_SPECIES
h      1.007940 h.UPF
b     10.811000 b.UPF
c     12.010700 c.UPF
o     15.999400 o.UPF

ATOMIC_POSITIONS crystal
h     0.04358728     0.20380296     0.11194831
h     0.54358733     0.70380326     0.11194803
h     0.04356222     0.79619222     0.61195126
h     0.54356227     0.29619252     0.61195099
c     0.15392953     0.15385916     0.12517110
c     0.65392958     0.65385946     0.12517082
c     0.15390762     0.84613893     0.62517332
c     0.65390767     0.34613923     0.62517304
c     0.05709703     0.03329483     0.17051803
c     0.55709708     0.53329513     0.17051776
c     0.05707706     0.96670382     0.67051776
c     0.55707710     0.46670411     0.67051749
h     0.86451694     0.99011534     0.19407035
h     0.36451699     0.49011564     0.19407008
h     0.86449111     0.00988113     0.69407293
h     0.36449116     0.50988143     0.69407266
c     0.20149927     0.96766159     0.18640016
c     0.70149931     0.46766189     0.18639989
c     0.20148130     0.03234012     0.68639894
c     0.70148135     0.53234042     0.68639866
h     0.12018344     0.87439460     0.22189636
h     0.62018349     0.37439490     0.22189608
h     0.12016690     0.12560647     0.72189460
h     0.62016695     0.62560676     0.72189433
c     0.45196376     0.01798953     0.15672577
c     0.95196380     0.51798982     0.15672549
c     0.45195183     0.98201350     0.65672186
c     0.95195187     0.48201380     0.65672158
h     0.56620510     0.96581523     0.16804874
h     0.06620515     0.46581553     0.16804847
h     0.56619516     0.03418909     0.66804341
h     0.06619521     0.53418939     0.66804314
c     0.54753725     0.13621181     0.11126729
c     0.04753729     0.63621211     0.11126701
c     0.54752167     0.86378925     0.61126533
c     0.04752172     0.36378955     0.61126506
c     0.40028143     0.20294067     0.09667395
c     0.90028148     0.70294097     0.09667367
c     0.40026271     0.79706025     0.59667286
c     0.90026276     0.29706055     0.59667259
o     0.54368295     0.31648434     0.04965160
o     0.04368299     0.81648463     0.04965132
o     0.54366311     0.68351448     0.54965157
o     0.04366315     0.18351478     0.54965130
b     0.78491244     0.31709181     0.03508036
b     0.28491248     0.81709211     0.03508008
b     0.78489622     0.68290852     0.53507839
b     0.28489627     0.18290881     0.53507811
o     0.78809753     0.20538830     0.07341695
o     0.28809757     0.70538860     0.07341667
o     0.78808464     0.79461393     0.57341352
o     0.28808469     0.29461423     0.57341325
c     0.00611894     0.42456666     0.98342871
c     0.50611899     0.92456696     0.98342843
c     0.00610424     0.57543418     0.48342609
c     0.50610429     0.07543448     0.48342581
h     0.96340092     0.50680219     0.96077035
h     0.46340097     0.00680249     0.96077008
h     0.96338875     0.49320004     0.46076643
h     0.46338880     0.99320034     0.46076615
c     0.24663861     0.42461350     0.96425063
c     0.74663865     0.92461379     0.96425035
c     0.24662160     0.57538573     0.46424929
c     0.74662165     0.07538603     0.46424902
h     0.28875743     0.34292034     0.98736161
h     0.78875748     0.84292064     0.98736134
h     0.28873768     0.65707674     0.48736198
h     0.78873773     0.15707704     0.48736170
c     0.46680341     0.52327190     0.91338104
c     0.96680346     0.02327220     0.91338076
c     0.46678912     0.47672874     0.41337908
c     0.96678917     0.97672904     0.41337880
c     0.45180600     0.63666472     0.87829311
c     0.95180604     0.13666502     0.87829283
c     0.45179653     0.36333531     0.37829003
c     0.95179658     0.86333561     0.37828976
h     0.26631177     0.65645788     0.89047212
h     0.76631181     0.15645818     0.89047184
h     0.26630357     0.34354226     0.39046835
h     0.76630362     0.84354255     0.39046808
c     0.67102162     0.72445773     0.82826228
c     0.17102167     0.22445802     0.82826200
c     0.67101340     0.27554303     0.32826028
c     0.17101345     0.77554333     0.32826001
h     0.65629274     0.81122636     0.80144579
h     0.15629279     0.31122666     0.80144552
h     0.65628790     0.18877310     0.30144341
h     0.15628795     0.68877340     0.30144314
c     0.91083949     0.70266524     0.81220547
c     0.41083954     0.20266554     0.81220520
c     0.91082844     0.29733477     0.31220491
c     0.41082848     0.79733507     0.31220463
h     0.08049623     0.77279679     0.77331161
h     0.58049628     0.27279709     0.77331133
h     0.08048588     0.22720353     0.27331210
h     0.58048593     0.72720382     0.27331183
c     0.92742634     0.59214744     0.84746589
c     0.42742638     0.09214774     0.84746561
c     0.92741160     0.40785451     0.34746564
c     0.42741165     0.90785481     0.34746537
h     0.11246465     0.57389997     0.83576541
h     0.61246470     0.07390027     0.83576514
h     0.11244794     0.42610170     0.33576607
h     0.61244799     0.92610200     0.33576579
c     0.70811179     0.50376170     0.89742761
c     0.20811184     0.00376200     0.89742734
c     0.70809595     0.49623921     0.39742633
c     0.20809600     0.99623951     0.39742606
h     0.72023765     0.41806846     0.92531401
h     0.22023770     0.91806876     0.92531373
h     0.72021886     0.58193275     0.42531346
h     0.22021891     0.08193305     0.42531319

K_POINTS automatic
2 2 2 1 1 1

CELL_PARAMETERS cubic
   12.662143000000     0.000017000000    -0.279701000000
    0.000016000000    18.111522000000    -0.000004000000
   30.548449000000     0.000027000000    32.311762000000
