## FHIaims input file generated by critic2.
lattice_vector 3.7277999998       0.0000000000       0.0000000000       
lattice_vector -1.8639000001      3.2283695002       0.0000000000       
lattice_vector 0.0000000000       0.0000000000       4.6813000000       
atom_frac  0.3333323500       0.6666661800       0.2767885000       Se
atom_frac  0.6666678000       0.3333339000       0.7232115000       Se
atom_frac  0.0000000000       0.0000000000       0.0000000000       Pt
