&control
 title='crystal',
 prefix='crystal',
 pseudo_dir='.',
 calculation='vc-relax',
/
&system
 ibrav=0,
 celldm(1)=1.0,
 nat=    54,
 ntyp=  4,
 ecutwfc=60.0,
 ecutrho=600.0,
 xdm=.true.,
 xdm_a1=0.4073,
 xdm_a2=2.4150,
/
&electrons
 conv_thr = 1d-8,
/
&ions
/
&cell
/
ATOMIC_SPECIES
h      1.007940 h.UPF
c     12.010700 c.UPF
o     15.999400 o.UPF
br    79.904000 br.UPF

ATOMIC_POSITIONS crystal
br    0.97193673     0.66872382     0.67091405
br    0.02806329     0.16872383     0.32908595
o     0.60588455     0.63374038     0.95458126
o     0.39411547     0.13374039     0.04541874
o     0.29014280     0.66282109     0.33745735
o     0.70985722     0.16282110     0.66254265
c     0.46358544     0.63958498     0.01065883
c     0.53641458     0.13958498     0.98934117
c     0.28263090     0.61685623     0.94023056
c     0.71736912     0.11685623     0.05976944
c     0.12832175     0.72711132     0.00118905
c     0.87167827     0.22711133     0.99881095
c     0.12322629     0.67158429     0.13983367
c     0.87677373     0.17158430     0.86016632
c     0.29685208     0.73662280     0.20905352
c     0.70314794     0.23662281     0.79094648
c     0.44655632     0.67414696     0.40937752
c     0.55344370     0.17414697     0.59062248
c     0.43543354     0.68004095     0.53915391
c     0.56456648     0.18004095     0.46084608
c     0.59207282     0.68260977     0.61641780
c     0.40792720     0.18260978     0.38358219
c     0.75914664     0.67371614     0.56240241
c     0.24085339     0.17371615     0.43759759
c     0.77386912     0.66307939     0.43374175
c     0.22613090     0.16307940     0.56625825
c     0.61606820     0.66413247     0.35482435
c     0.38393182     0.16413248     0.64517564
c     0.61739326     0.63981352     0.22093273
c     0.38260676     0.13981353     0.77906726
c     0.46433386     0.66569555     0.14778738
c     0.53566616     0.16569556     0.85221261
h     0.30093648     0.90351650     0.21328079
h     0.69906354     0.40351651     0.78671921
h     0.30310545     0.68470480     0.57794043
h     0.69689457     0.18470481     0.42205956
h     0.58471615     0.69240766     0.71792197
h     0.41528387     0.19240767     0.28207802
h     0.90515977     0.65247333     0.39350756
h     0.09484025     0.15247333     0.60649244
h     0.74143484     0.59505253     0.17824419
h     0.25856518     0.09505254     0.82175580
h     0.25534878     0.45234890     0.93823351
h     0.74465124     0.95234890     0.06176648
h     0.29854977     0.66440921     0.84288409
h     0.70145025     0.16440922     0.15711590
h     0.99946850     0.68845007     0.95220047
h     0.00053152     0.18845008     0.04779952
h     0.14686684     0.89157616     0.99209878
h     0.85313318     0.39157617     0.00790122
h     0.01050754     0.74745465     0.18293044
h     0.98949248     0.24745466     0.81706955
h     0.10646196     0.50721608     0.15126809
h     0.89353806     0.00721609     0.84873191

K_POINTS automatic
2 2 2 1 1 1

CELL_PARAMETERS cubic
   14.038934000000     0.000000000000     0.087149000000
    0.000000000000    12.463241000000     0.000000000000
   -1.172761000000     0.000000000000    20.127419000000
