&control
 title='crystal',
 prefix='crystal',
 pseudo_dir='.',
 calculation='vc-relax',
/
&system
 ibrav=0,
 celldm(1)=1.0,
 nat=    64,
 ntyp=  4,
 ecutwfc=60.0,
 ecutrho=600.0,
 xdm=.true.,
 xdm_a1=0.4073,
 xdm_a2=2.4150,
/
&electrons
 conv_thr = 1d-8,
/
&ions
/
&cell
/
ATOMIC_SPECIES
h      1.007940 h.UPF
c     12.010700 c.UPF
o     15.999400 o.UPF
as    74.921600 as.UPF

ATOMIC_POSITIONS crystal
as    0.15857653     0.62448331     0.78417275
as    0.84142347     0.37551670     0.21582725
as    0.81695096     0.62156169     0.57862953
as    0.18304905     0.37843832     0.42137048
as    0.82186717     0.86081721     0.90112697
as    0.17813284     0.13918280     0.09887303
as    0.14141960     0.89403710     0.70881931
as    0.85858040     0.10596292     0.29118070
as    0.40691122     0.17983721     0.84467069
as    0.59308879     0.82016280     0.15532931
as    0.74025115     0.41945677     0.90800647
as    0.25974886     0.58054324     0.09199353
as    0.79102618     0.11268977     0.65218859
as    0.20897382     0.88731024     0.34781142
as    0.47474491     0.29932195     0.61352339
as    0.52525509     0.70067807     0.38647662
o     0.98802541     0.54375669     0.64162327
o     0.01197460     0.45624332     0.35837673
o     0.71235214     0.73687955     0.73797376
o     0.28764787     0.26312046     0.26202624
o     0.98255011     0.95833812     0.84906200
o     0.01744990     0.04166189     0.15093801
o     0.55815884     0.33509903     0.95509374
o     0.44184117     0.66490098     0.04490627
o     0.87638092     0.27495112     0.79485633
o     0.12361909     0.72504889     0.20514367
o     0.64832575     0.16679273     0.55132064
o     0.35167426     0.83320728     0.44867936
c     0.99569270     0.74058205     0.92849399
c     0.00430731     0.25941796     0.07150601
c     0.97597542     0.76034624     0.55872068
c     0.02402459     0.23965377     0.44127933
c     0.28245162     0.76795135     0.75045503
c     0.71754839     0.23204866     0.24954498
c     0.59469566     0.05291104     0.73524502
c     0.40530435     0.94708897     0.26475498
c     0.61393414     0.44984165     0.76778934
c     0.38606587     0.55015836     0.23221066
c     0.30995804     0.23077655     0.70903840
c     0.69004197     0.76922346     0.29096160
h     0.08110153     0.80924489     0.01841733
h     0.91889848     0.19075513     0.98158267
h     0.91378013     0.67187152     0.95495004
h     0.08621987     0.32812849     0.04504996
h     0.06055259     0.70271879     0.47218371
h     0.93944742     0.29728122     0.52781630
h     0.88516456     0.82234700     0.53299455
h     0.11483545     0.17765301     0.46700546
h     0.36911955     0.83310687     0.84151423
h     0.63088045     0.16689314     0.15848577
h     0.37588919     0.71550086     0.66800455
h     0.62411081     0.28449916     0.33199546
h     0.66383315     0.01584543     0.79856075
h     0.33616686     0.98415458     0.20143925
h     0.52067756     0.96535236     0.65014387
h     0.47932245     0.03464765     0.34985613
h     0.52038141     0.53267009     0.82045527
h     0.47961860     0.46732992     0.17954474
h     0.72235111     0.48689882     0.72483410
h     0.27764890     0.51310120     0.27516591
h     0.20869972     0.30861350     0.75907643
h     0.79130029     0.69138652     0.24092357
h     0.23470086     0.13772132     0.63169620
h     0.76529915     0.86227870     0.36830381

K_POINTS automatic
2 2 2 1 1 1

CELL_PARAMETERS cubic
   13.772556000000    -0.159852000000    -0.190900000000
   -0.528743000000    20.828431000000     0.090493000000
   -0.281412000000   -10.078354000000    18.627624000000
