&control
 title='crystal',
 prefix='crystal',
 pseudo_dir='.',
 calculation='vc-relax',
/
&system
 ibrav=0,
 celldm(1)=1.0,
 nat=    88,
 ntyp=  4,
 ecutwfc=60.0,
 ecutrho=600.0,
 xdm=.true.,
 xdm_a1=0.4073,
 xdm_a2=2.4150,
/
&electrons
 conv_thr = 1d-8,
/
&ions
/
&cell
/
ATOMIC_SPECIES
h      1.007940 h.UPF
c     12.010700 c.UPF
n     14.006700 n.UPF
o     15.999400 o.UPF

ATOMIC_POSITIONS crystal
o     0.60339154     0.27913221     0.49522050
o     0.39660841     0.72086790     0.50477948
o     0.10338502     0.22095557     0.49523201
o     0.89661494     0.77904455     0.50476797
o     0.82281729     0.24905039     0.60352222
o     0.17718266     0.75094972     0.39647776
o     0.32280328     0.25109213     0.60352941
o     0.67719667     0.74890799     0.39647057
o     0.01974065     0.09308357     0.70747685
o     0.98025931     0.90691654     0.29252313
o     0.51972759     0.40708823     0.70747509
o     0.48027236     0.59291188     0.29252489
n     0.65841101     0.95289105     0.59687686
n     0.34158894     0.04710906     0.40312312
n     0.15838167     0.54720522     0.59688827
n     0.84161828     0.45279489     0.40311170
h     0.56558746     0.85086647     0.56901522
h     0.43441249     0.14913364     0.43098476
h     0.06554837     0.64920199     0.56902304
h     0.93445158     0.35079813     0.43097694
c     0.68123561     0.16268388     0.55856460
c     0.31876434     0.83731624     0.44143538
c     0.18122051     0.33743161     0.55857375
c     0.81877945     0.66256850     0.44142623
c     0.89255743     0.07422961     0.66568355
c     0.10744253     0.92577051     0.33431642
c     0.39254002     0.42592618     0.66568491
c     0.60745993     0.57407393     0.33431506
c     0.78190414     0.88044579     0.67176407
c     0.21809581     0.11955433     0.32823591
c     0.28187762     0.61967373     0.67177086
c     0.71812233     0.38032639     0.32822912
h     0.82343987     0.70114073     0.65896488
h     0.17656009     0.29885939     0.34103509
h     0.32339519     0.79899829     0.65897185
h     0.67660476     0.20100183     0.34102812
c     0.74448111     0.88742224     0.76445867
c     0.25551885     0.11257787     0.23554131
c     0.24447555     0.61265674     0.76447093
c     0.75552441     0.38734338     0.23552905
h     0.70745139     0.07227797     0.77407100
h     0.29254856     0.92772215     0.22592898
h     0.20746459     0.42778664     0.77408700
h     0.79253536     0.57221348     0.22591298
h     0.65032181     0.76591323     0.75763738
h     0.34967814     0.23408688     0.24236260
h     0.15030942     0.73413249     0.75765992
h     0.84969053     0.26586763     0.24234006
c     0.86670984     0.80846422     0.84799995
c     0.13329011     0.19153590     0.15200003
c     0.36670815     0.69165173     0.84800446
c     0.63329181     0.30834838     0.15199551
h     0.96622843     0.91260752     0.84908106
h     0.03377153     0.08739259     0.15091892
h     0.46621876     0.58748111     0.84910144
h     0.53378119     0.41251900     0.15089854
c     0.90046392     0.53661696     0.84520037
c     0.09953603     0.46338316     0.15479961
c     0.40047669     0.96349667     0.84517589
c     0.59952326     0.03650344     0.15482409
h     0.98546863     0.48144372     0.90635947
h     0.01453133     0.51855639     0.09364050
h     0.48547834     0.01870055     0.90633193
h     0.51452161     0.98129956     0.09366805
h     0.80190564     0.42903504     0.84244054
h     0.19809431     0.57096508     0.15755944
h     0.30192051     0.07108550     0.84240183
h     0.69807944     0.92891461     0.15759815
h     0.93934073     0.48733045     0.78588983
h     0.06065922     0.51266966     0.21411015
h     0.43936411     0.01273098     0.78586374
h     0.56063584     0.98726914     0.21413624
c     0.82084370     0.87107639     0.93450928
c     0.17915625     0.12892373     0.06549070
c     0.32081957     0.62915500     0.93451679
c     0.67918038     0.37084511     0.06548319
h     0.80051329     0.06665576     0.93848700
h     0.19948666     0.93334435     0.06151298
h     0.30044160     0.43359381     0.93851674
h     0.69955835     0.56640631     0.06148324
h     0.90534118     0.81891085     0.99636040
h     0.09465877     0.18108927     0.00363958
h     0.40532128     0.68132315     0.99636598
h     0.59467867     0.31867697     0.00363400
h     0.71978117     0.77484588     0.93522069
h     0.28021878     0.22515424     0.06477929
h     0.21977737     0.72546126     0.93520919
h     0.78022258     0.27453885     0.06479079

K_POINTS automatic
2 2 2 1 1 1

CELL_PARAMETERS cubic
   17.949019000000    -0.000281000000    -0.015642000000
   -0.000162000000    10.382689000000     0.000037000000
   -7.695760000000     0.000233000000    27.658387000000
