&control
 title='crystal',
 prefix='crystal',
 pseudo_dir='.',
 calculation='vc-relax',
/
&system
 ibrav=0,
 celldm(1)=1.0,
 nat=    62,
 ntyp=  4,
 ecutwfc=60.0,
 ecutrho=600.0,
 xdm=.true.,
 xdm_a1=0.4073,
 xdm_a2=2.4150,
/
&electrons
 conv_thr = 1d-8,
/
&ions
/
&cell
/
ATOMIC_SPECIES
h      1.007940 h.UPF
c     12.010700 c.UPF
n     14.006700 n.UPF
o     15.999400 o.UPF

ATOMIC_POSITIONS crystal
c     0.30362455     0.91358603     0.24865157
c     0.69637545     0.41358601     0.75134843
c     0.35415037     0.83203925     0.07370639
c     0.64584964     0.33203923     0.92629361
c     0.29951930     0.72336274     0.89716824
c     0.70048071     0.22336273     0.10283176
c     0.19407089     0.69488946     0.89786362
c     0.80592912     0.19488944     0.10213638
c     0.03052468     0.74426356     0.08353325
c     0.96947533     0.24426355     0.91646675
c     0.97730844     0.82112409     0.25794685
c     0.02269157     0.32112408     0.74205315
c     0.03112771     0.93112215     0.43234969
c     0.96887230     0.43112214     0.56765031
c     0.13626415     0.96300625     0.42959941
c     0.86373586     0.46300624     0.57040059
c     0.19364590     0.88595817     0.25296862
c     0.80635411     0.38595816     0.74703138
c     0.13896954     0.77387304     0.07646085
c     0.86103047     0.27387303     0.92353915
c     0.36214881     0.03186629     0.43508001
c     0.63785120     0.53186628     0.56491999
c     0.48387661     0.02505632     0.47933240
c     0.51612340     0.52505631     0.52066760
c     0.29180896     0.27524875     0.48003188
c     0.70819105     0.77524874     0.51996812
c     0.24775325     0.40911394     0.32491128
c     0.75224676     0.90911393     0.67508872
n     0.32253843     0.17128046     0.31866423
n     0.67746158     0.67128045     0.68133577
o     0.29698042     0.26239121     0.74394898
o     0.70301959     0.76239120     0.25605102
h     0.31564954     0.18954009     0.10326845
h     0.68435047     0.68954008     0.89673155
h     0.43798720     0.85081398     0.06980405
h     0.56201281     0.35081397     0.93019595
h     0.34192066     0.66318697     0.75965971
h     0.65807935     0.16318696     0.24034029
h     0.15135430     0.61160717     0.76174466
h     0.84864571     0.11160716     0.23825535
h     0.98982417     0.65955884     0.94673465
h     0.01017583     0.15955882     0.05326535
h     0.89396557     0.79759024     0.26032345
h     0.10603443     0.29759023     0.73967655
h     0.99014879     0.99138265     0.57335330
h     0.00985122     0.49138264     0.42664670
h     0.17560376     0.04692460     0.56994387
h     0.82439625     0.54692459     0.43005613
h     0.34102958     0.02540842     0.64666392
h     0.65897043     0.52540840     0.35333609
h     0.51123837     0.03861394     0.27716614
h     0.48876163     0.53861393     0.72283386
h     0.51358641     0.92207286     0.57257255
h     0.48641360     0.42207285     0.42742745
h     0.51971078     0.11025726     0.62506032
h     0.48028923     0.61025725     0.37493968
h     0.26028688     0.41282482     0.10525487
h     0.73971312     0.91282481     0.89474513
h     0.28447291     0.50244970     0.44319683
h     0.71552709     0.00244969     0.55680317
h     0.16158294     0.41418717     0.31980542
h     0.83841706     0.91418716     0.68019458

K_POINTS automatic
2 2 2 1 1 1

CELL_PARAMETERS cubic
   24.127963000000     0.000000000000    -0.314759000000
    0.000000000000    17.682854000000     0.000000000000
   -1.692829000000     0.000000000000     8.859028000000
