&control
 title='crystal',
 prefix='crystal',
 pseudo_dir='..',
 calculation='vc-relax',
 etot_conv_thr=1.0D-5,
/
&system
 ibrav=0,
 celldm(1)=1.0,
 nat=    52,
 ntyp=  4,
 ecutwfc=80.0,
 ecutrho=800.0,
 xdm=.true.,
 xdm_a1=0.6512,
 xdm_a2=1.4633,
/
&electrons
 conv_thr = 1d-8,
/
&ions
/
&cell
/
ATOMIC_SPECIES
h      1.007940 h.UPF
c     12.010700 c.UPF
n     14.006700 n.UPF
o     15.999400 o.UPF

ATOMIC_POSITIONS crystal
c        0.144080437   0.311082788   0.162313109
c        0.355920430   0.811078733   0.662312657
c        0.644079570   0.188921267   0.162312657
c        0.855919563   0.688917212   0.662313109
c        0.163367625   0.214404649   0.402719512
c        0.336633073   0.714400424   0.902718538
c        0.663366927   0.285599576   0.402718538
c        0.836632375   0.785595351   0.902719512
c        0.089332821   0.008386631   0.446697983
c        0.410666753   0.508377442   0.946698337
c        0.589333247   0.491622558   0.446698337
c        0.910667179   0.991613369   0.946697983
n        0.140888702   0.388999935   0.579204806
n        0.359111783   0.888994877   0.079203748
n        0.640888217   0.111005123   0.579203748
n        0.859111298   0.611000065   0.079204806
o        0.089844065   0.491891054   0.140647106
o        0.410157438   0.991883674   0.640647199
o        0.589842562   0.008116326   0.140647199
o        0.910155935   0.508108946   0.640647106
o        0.185807154   0.195002411  -0.001287751
o        0.314192674   0.695001948   0.498711349
o        0.685807326   0.304998052  -0.001288651
o        0.814192846   0.804997589   0.498712249
h        0.057101294   0.446824869   0.572347452
h        0.442898527   0.946819575   0.072344568
h        0.557101473   0.053180425   0.572344568
h        0.942898706   0.553175131   0.072347452
h        0.198573164   0.521992288   0.554352697
h        0.301426275   0.021988132   0.054352358
h        0.698573725   0.978011868   0.554352358
h        0.801426836   0.478007712   0.054352697
h        0.154985623   0.320391028   0.743625670
h        0.345015709   0.820386818   0.243625010
h        0.654984291   0.179613182   0.743625010
h        0.845014377   0.679608972   0.243625670
h        0.253731240   0.169401218   0.420470656
h        0.246269315   0.669402264   0.920468917
h        0.753730685   0.330597736   0.420468917
h        0.746268760   0.830598782   0.920470656
h        0.108096596   0.939931043   0.615939300
h        0.391902117   0.439923886   0.115939814
h        0.608097883   0.560076114   0.615939814
h        0.891903404   0.060068957   0.115939300
h        0.106073491   0.877388074   0.320459847
h        0.393925734   0.377378964   0.820461153
h        0.606074266   0.622621036   0.320461153
h        0.893926509   0.122611926   0.820459847
h       -0.001375335   0.051674192   0.440882418
h        0.501375188   0.551658360   0.940883547
h        0.498624812   0.448341640   0.440883547
h        1.001375335   0.948325808   0.940882418

K_POINTS automatic
4 4 4 1 1 1

CELL_PARAMETERS cubic
  22.170073924   0.000129570   0.000000000
   0.000061561  11.263100312   0.000000000
   0.000000000   0.000000000  11.082456058
