&control
 title='crystal',
 prefix='crystal',
 pseudo_dir='.',
 calculation='vc-relax',
/
&system
 ibrav=0,
 celldm(1)=1.0,
 nat=   108,
 ntyp=  5,
 ecutwfc=60.0,
 ecutrho=600.0,
 xdm=.true.,
 xdm_a1=0.4073,
 xdm_a2=2.4150,
/
&electrons
 conv_thr = 1d-8,
/
&ions
/
&cell
/
ATOMIC_SPECIES
h      1.007940 h.UPF
c     12.010700 c.UPF
n     14.006700 n.UPF
o     15.999400 o.UPF
s     32.065000 s.UPF

ATOMIC_POSITIONS crystal
s     0.08470098     0.06887909     0.78441247
s     0.58470098     0.43112092     0.21558754
s     0.91529904     0.56887910     0.71558754
s     0.41529903     0.93112094     0.28441246
o     0.97503063     0.81782977     0.89198178
o     0.47503064     0.68217025     0.10801823
o     0.02496939     0.31782978     0.60801823
o     0.52496938     0.18217026     0.39198177
n     0.46248422     0.51038062     0.97536485
n     0.96248423     0.98961940     0.02463515
n     0.53751579     0.01038063     0.52463515
n     0.03751578     0.48961941     0.47536485
c     0.28334520     0.19848258     0.77506568
c     0.78334521     0.30151744     0.22493432
c     0.71665482     0.69848259     0.72493432
c     0.21665481     0.80151745     0.27506568
h     0.24039498     0.29722813     0.74662143
h     0.74039499     0.20277189     0.25337858
h     0.75960504     0.79722814     0.75337858
h     0.25960503     0.70277190     0.24662142
c     0.48468276     0.15623234     0.80649183
c     0.98468276     0.34376768     0.19350817
c     0.51531726     0.65623235     0.69350817
c     0.01531725     0.84376769     0.30649183
h     0.63234114     0.22258138     0.80792331
h     0.13234115     0.27741864     0.19207669
h     0.36765887     0.72258139     0.69207669
h     0.86765887     0.77741865     0.30792331
c     0.47868469     0.01725093     0.83776821
c     0.97868470     0.48274909     0.16223179
c     0.52131533     0.51725094     0.66223179
c     0.02131532     0.98274910     0.33776821
h     0.62349957     0.96441647     0.86339977
h     0.12349957     0.53558354     0.13660023
h     0.37650045     0.46441649     0.63660023
h     0.87650044     0.03558355     0.36339977
c     0.27147081     0.95529209     0.83085816
c     0.77147082     0.54470792     0.16914184
c     0.72852920     0.45529210     0.66914184
c     0.22852920     0.04470793     0.33085816
c     0.19213322     0.81165228     0.85547909
c     0.69213323     0.68834773     0.14452091
c     0.80786680     0.31165230     0.64452091
c     0.30786679     0.18834774     0.35547909
h     0.16754374     0.74837432     0.80054602
h     0.66754375     0.75162570     0.19945398
h     0.83245628     0.24837433     0.69945398
h     0.33245627     0.25162571     0.30054602
c     0.36625437     0.73590142     0.90740828
c     0.86625438     0.76409860     0.09259173
c     0.63374565     0.23590143     0.59259173
c     0.13374564     0.26409861     0.40740827
h     0.52917554     0.74234150     0.87716550
h     0.02917555     0.75765851     0.12283450
h     0.47082448     0.24234151     0.62283450
h     0.97082447     0.25765852     0.37716550
h     0.38253496     0.78983189     0.96562892
h     0.88253497     0.71016812     0.03437108
h     0.61746506     0.28983191     0.53437108
h     0.11746505     0.21016813     0.46562892
c     0.30386197     0.58291307     0.92131473
c     0.80386198     0.91708695     0.07868527
c     0.69613805     0.08291308     0.57868527
c     0.19613804     0.41708696     0.42131473
h     0.13829894     0.57768419     0.94969383
h     0.63829895     0.92231582     0.05030617
h     0.86170107     0.07768420     0.55030617
h     0.36170106     0.42231584     0.44969383
h     0.29154044     0.52728958     0.86276245
h     0.79154045     0.97271043     0.13723755
h     0.70845958     0.02728960     0.63723755
h     0.20845957     0.47271044     0.36276245
c     0.68423876     0.49352921     0.93833270
c     0.18423877     0.00647081     0.06166730
c     0.31576125     0.99352922     0.56166730
c     0.81576125     0.50647082     0.43833270
h     0.75579348     0.59551216     0.92234936
h     0.25579349     0.90448786     0.07765064
h     0.24420654     0.09551217     0.57765064
h     0.74420653     0.40448787     0.42234936
h     0.67666585     0.42885435     0.88307125
h     0.17666586     0.07114567     0.11692876
h     0.32333416     0.92885436     0.61692876
h     0.82333415     0.57114568     0.38307124
h     0.79591622     0.44211515     0.98171028
h     0.29591623     0.05788487     0.01828973
h     0.20408380     0.94211516     0.51828973
h     0.70408379     0.55788488     0.48171027
c     0.37357049     0.37328780     0.99976227
c     0.87357050     0.12671222     0.00023773
c     0.62642953     0.87328781     0.50023773
c     0.12642952     0.62671223     0.49976227
h     0.20883213     0.38679117     0.02772091
h     0.70883213     0.11320885     0.97227909
h     0.79116789     0.88679118     0.47227909
h     0.29116788     0.61320886     0.52772091
h     0.48578249     0.32570567     0.04437493
h     0.98578250     0.17429434     0.95562507
h     0.51421753     0.82570568     0.45562507
h     0.01421752     0.67429436     0.54437493
h     0.35654782     0.30123147     0.94793125
h     0.85654783     0.19876855     0.05206875
h     0.64345219     0.80123148     0.55206875
h     0.14345219     0.69876856     0.44793125
h     0.98196292     0.88348404     0.94041515
h     0.48196293     0.61651597     0.05958485
h     0.01803710     0.38348405     0.55958485
h     0.51803709     0.11651598     0.44041515

K_POINTS automatic
2 2 2 1 1 1

CELL_PARAMETERS cubic
   11.289400000000     0.000000000000     0.000000000000
    0.000000000000    18.022964000000     0.000000000000
    0.000000000000     0.000000000000    31.328352000000
