&control
 title='crystal',
 prefix='crystal',
 pseudo_dir='.',
 calculation='vc-relax',
/
&system
 ibrav=0,
 celldm(1)=1.0,
 nat=    48,
 ntyp=  5,
 ecutwfc=60.0,
 ecutrho=600.0,
 xdm=.true.,
 xdm_a1=0.4073,
 xdm_a2=2.4150,
/
&electrons
 conv_thr = 1d-8,
/
&ions
/
&cell
/
ATOMIC_SPECIES
h      1.007940 h.UPF
c     12.010700 c.UPF
f     18.998403 f.UPF
cl    35.453000 cl.UPF
br    79.904000 br.UPF

ATOMIC_POSITIONS crystal
c     0.57652214     0.28934218     0.66480439
c     0.42347793     0.71065781     0.33519562
c     0.07652210     0.21065781     0.16480438
c     0.92347796     0.78934217     0.83519563
c     0.46413201     0.36626908     0.60346805
c     0.53586805     0.63373091     0.39653196
c     0.96413198     0.13373092     0.10346805
c     0.03586808     0.86626907     0.89653196
c     0.36112019     0.45601555     0.63505905
c     0.63887987     0.54398444     0.36494096
c     0.86112016     0.04398444     0.13505904
c     0.13887990     0.95601554     0.86494096
c     0.36212393     0.47158948     0.72412275
c     0.63787613     0.52841051     0.27587726
c     0.86212390     0.02841051     0.22412275
c     0.13787616     0.97158947     0.77587726
c     0.47932358     0.39382543     0.78418819
c     0.52067649     0.60617455     0.21581182
c     0.97932355     0.10617456     0.28418819
c     0.02067652     0.89382543     0.71581182
c     0.59095924     0.30179514     0.75613083
c     0.40904082     0.69820485     0.24386918
c     0.09095921     0.19820485     0.25613082
c     0.90904085     0.80179513     0.74386918
f     0.25526962     0.53241295     0.57630245
f     0.74473044     0.46758704     0.42369756
f     0.75526959     0.96758704     0.07630245
f     0.24473047     0.03241294     0.92369756
br    0.48200857     0.41470507     0.90653947
br    0.51799149     0.58529492     0.09346054
br    0.98200854     0.08529492     0.40653946
br    0.01799152     0.91470506     0.59346054
cl    0.74380884     0.20717826     0.83129311
cl    0.25619123     0.79282173     0.16870689
cl    0.24380881     0.29282174     0.33129311
cl    0.75619126     0.70717825     0.66870690
br    0.70858165     0.16518267     0.62149722
br    0.29141842     0.83481732     0.37850278
br    0.20858161     0.33481732     0.12149722
br    0.79141845     0.66518266     0.87850279
h     0.27791310     0.54299437     0.74587716
h     0.72208696     0.45700562     0.25412285
h     0.77791307     0.95700562     0.24587715
h     0.22208699     0.04299436     0.75412286
h     0.45593946     0.35637364     0.53304446
h     0.54406060     0.64362635     0.46695555
h     0.95593943     0.14362635     0.03304445
h     0.04406063     0.85637363     0.96695555

K_POINTS automatic
2 2 2 1 1 1

CELL_PARAMETERS cubic
    7.260490000000     0.000000000000    -0.305714000000
    0.000000000000    25.226923000000     0.000000000000
   -5.829053000000     0.000000000000    28.507572000000
