&control
 title='crystal',
 prefix='crystal',
 pseudo_dir='.',
 calculation='vc-relax',
/
&system
 ibrav=0,
 celldm(1)=1.0,
 nat=    96,
 ntyp=  5,
 ecutwfc=60.0,
 ecutrho=600.0,
 xdm=.true.,
 xdm_a1=0.4073,
 xdm_a2=2.4150,
/
&electrons
 conv_thr = 1d-8,
/
&ions
/
&cell
/
ATOMIC_SPECIES
h      1.007940 h.UPF
c     12.010700 c.UPF
f     18.998403 f.UPF
cl    35.453000 cl.UPF
br    79.904000 br.UPF

ATOMIC_POSITIONS crystal
br    0.34029822     0.38818930     0.85642847
br    0.65970179     0.61181062     0.14357153
br    0.15970416     0.61181009     0.35642661
br    0.84029585     0.38818984     0.64357339
br    0.84029567     0.11181592     0.14357331
br    0.15970434     0.88818401     0.85642669
br    0.65970185     0.88818318     0.64357123
br    0.34029816     0.11181675     0.35642876
br    0.08070649     0.36295531     0.14530596
br    0.91929352     0.63704461     0.85469404
br    0.41929729     0.63704511     0.64530764
br    0.58070272     0.36295481     0.35469235
br    0.58070267     0.13705502     0.85469227
br    0.41929734     0.86294490     0.14530773
br    0.91929366     0.86294527     0.35469417
br    0.08070635     0.13705465     0.64530582
cl    0.12634924     0.37886740     0.93634322
cl    0.87365077     0.62113252     0.06365678
cl    0.37365291     0.62113279     0.43634322
cl    0.62634710     0.37886714     0.56365678
cl    0.62634689     0.12113210     0.06365666
cl    0.37365312     0.87886783     0.93634333
cl    0.87365084     0.87886855     0.56365683
cl    0.12634916     0.12113138     0.43634317
f     0.44361062     0.36141005     0.18039871
f     0.55638939     0.63858988     0.81960129
f     0.05640539     0.63859043     0.68040614
f     0.94359462     0.36140950     0.31959385
f     0.94359487     0.13849874     0.81959286
f     0.05640513     0.86150119     0.18040713
f     0.55638940     0.86150227     0.31960016
f     0.44361061     0.13849766     0.68039983
c     0.21950656     0.37457374     0.00791024
c     0.78049345     0.62542618     0.99208976
c     0.28049563     0.62542625     0.50790933
c     0.71950438     0.37457367     0.49209067
c     0.71950419     0.12543090     0.99209063
c     0.28049581     0.87456903     0.00790937
c     0.78049369     0.87456903     0.49208974
c     0.21950632     0.12543090     0.50791026
c     0.31290116     0.37468843     0.97769675
c     0.68709885     0.62531150     0.02230325
c     0.18709984     0.62531125     0.47769600
c     0.81290017     0.37468867     0.52230400
c     0.81290002     0.12531569     0.02230398
c     0.18709999     0.87468424     0.97769602
c     0.68709913     0.87468370     0.52230314
c     0.31290087     0.12531623     0.47769686
c     0.37015002     0.36586944     0.12380967
c     0.62984999     0.63413049     0.87619033
c     0.12985567     0.63413045     0.62380845
c     0.87014434     0.36586948     0.37619155
c     0.87014445     0.13410045     0.87619128
c     0.12985556     0.86589947     0.12380872
c     0.62985027     0.86589935     0.37618982
c     0.37014974     0.13410058     0.62381017
c     0.20464489     0.37034357     0.09852966
c     0.79535512     0.62965635     0.90147033
c     0.29535981     0.62965618     0.59852856
c     0.70464020     0.37034374     0.40147144
c     0.70464004     0.12966266     0.90147147
c     0.29535997     0.87033726     0.09852852
c     0.79535538     0.87033706     0.40147031
c     0.20464462     0.12966287     0.59852969
c     0.38891598     0.36784088     0.03498073
c     0.61108402     0.63215905     0.96501926
c     0.11108565     0.63215890     0.53498035
c     0.88891436     0.36784103     0.46501965
c     0.88891428     0.13215031     0.96501941
c     0.11108573     0.86784961     0.03498058
c     0.61108421     0.86784928     0.46501890
c     0.38891580     0.13215065     0.53498110
c     0.27949119     0.36806665     0.15720138
c     0.72050881     0.63193328     0.84279862
c     0.22051470     0.63193285     0.65719919
c     0.77948531     0.36806707     0.34280080
c     0.77948511     0.13192518     0.84280065
c     0.22051489     0.86807475     0.15719934
c     0.72050916     0.86807412     0.34279857
c     0.27949085     0.13192580     0.65720143
h     0.46090075     0.36152977     0.01125244
h     0.53909926     0.63847016     0.98874756
h     0.03909987     0.63847026     0.51125224
h     0.96090014     0.36152966     0.48874776
h     0.96090014     0.13846144     0.98874762
h     0.03909987     0.86153849     0.01125238
h     0.53909941     0.86153838     0.48874703
h     0.46090060     0.13846155     0.51125296
h     0.26768709     0.36750891     0.22730665
h     0.73231291     0.63249101     0.77269335
h     0.23231226     0.63249065     0.72730511
h     0.76768775     0.36750928     0.27269488
h     0.76768783     0.13248220     0.77269476
h     0.23231218     0.86751773     0.22730524
h     0.73231329     0.86751720     0.27269317
h     0.26768672     0.13248273     0.72730683

K_POINTS automatic
2 2 2 1 1 1

CELL_PARAMETERS cubic
   26.832287000000     0.000042000000    -0.000083000000
    0.000021000000    13.470392000000    -0.000003000000
   -0.000090000000    -0.000007000000    28.930935000000
