&control
 title='crystal',
 prefix='crystal',
 pseudo_dir='.',
 calculation='vc-relax',
/
&system
 ibrav=0,
 celldm(1)=1.0,
 nat=    48,
 ntyp=  5,
 ecutwfc=60.0,
 ecutrho=600.0,
 xdm=.true.,
 xdm_a1=0.4073,
 xdm_a2=2.4150,
/
&electrons
 conv_thr = 1d-8,
/
&ions
/
&cell
/
ATOMIC_SPECIES
h      1.007940 h.UPF
c     12.010700 c.UPF
f     18.998403 f.UPF
cl    35.453000 cl.UPF
br    79.904000 br.UPF

ATOMIC_POSITIONS crystal
br    0.01197977     0.14827389     0.90568031
br    0.98802018     0.85172611     0.09431970
br    0.01197977     0.35172611     0.40568031
br    0.98802018     0.64827389     0.59431970
br    0.37927403     0.41014926     0.62642557
br    0.62072592     0.58985074     0.37357444
br    0.37927403     0.08985074     0.12642557
br    0.62072592     0.91014926     0.87357444
cl    0.65611241     0.35954464     0.83993939
cl    0.34388754     0.64045536     0.16006062
cl    0.65611241     0.14045536     0.33993939
cl    0.34388754     0.85954464     0.66006062
f     0.78132050     0.05202954     0.55949427
f     0.21867944     0.94797046     0.44050574
f     0.78132050     0.44797046     0.05949427
f     0.21867945     0.55202954     0.94050574
c     0.69294701     0.26923754     0.75746618
c     0.30705294     0.73076247     0.24253383
c     0.69294700     0.23076247     0.25746618
c     0.30705294     0.76923754     0.74253383
c     0.84287816     0.17693427     0.78111241
c     0.15712179     0.82306573     0.21888760
c     0.84287816     0.32306573     0.28111241
c     0.15712179     0.67693427     0.71888760
c     0.87504307     0.10328317     0.71512660
c     0.12495688     0.89671683     0.28487341
c     0.87504307     0.39671683     0.21512660
c     0.12495688     0.60328317     0.78487341
h     0.99345823     0.03218174     0.73346708
h     0.00654171     0.96781826     0.26653293
h     0.99345823     0.46781826     0.23346708
h     0.00654172     0.53218174     0.76653293
c     0.75145457     0.12313944     0.62433718
c     0.24854538     0.87686056     0.37566283
c     0.75145456     0.37686056     0.12433718
c     0.24854538     0.62313944     0.87566283
c     0.60063034     0.21295227     0.59710297
c     0.39936961     0.78704774     0.40289704
c     0.60063034     0.28704774     0.09710297
c     0.39936961     0.71295227     0.90289704
h     0.50939503     0.22579246     0.52509607
h     0.49060492     0.77420755     0.47490394
h     0.50939502     0.27420755     0.02509607
h     0.49060492     0.72579246     0.97490395
c     0.57469379     0.28554557     0.66438338
c     0.42530616     0.71445443     0.33561663
c     0.57469379     0.21445443     0.16438338
c     0.42530616     0.78554557     0.83561663

K_POINTS automatic
2 2 2 1 1 1

CELL_PARAMETERS cubic
    7.265808000000     0.000000000000    -0.071489000000
    0.000000000000    25.502151000000     0.000000000000
   -1.970458000000     0.000000000000    27.278620000000
