&control
 title='crystal',
 prefix='crystal',
 pseudo_dir='.',
 calculation='vc-relax',
/
&system
 ibrav=0,
 celldm(1)=1.0,
 nat=    48,
 ntyp=  5,
 ecutwfc=60.0,
 ecutrho=600.0,
 xdm=.true.,
 xdm_a1=0.4073,
 xdm_a2=2.4150,
/
&electrons
 conv_thr = 1d-8,
/
&ions
/
&cell
/
ATOMIC_SPECIES
h      1.007940 h.UPF
c     12.010700 c.UPF
f     18.998403 f.UPF
cl    35.453000 cl.UPF
br    79.904000 br.UPF

ATOMIC_POSITIONS crystal
c     0.15467402     0.67678921     0.71829751
c     0.84532596     0.32321081     0.28170249
c     0.15467400     0.82321082     0.21829751
c     0.84532598     0.17678920     0.78170249
c     0.12186903     0.60311039     0.78427942
c     0.87813094     0.39688963     0.21572058
c     0.12186902     0.89688964     0.28427942
c     0.87813097     0.10311037     0.71572058
c     0.30503460     0.76910939     0.74199402
c     0.69496537     0.23089063     0.25800598
c     0.30503459     0.73089064     0.24199402
c     0.69496540     0.26910938     0.75800598
br    0.98605855     0.64810564     0.59365882
br    0.01394142     0.35189438     0.40634118
br    0.98605854     0.85189439     0.09365882
br    0.01394145     0.14810562     0.90634118
c     0.24542105     0.62293995     0.87510367
c     0.75457892     0.37706007     0.12489633
c     0.24542104     0.87706007     0.37510367
c     0.75457895     0.12293994     0.62489633
h     0.00302791     0.53200238     0.76592788
h     0.99697206     0.46799764     0.23407212
h     0.00302790     0.96799765     0.26592789
h     0.99697209     0.03200237     0.73407211
c     0.42292263     0.78541791     0.83513153
c     0.57707734     0.21458211     0.16486847
c     0.42292262     0.71458212     0.33513153
c     0.57707737     0.28541789     0.66486847
cl    0.34308450     0.85940627     0.65951039
cl    0.65691547     0.14059375     0.34048961
cl    0.34308449     0.64059375     0.15951040
cl    0.65691550     0.35940626     0.84048960
c     0.39651247     0.71277788     0.90239978
c     0.60348751     0.28722214     0.09760022
c     0.39651245     0.78722214     0.40239978
c     0.60348753     0.21277787     0.59760022
f     0.21551253     0.55174872     0.93992525
f     0.78448744     0.44825130     0.06007475
f     0.21551251     0.94825131     0.43992525
f     0.78448747     0.05174870     0.56007475
br    0.61859350     0.91007294     0.87318659
br    0.38140648     0.08992708     0.12681341
br    0.61859348     0.58992708     0.37318659
br    0.38140650     0.41007293     0.62681341
h     0.48778422     0.72553609     0.97444037
h     0.51221575     0.27446393     0.02555963
h     0.48778421     0.77446394     0.47444038
h     0.51221578     0.22553608     0.52555962

K_POINTS automatic
2 2 2 1 1 1

CELL_PARAMETERS cubic
    7.262458000000     0.000000000000     0.013125000000
    0.000000000000    25.483492000000     0.000000000000
   -2.298813000000     0.000000000000    27.250473000000
