&control
 title='crystal',
 prefix='crystal',
 pseudo_dir='.',
 calculation='vc-relax',
/
&system
 ibrav=0,
 celldm(1)=1.0,
 nat=    48,
 ntyp=  5,
 ecutwfc=60.0,
 ecutrho=600.0,
 xdm=.true.,
 xdm_a1=0.4073,
 xdm_a2=2.4150,
/
&electrons
 conv_thr = 1d-8,
/
&ions
/
&cell
/
ATOMIC_SPECIES
h      1.007940 h.UPF
c     12.010700 c.UPF
f     18.998403 f.UPF
cl    35.453000 cl.UPF
br    79.904000 br.UPF

ATOMIC_POSITIONS crystal
br    0.51349620     0.14739572     0.40658480
br    0.48650382     0.85260430     0.59341520
br    0.51349618     0.35260429     0.90658480
br    0.48650383     0.64739573     0.09341520
br    0.88178456     0.41011754     0.12737464
br    0.11821545     0.58988248     0.87262536
br    0.88178455     0.08988246     0.62737464
br    0.11821547     0.91011755     0.37262536
cl    0.15743542     0.35879207     0.34108397
cl    0.84256460     0.64120795     0.65891603
cl    0.15743541     0.14120794     0.84108397
cl    0.84256461     0.85879208     0.15891603
f     0.28479660     0.05246853     0.05972895
f     0.71520342     0.94753149     0.94027106
f     0.28479658     0.44753148     0.55972895
f     0.71520343     0.55246854     0.44027106
c     0.19498843     0.26881774     0.25836727
c     0.80501158     0.73118228     0.74163274
c     0.19498842     0.23118227     0.75836727
c     0.80501160     0.76881775     0.24163274
c     0.34504140     0.17648401     0.28188181
c     0.65495861     0.82351601     0.71811819
c     0.34504139     0.32351600     0.78188181
c     0.65495862     0.67648402     0.21811819
c     0.25462780     0.12331136     0.12478292
c     0.74537222     0.87668866     0.87521708
c     0.25462778     0.37668865     0.62478292
c     0.74537223     0.62331137     0.37521708
c     0.07726262     0.28545628     0.16517749
c     0.92273740     0.71454374     0.83482251
c     0.07726260     0.21454372     0.66517749
c     0.92273741     0.78545630     0.33482251
c     0.37797112     0.10315188     0.21565736
c     0.62202890     0.89684814     0.78434264
c     0.37797110     0.39684813     0.71565736
c     0.62202891     0.60315189     0.28434264
c     0.10366623     0.21315946     0.09767219
c     0.89633378     0.78684056     0.90232782
c     0.10366622     0.28684055     0.59767219
c     0.89633380     0.71315947     0.40232782
h     0.49696793     0.03207750     0.23385057
h     0.50303209     0.96792252     0.76614943
h     0.49696791     0.46792251     0.73385057
h     0.50303210     0.53207751     0.26614943
h     0.01276041     0.22623613     0.02558511
h     0.98723960     0.77376389     0.97441489
h     0.01276040     0.27376388     0.52558511
h     0.98723962     0.72623614     0.47441489

K_POINTS automatic
2 2 2 1 1 1

CELL_PARAMETERS cubic
    7.257667000000     0.000000000000    -0.184955000000
    0.000000000000    25.513101000000     0.000000000000
   -1.616281000000     0.000000000000    27.293212000000
