&control
 title='crystal',
 prefix='crystal',
 pseudo_dir='.',
 calculation='vc-relax',
/
&system
 ibrav=0,
 celldm(1)=1.0,
 nat=    24,
 ntyp=  5,
 ecutwfc=60.0,
 ecutrho=600.0,
 xdm=.true.,
 xdm_a1=0.4073,
 xdm_a2=2.4150,
/
&electrons
 conv_thr = 1d-8,
/
&ions
/
&cell
/
ATOMIC_SPECIES
h      1.007940 h.UPF
c     12.010700 c.UPF
f     18.998403 f.UPF
cl    35.453000 cl.UPF
br    79.904000 br.UPF

ATOMIC_POSITIONS crystal
br    0.64366880     0.54079444     0.24546226
br    0.64366349     0.45918507     0.74545987
cl    0.31827305     0.39658218     0.28772284
cl    0.31825581     0.60341373     0.78771642
br    0.87373234     0.60376041     0.11323148
br    0.87372951     0.39621140     0.61322993
h     0.86395495     0.95523737     0.93352090
h     0.86396568     0.04475979     0.43351291
f     0.09700885     0.10837097     0.88123654
f     0.09703052     0.89160508     0.38123316
h     0.44031755     0.90107326     0.03182896
h     0.44032366     0.09894102     0.53181880
c     0.38562435     0.67238607     0.14440172
c     0.38562026     0.32762900     0.64439348
c     0.25203018     0.59879312     0.16714920
c     0.25202156     0.40121446     0.66713976
c     0.06304762     0.69923855     0.08898448
c     0.06304581     0.30077099     0.58897677
c     0.00945813     0.87178835     0.99263994
c     0.00945954     0.12821988     0.49262807
c     0.14749632     0.93905785     0.97447509
c     0.14750490     0.06095140     0.47446568
c     0.33558199     0.84217475     0.04831178
c     0.33558559     0.15784114     0.54829986

K_POINTS automatic
2 2 2 1 1 1

CELL_PARAMETERS cubic
   15.467456000000     0.000386000000    -5.078556000000
    0.000258000000     7.476081000000    -0.000061000000
   -8.158825000000    -0.000558000000    26.613929000000
