&control
 title='crystal',
 prefix='crystal',
 pseudo_dir='.',
 calculation='vc-relax',
/
&system
 ibrav=0,
 celldm(1)=1.0,
 nat=    48,
 ntyp=  5,
 ecutwfc=60.0,
 ecutrho=600.0,
 xdm=.true.,
 xdm_a1=0.4073,
 xdm_a2=2.4150,
/
&electrons
 conv_thr = 1d-8,
/
&ions
/
&cell
/
ATOMIC_SPECIES
h      1.007940 h.UPF
c     12.010700 c.UPF
f     18.998403 f.UPF
cl    35.453000 cl.UPF
br    79.904000 br.UPF

ATOMIC_POSITIONS crystal
c     0.26172502     0.73587274     0.81074365
c     0.73827496     0.23587275     0.68925626
c     0.76170302     0.76411981     0.18926767
c     0.23829696     0.26411982     0.31073224
c     0.10814785     0.85532620     0.69140192
c     0.89185214     0.35532620     0.80859798
c     0.60810310     0.64467248     0.30858943
c     0.39189688     0.14467248     0.19141048
c     0.27275568     0.83054687     0.67469567
c     0.72724431     0.33054688     0.82530423
c     0.77271191     0.66943861     0.32532523
c     0.22728808     0.16943862     0.17467467
c     0.19631346     0.89113572     0.61312758
c     0.80368652     0.39113572     0.88687232
c     0.69627192     0.60886615     0.38687117
c     0.30372807     0.10886616     0.11312873
c     0.17080564     0.70296111     0.88271670
c     0.82919434     0.20296111     0.61728320
c     0.67079293     0.79704042     0.11727185
c     0.32920706     0.29704043     0.38272806
c     0.09339519     0.76244844     0.82556086
c     0.90660479     0.26244844     0.67443904
c     0.59336259     0.73757328     0.17439249
c     0.40663740     0.23757329     0.32560742
f     0.03321299     0.91396101     0.63378047
f     0.96678700     0.41396101     0.86621944
f     0.53317039     0.58605790     0.36619022
f     0.46682959     0.08605790     0.13380969
cl    0.35686708     0.66267087     0.89160318
cl    0.64313290     0.16267087     0.60839672
cl    0.85685786     0.83731066     0.10845381
cl    0.14314213     0.33731066     0.39154610
h     0.20423524     0.96425613     0.50632818
h     0.79576475     0.46425613     0.99367172
h     0.70416744     0.53574201     0.49367566
h     0.29583255     0.03574202     0.00632424
h     0.02313827     0.73728574     0.88352185
h     0.97686171     0.23728575     0.61647805
h     0.52312517     0.76273096     0.11643764
h     0.47687482     0.26273096     0.38356226
br    0.39360433     0.88063629     0.57117476
br    0.60639565     0.38063629     0.92882514
br    0.89355370     0.61934284     0.42888562
br    0.10644629     0.11934284     0.07111428
br    0.15075905     0.57490308     0.05861677
br    0.84924093     0.07490309     0.44138313
br    0.65076752     0.92510058     0.94137073
br    0.34923246     0.42510059     0.55862917

K_POINTS automatic
2 2 2 1 1 1

CELL_PARAMETERS cubic
   27.055844000000     0.000000000000     0.000961000000
    0.000000000000    25.799213000000     0.000000000000
    0.000270000000     0.000000000000     7.272081000000
