&control
 title='crystal',
 prefix='crystal',
 pseudo_dir='.',
 calculation='vc-relax',
/
&system
 ibrav=0,
 celldm(1)=1.0,
 nat=    48,
 ntyp=  5,
 ecutwfc=60.0,
 ecutrho=600.0,
 xdm=.true.,
 xdm_a1=0.4073,
 xdm_a2=2.4150,
/
&electrons
 conv_thr = 1d-8,
/
&ions
/
&cell
/
ATOMIC_SPECIES
h      1.007940 h.UPF
c     12.010700 c.UPF
f     18.998403 f.UPF
cl    35.453000 cl.UPF
br    79.904000 br.UPF

ATOMIC_POSITIONS crystal
c     0.33354353     0.63454780     0.70721185
c     0.66645647     0.36545220     0.29278813
c     0.33354350     0.86545220     0.20721186
c     0.66645650     0.13454780     0.79278813
c     0.69332705     0.60891249     0.93422655
c     0.30667295     0.39108751     0.06577343
c     0.69332702     0.89108751     0.43422656
c     0.30667298     0.10891249     0.56577343
c     0.61797377     0.68090507     0.90034617
c     0.38202623     0.31909493     0.09965381
c     0.61797374     0.81909493     0.40034618
c     0.38202626     0.18090507     0.59965381
c     0.43793997     0.69306686     0.78585972
c     0.56206003     0.30693314     0.21414027
c     0.43793994     0.80693314     0.28585973
c     0.56206006     0.19306686     0.71414026
c     0.59312963     0.54922802     0.86073518
c     0.40687037     0.45077198     0.13926481
c     0.59312960     0.95077198     0.36073519
c     0.40687039     0.04922802     0.63926480
c     0.40996383     0.56261610     0.74729622
c     0.59003617     0.43738390     0.25270377
c     0.40996380     0.93738390     0.24729623
c     0.59003619     0.06261610     0.75270376
h     0.65767872     0.49369900     0.89059512
h     0.34232128     0.50630100     0.10940487
h     0.65767869     0.00630100     0.39059513
h     0.34232130     0.99369900     0.60940487
h     0.69660811     0.72597211     0.96180016
h     0.30339188     0.27402789     0.03819982
h     0.69660809     0.77402789     0.46180017
h     0.30339191     0.22597211     0.53819982
cl    0.12291846     0.65079085     0.56404452
cl    0.87708154     0.34920915     0.43595546
cl    0.12291844     0.84920915     0.06404453
cl    0.87708156     0.15079085     0.93595546
f     0.87245052     0.59595967     0.04522886
f     0.12754947     0.40404033     0.95477112
f     0.87245050     0.90404033     0.54522887
f     0.12754950     0.09595967     0.45477112
br    0.33348547     0.79158844     0.73913320
br    0.66651453     0.20841156     0.26086678
br    0.33348545     0.70841156     0.23913321
br    0.66651455     0.29158844     0.76086678
br    0.26179964     0.48065224     0.64941421
br    0.73820036     0.51934776     0.35058578
br    0.26179961     0.01934776     0.14941422
br    0.73820039     0.98065224     0.85058577

K_POINTS automatic
2 2 2 1 1 1

CELL_PARAMETERS cubic
    7.312614000000     0.000000000000    -0.220332000000
    0.000000000000    34.391593000000     0.000000000000
   -1.081341000000     0.000000000000    20.512207000000
