&control
 title='crystal',
 prefix='crystal',
 pseudo_dir='.',
 calculation='vc-relax',
/
&system
 ibrav=0,
 celldm(1)=1.0,
 nat=    48,
 ntyp=  5,
 ecutwfc=60.0,
 ecutrho=600.0,
 xdm=.true.,
 xdm_a1=0.4073,
 xdm_a2=2.4150,
/
&electrons
 conv_thr = 1d-8,
/
&ions
/
&cell
/
ATOMIC_SPECIES
h      1.007940 h.UPF
c     12.010700 c.UPF
f     18.998403 f.UPF
cl    35.453000 cl.UPF
br    79.904000 br.UPF

ATOMIC_POSITIONS crystal
c     0.99835291     0.27281842     0.81393480
c     0.00164708     0.72718158     0.18606530
c     0.49835292     0.22718158     0.81393477
c     0.50164707     0.77281842     0.18606534
c     0.97960376     0.36117056     0.76295373
c     0.02039623     0.63882944     0.23704636
c     0.47960377     0.13882944     0.76295371
c     0.52039622     0.86117056     0.23704640
c     0.88945757     0.39315581     0.60416237
c     0.11054242     0.60684419     0.39583773
c     0.38945758     0.10684419     0.60416234
c     0.61054241     0.89315581     0.39583777
c     0.81530943     0.33301432     0.48871462
c     0.18469055     0.66698568     0.51128547
c     0.31530944     0.16698568     0.48871459
c     0.68469055     0.83301432     0.51128552
c     0.83025942     0.24277954     0.53186730
c     0.16974057     0.75722046     0.46813280
c     0.33025943     0.25722046     0.53186727
c     0.66974056     0.74277954     0.46813284
c     0.92263832     0.21422583     0.69816634
c     0.07736167     0.78577417     0.30183375
c     0.42263832     0.28577417     0.69816632
c     0.57736167     0.71422583     0.30183379
h     0.06997552     0.25076315     0.94155069
h     0.93002447     0.74923685     0.05844941
h     0.56997553     0.24923685     0.94155066
h     0.43002446     0.75076315     0.05844945
h     0.87733022     0.46291995     0.57181519
h     0.12266977     0.53708005     0.42818491
h     0.37733023     0.03708005     0.57181516
h     0.62266976     0.96291995     0.42818495
cl    0.73851317     0.16945241     0.38250310
cl    0.26148682     0.83054759     0.61749699
cl    0.23851318     0.33054759     0.38250308
cl    0.76148681     0.66945241     0.61749703
f     0.05318684     0.41908561     0.87452120
f     0.94681314     0.58091439     0.12547889
f     0.55318685     0.08091439     0.87452118
f     0.44681314     0.91908561     0.12547893
br    0.69159783     0.37681729     0.27212606
br    0.30840216     0.62318271     0.72787404
br    0.19159784     0.12318271     0.27212603
br    0.80840215     0.87681729     0.72787408
br    0.94663470     0.09287820     0.77092694
br    0.05336529     0.90712180     0.22907316
br    0.44663471     0.40712180     0.77092691
br    0.55336528     0.59287820     0.22907320

K_POINTS automatic
2 2 2 1 1 1

CELL_PARAMETERS cubic
   24.879260000000     0.000000000000    -0.285058000000
    0.000000000000    28.923279000000     0.000000000000
   -0.419143000000     0.000000000000     7.254070000000
