&control
 title='crystal',
 prefix='crystal',
 pseudo_dir='.',
 calculation='vc-relax',
/
&system
 ibrav=0,
 celldm(1)=1.0,
 nat=    48,
 ntyp=  5,
 ecutwfc=60.0,
 ecutrho=600.0,
 xdm=.true.,
 xdm_a1=0.4073,
 xdm_a2=2.4150,
/
&electrons
 conv_thr = 1d-8,
/
&ions
/
&cell
/
ATOMIC_SPECIES
h      1.007940 h.UPF
c     12.010700 c.UPF
f     18.998403 f.UPF
cl    35.453000 cl.UPF
br    79.904000 br.UPF

ATOMIC_POSITIONS crystal
c     0.85127420     0.12650588     0.08160260
c     0.14872571     0.87349408     0.91839738
c     0.14872096     0.62644803     0.41839093
c     0.85127896     0.37355194     0.58160905
c     0.78130399     0.96765948     0.08855189
c     0.21869593     0.03234049     0.91144809
c     0.21870308     0.46760523     0.41145216
c     0.78129684     0.53239473     0.58854782
c     0.90719856     0.83863275     0.13194949
c     0.09280135     0.16136721     0.86805049
c     0.09278125     0.33856800     0.36805667
c     0.90721867     0.66143197     0.63194331
c     0.09869372     0.86232386     0.16957781
c     0.90130620     0.13767611     0.83042217
c     0.90130899     0.36227646     0.33042794
c     0.09869093     0.63772351     0.66957204
c     0.16532526     0.02221413     0.16163209
c     0.83467465     0.97778584     0.83836789
c     0.83466305     0.52218188     0.33836107
c     0.16533686     0.47781809     0.66163891
c     0.04406624     0.15709417     0.11743189
c     0.95593367     0.84290580     0.88256809
c     0.95594574     0.65706193     0.38256316
c     0.04405417     0.34293804     0.61743682
h     0.63271263     0.94236296     0.06033401
h     0.36728729     0.05763701     0.93966597
h     0.36729064     0.44227527     0.43967037
h     0.63270928     0.55772470     0.56032962
h     0.19319531     0.75863567     0.20369765
h     0.80680460     0.24136430     0.79630233
h     0.80679803     0.25858662     0.29630809
h     0.19320188     0.74141335     0.70369190
cl    0.12830194     0.35344152     0.10705200
cl    0.87169797     0.64655845     0.89294798
cl    0.87170644     0.85342410     0.39294084
cl    0.12829348     0.14657587     0.60705914
f     0.83988076     0.68305167     0.13673868
f     0.16011915     0.31694830     0.86326131
f     0.16011100     0.18298595     0.36327610
f     0.83988892     0.81701402     0.63672388
br    0.42818252     0.05175300     0.21344227
br    0.57181739     0.94824696     0.78655771
br    0.57181599     0.55174371     0.28655431
br    0.42818392     0.44825626     0.71344567
br    0.67656308     0.30094440     0.01820502
br    0.32343684     0.69905557     0.98179496
br    0.32343283     0.80089012     0.48178431
br    0.67656709     0.19910985     0.51821568

K_POINTS automatic
2 2 2 1 1 1

CELL_PARAMETERS cubic
   14.566160000000     0.000589000000    -0.455622000000
    0.000589000000    15.036251000000    -0.000673000000
   -8.694880000000    -0.001500000000    24.015197000000
