&control
 title='crystal',
 prefix='crystal',
 pseudo_dir='.',
 calculation='vc-relax',
/
&system
 ibrav=0,
 celldm(1)=1.0,
 nat=    24,
 ntyp=  5,
 ecutwfc=60.0,
 ecutrho=600.0,
 xdm=.true.,
 xdm_a1=0.4073,
 xdm_a2=2.4150,
/
&electrons
 conv_thr = 1d-8,
/
&ions
/
&cell
/
ATOMIC_SPECIES
h      1.007940 h.UPF
c     12.010700 c.UPF
f     18.998403 f.UPF
cl    35.453000 cl.UPF
br    79.904000 br.UPF

ATOMIC_POSITIONS crystal
br    0.73390905     0.92211311     0.58598660
br    0.29078936     0.45178315     0.44751809
cl    0.54099013     0.12427194     0.54926389
cl    0.45882204     0.67976796     0.45004594
br    0.70456107     0.35224747     0.53988481
br    0.27095219     0.88273396     0.42672893
h     0.04351887     0.32157225     0.57619646
h     0.93780624     0.80506567     0.40025267
f     0.22091763     0.17368239     0.59454220
f     0.77917171     0.63177723     0.40589298
h     0.06625478     0.00042840     0.61107336
h     0.95241068     0.48318818     0.41276769
c     0.83427555     0.05460119     0.58855787
c     0.17679844     0.56970755     0.42556173
c     0.74324034     0.13852339     0.57154000
c     0.25668610     0.66595514     0.42818507
c     0.82106713     0.23477011     0.56870736
c     0.16780706     0.75026514     0.41702524
c     0.98294704     0.24752824     0.58043246
c     0.00573336     0.73988039     0.40519007
c     0.06617951     0.16202916     0.59390718
c     0.93385055     0.64313156     0.40627533
c     0.99651660     0.06533302     0.60098500
c     0.01479430     0.55726328     0.41347993

K_POINTS automatic
2 2 2 1 1 1

CELL_PARAMETERS cubic
   16.384797000000    -0.693488000000     2.819801000000
   -0.824379000000    25.044533000000    -1.376680000000
   -5.987218000000    -0.101623000000     5.352648000000
