&control
 title='crystal',
 prefix='crystal',
 pseudo_dir='.',
 calculation='vc-relax',
/
&system
 ibrav=0,
 celldm(1)=1.0,
 nat=    24,
 ntyp=  5,
 ecutwfc=60.0,
 ecutrho=600.0,
 xdm=.true.,
 xdm_a1=0.4073,
 xdm_a2=2.4150,
/
&electrons
 conv_thr = 1d-8,
/
&ions
/
&cell
/
ATOMIC_SPECIES
h      1.007940 h.UPF
c     12.010700 c.UPF
f     18.998403 f.UPF
cl    35.453000 cl.UPF
br    79.904000 br.UPF

ATOMIC_POSITIONS crystal
c     0.32487534     0.87525250     0.86459846
c     0.67512460     0.12474759     0.13540157
c     0.32440386     0.98784394     0.74993289
c     0.67559608     0.01215615     0.25006714
c     0.25016163     0.17338608     0.82832515
c     0.74983831     0.82661400     0.17167489
c     0.17591240     0.25108219     0.01398422
c     0.82408754     0.74891789     0.98601582
c     0.17546097     0.13583285     0.12593709
c     0.82453897     0.86416724     0.87406295
c     0.25015050     0.94679506     0.05374242
c     0.74984943     0.05320502     0.94625762
h     0.38027878     0.93271914     0.60374933
h     0.61972116     0.06728095     0.39625070
h     0.12032360     0.39721061     0.06959859
h     0.87967633     0.60278947     0.93040145
cl    0.24979889     0.80609578     0.19374166
cl    0.75020104     0.19390430     0.80625837
f     0.25048022     0.28456809     0.71763043
f     0.74951972     0.71543200     0.28236961
br    0.07048349     0.24131696     0.38026846
br    0.92951645     0.75868313     0.61973158
br    0.43004595     0.62105013     0.75815705
br    0.56995398     0.37894995     0.24184299

K_POINTS automatic
2 2 2 1 1 1

CELL_PARAMETERS cubic
   13.154299000000     0.125775000000     0.151637000000
    4.367627000000    14.524183000000     0.020621000000
    4.308995000000    -3.954486000000    13.974715000000
