&control
 title='crystal',
 prefix='crystal',
 pseudo_dir='.',
 calculation='vc-relax',
/
&system
 ibrav=0,
 celldm(1)=1.0,
 nat=    48,
 ntyp=  5,
 ecutwfc=60.0,
 ecutrho=600.0,
 xdm=.true.,
 xdm_a1=0.4073,
 xdm_a2=2.4150,
/
&electrons
 conv_thr = 1d-8,
/
&ions
/
&cell
/
ATOMIC_SPECIES
h      1.007940 h.UPF
c     12.010700 c.UPF
f     18.998403 f.UPF
cl    35.453000 cl.UPF
br    79.904000 br.UPF

ATOMIC_POSITIONS crystal
c     0.43379730     0.28093029     0.38409906
c     0.38411237     0.90115796     0.43381260
c     0.34882223     0.86590686     0.96906359
c     0.96906148     0.81621163     0.34881840
c     0.54586577     0.23973033     0.35780597
c     0.35781536     0.85658719     0.54587629
c     0.39339361     0.89220531     0.01025568
c     0.01026026     0.70414439     0.39339340
c     0.46583485     0.26737947     0.49130570
c     0.49131183     0.77547353     0.46584097
c     0.47452204     0.75869144     0.98262197
c     0.98261871     0.78416690     0.47451933
br    0.23715810     0.35230282     0.27477163
br    0.27479678     0.13574022     0.23718503
br    0.11422658     0.97523422     0.89769108
br    0.89768802     0.01285076     0.11422427
c     0.69356545     0.18270654     0.44265498
c     0.44265448     0.68107037     0.69356967
c     0.56891949     0.80735497     0.06728230
c     0.06729063     0.55643998     0.56892196
h     0.52185868     0.24905027     0.27600253
h     0.27601591     0.95307196     0.52187501
h     0.29689604     0.97401564     0.00092900
h     0.00093571     0.72815637     0.29689853
c     0.61739264     0.20885614     0.57399033
c     0.57398365     0.59976653     0.61738765
c     0.65024159     0.67600762     0.04114502
c     0.04114723     0.63260477     0.65024396
cl    0.32473658     0.32002297     0.52128766
cl    0.52129992     0.83394040     0.32475065
cl    0.41605938     0.72869770     0.92999235
cl    0.92997605     0.92526324     0.41604898
c     0.73198072     0.16658698     0.55028644
c     0.55027934     0.55115334     0.73197195
c     0.69884770     0.69971831     0.08340684
c     0.08341741     0.51801674     0.69885693
f     0.80690196     0.13898627     0.42148094
f     0.42147877     0.63263069     0.80690164
f     0.61735682     0.82853332     0.11099635
f     0.11101024     0.44310496     0.61736351
br    0.67688600     0.17952339     0.72882747
br    0.72879857     0.41479238     0.67685733
br    0.83523974     0.52116706     0.07048105
br    0.07048300     0.57310624     0.83524687
h     0.84935666     0.12117961     0.61450652
h     0.61449104     0.41497135     0.84934319
h     0.83504166     0.63549567     0.12881604
h     0.12882852     0.40063720     0.83504928

K_POINTS automatic
2 2 2 1 1 1

CELL_PARAMETERS cubic
   26.068818000000     0.000057000000     3.602475000000
   26.068953000000    27.319412000000    -0.000542000000
    0.000084000000    27.319260000000     3.602300000000
