&control
 title='crystal',
 prefix='crystal',
 pseudo_dir='.',
 calculation='vc-relax',
/
&system
 ibrav=0,
 celldm(1)=1.0,
 nat=    48,
 ntyp=  5,
 ecutwfc=60.0,
 ecutrho=600.0,
 xdm=.true.,
 xdm_a1=0.4073,
 xdm_a2=2.4150,
/
&electrons
 conv_thr = 1d-8,
/
&ions
/
&cell
/
ATOMIC_SPECIES
h      1.007940 h.UPF
c     12.010700 c.UPF
f     18.998403 f.UPF
cl    35.453000 cl.UPF
br    79.904000 br.UPF

ATOMIC_POSITIONS crystal
c     0.36720991     0.31237413     0.42657321
c     0.63279009     0.68762587     0.57342678
c     0.47976480     0.28718455     0.35146694
c     0.52023519     0.71281545     0.64853305
c     0.49971673     0.13934888     0.30335203
c     0.50028327     0.86065113     0.69664796
c     0.40905201     0.01912300     0.32870588
c     0.59094798     0.98087701     0.67129411
c     0.29833114     0.04870292     0.40719320
c     0.70166885     0.95129708     0.59280679
c     0.27606415     0.19560063     0.45626588
c     0.72393585     0.80439937     0.54373411
h     0.55061934     0.37938601     0.33282250
h     0.44938065     0.62061400     0.66717749
h     0.19063362     0.21817532     0.51724835
h     0.80936637     0.78182469     0.48275163
cl    0.43396669     0.83987967     0.26602376
cl    0.56603331     0.16012033     0.73397623
f     0.34614286     0.45536125     0.47416640
f     0.65385713     0.54463875     0.52583359
br    0.17767942     0.88392907     0.45162577
br    0.82232058     0.11607093     0.54837422
br    0.65705337     0.09857241     0.20592441
br    0.34294663     0.90142759     0.79407558
c     0.03451707     0.16600569     0.13126779
c     0.96548292     0.83399431     0.86873220
c     0.97921999     0.27797947     0.20518243
c     0.02078000     0.72202053     0.79481756
c     0.03956701     0.42316219     0.20225823
c     0.96043298     0.57683782     0.79774176
c     0.15237659     0.45818548     0.12617938
c     0.84762340     0.54181453     0.87382061
c     0.20405910     0.34069428     0.05298910
c     0.79594089     0.65930573     0.94701089
c     0.14616147     0.19347643     0.05483102
c     0.85383852     0.80652357     0.94516897
h     0.89191892     0.25122280     0.26406700
h     0.10808107     0.74877721     0.73593299
h     0.18651668     0.10279051     0.99830661
h     0.81348332     0.89720949     0.00169338
cl    0.22514835     0.63877324     0.12364699
cl    0.77485164     0.36122676     0.87635300
f     0.97694494     0.02293792     0.13503131
f     0.02305505     0.97706209     0.86496868
br    0.35712551     0.37878797     0.94871588
br    0.64287449     0.62121204     0.05128411
br    0.96536365     0.57203248     0.30759055
br    0.03463634     0.42796752     0.69240944

K_POINTS automatic
2 2 2 1 1 1

CELL_PARAMETERS cubic
   18.606894000000    -0.199720000000    -0.049060000000
    2.924039000000    14.798455000000    -0.157940000000
   -0.118581000000     5.837945000000    19.096053000000
