&control
 title='crystal',
 prefix='crystal',
 pseudo_dir='.',
 calculation='vc-relax',
/
&system
 ibrav=0,
 celldm(1)=1.0,
 nat=    48,
 ntyp=  5,
 ecutwfc=60.0,
 ecutrho=600.0,
 xdm=.true.,
 xdm_a1=0.4073,
 xdm_a2=2.4150,
/
&electrons
 conv_thr = 1d-8,
/
&ions
/
&cell
/
ATOMIC_SPECIES
h      1.007940 h.UPF
c     12.010700 c.UPF
f     18.998403 f.UPF
cl    35.453000 cl.UPF
br    79.904000 br.UPF

ATOMIC_POSITIONS crystal
c     0.48577763     0.74926791     0.49883013
c     0.98577763     0.75073211     0.50116987
c     0.51422237     0.24926790     0.00116987
c     0.01422237     0.25073210     0.99883013
c     0.52326379     0.64259445     0.51138883
c     0.02326379     0.85740556     0.48861117
c     0.47673621     0.14259445     0.98861117
c     0.97673621     0.35740556     0.01138883
c     0.60177511     0.64357123     0.51416108
c     0.10177511     0.85642878     0.48583892
c     0.39822489     0.14357123     0.98583892
c     0.89822489     0.35642878     0.01416108
c     0.64245011     0.74936982     0.50479229
c     0.14245011     0.75063019     0.49520771
c     0.35754989     0.24936982     0.99520771
c     0.85754989     0.25063019     0.00479229
c     0.60175310     0.85512757     0.49256978
c     0.10175310     0.64487245     0.50743022
c     0.39824690     0.35512756     0.00743022
c     0.89824690     0.14487244     0.99256978
c     0.52323872     0.85599060     0.48942697
c     0.02323872     0.64400941     0.51057303
c     0.47676128     0.35599060     0.01057303
c     0.97676128     0.14400941     0.98942697
cl    0.73934427     0.74944793     0.50784196
cl    0.23934427     0.75055209     0.49215804
cl    0.26065573     0.24944792     0.99215804
cl    0.76065573     0.25055208     0.00784196
br    0.65247361     0.00170781     0.47924335
br    0.15247361     0.49829220     0.52075665
br    0.34752638     0.50170781     0.02075665
br    0.84752638     0.99829220     0.97924335
br    0.65252667     0.49705896     0.53121622
br    0.15252667     0.00294105     0.46878378
br    0.34747332     0.99705896     0.96878378
br    0.84747332     0.50294105     0.03121622
f     0.40943204     0.74921648     0.49551623
f     0.90943204     0.75078353     0.50448377
f     0.59056796     0.24921648     0.00448377
f     0.09056796     0.25078353     0.99551623
h     0.49153500     0.93740593     0.48034126
h     0.99153500     0.56259408     0.51965874
h     0.50846500     0.43740593     0.01965874
h     0.00846500     0.06259408     0.98034126
h     0.49157707     0.56113886     0.51859217
h     0.99157707     0.93886115     0.48140783
h     0.50842293     0.06113885     0.98140783
h     0.00842293     0.43886115     0.01859217

K_POINTS automatic
2 2 2 1 1 1

CELL_PARAMETERS cubic
   33.520810000000     0.000000000000     0.000000000000
    0.000000000000    21.523169000000     0.000000000000
    0.000000000000     0.000000000000     7.288138000000
