&control
 title='crystal',
 prefix='crystal',
 pseudo_dir='.',
 calculation='vc-relax',
/
&system
 ibrav=0,
 celldm(1)=1.0,
 nat=    48,
 ntyp=  5,
 ecutwfc=60.0,
 ecutrho=600.0,
 xdm=.true.,
 xdm_a1=0.4073,
 xdm_a2=2.4150,
/
&electrons
 conv_thr = 1d-8,
/
&ions
/
&cell
/
ATOMIC_SPECIES
h      1.007940 h.UPF
c     12.010700 c.UPF
f     18.998403 f.UPF
cl    35.453000 cl.UPF
br    79.904000 br.UPF

ATOMIC_POSITIONS crystal
c     0.36069052     0.45042479     0.73344492
c     0.63930945     0.54957521     0.26655521
c     0.86069051     0.04957521     0.23344490
c     0.13930947     0.95042478     0.76655522
c     0.43385359     0.39072969     0.76241230
c     0.56614639     0.60927031     0.23758783
c     0.93385357     0.10927031     0.26241228
c     0.06614641     0.89072969     0.73758785
c     0.39943263     0.31876094     0.72372829
c     0.60056735     0.68123906     0.27627184
c     0.89943262     0.18123906     0.22372828
c     0.10056736     0.81876093     0.77627185
c     0.28494760     0.30673311     0.65784946
c     0.71505238     0.69326689     0.34215067
c     0.78494758     0.19326689     0.15784944
c     0.21505240     0.80673311     0.84215069
c     0.20652316     0.36525715     0.63040433
c     0.79347681     0.63474284     0.36959580
c     0.70652315     0.13474284     0.13040432
c     0.29347683     0.86525715     0.86959581
c     0.24708430     0.43714109     0.66439906
c     0.75291568     0.56285891     0.33560107
c     0.74708428     0.06285891     0.16439904
c     0.25291570     0.93714108     0.83560108
h     0.39095224     0.50590770     0.76670198
h     0.60904774     0.49409230     0.23329814
h     0.89095223     0.99409230     0.26670197
h     0.10904775     0.00590770     0.73329816
h     0.46044548     0.27358853     0.74290707
h     0.53955450     0.72641146     0.25709306
h     0.96044546     0.22641146     0.24290706
h     0.03955451     0.77358853     0.75709307
cl    0.06306301     0.34919708     0.56418857
cl    0.93693697     0.65080292     0.43581156
cl    0.56306299     0.15080292     0.06418855
cl    0.43693699     0.84919707     0.93581158
f     0.54499609     0.40355146     0.82990902
f     0.45500388     0.59644853     0.17009111
f     0.04499608     0.09644853     0.32990900
f     0.95500390     0.90355146     0.67009112
br    0.23761848     0.20828955     0.60291980
br    0.76238150     0.79171044     0.39708032
br    0.73761846     0.29171044     0.10291979
br    0.26238152     0.70828955     0.89708034
br    0.14980699     0.51919813     0.61141826
br    0.85019298     0.48080187     0.38858187
br    0.64980698     0.98080187     0.11141824
br    0.35019300     0.01919813     0.88858189

K_POINTS automatic
2 2 2 1 1 1

CELL_PARAMETERS cubic
   21.207015000000     0.000000000000    -0.248331000000
    0.000000000000    34.408184000000     0.000000000000
    2.041313000000     0.000000000000     7.025795000000
