&control
 title='crystal',
 prefix='crystal',
 pseudo_dir='.',
 calculation='vc-relax',
/
&system
 ibrav=0,
 celldm(1)=1.0,
 nat=    48,
 ntyp=  5,
 ecutwfc=60.0,
 ecutrho=600.0,
 xdm=.true.,
 xdm_a1=0.4073,
 xdm_a2=2.4150,
/
&electrons
 conv_thr = 1d-8,
/
&ions
/
&cell
/
ATOMIC_SPECIES
h      1.007940 h.UPF
c     12.010700 c.UPF
f     18.998403 f.UPF
cl    35.453000 cl.UPF
br    79.904000 br.UPF

ATOMIC_POSITIONS crystal
c     0.39055690     0.51768070     0.54080707
c     0.60944312     0.48231940     0.45919300
c     0.45018986     0.63344537     0.63591245
c     0.54981016     0.36655473     0.36408762
c     0.43626599     0.31367893     0.53216886
c     0.56373402     0.68632117     0.46783121
c     0.36381723     0.89780383     0.34331394
c     0.63618278     0.10219627     0.65668613
c     0.30539775     0.79154281     0.25043980
c     0.69460227     0.20845729     0.74956027
c     0.31808683     0.09941751     0.34771166
c     0.68191319     0.90058259     0.65228841
h     0.50603831     0.96965763     0.78986360
h     0.49396171     0.03034247     0.21013647
h     0.27300012     0.01812037     0.27625483
h     0.72699990     0.98187973     0.72374524
cl    0.34692713     0.54281007     0.23688028
cl    0.65307289     0.45719003     0.76311979
f     0.40412082     0.82529170     0.63950637
f     0.59587920     0.17470840     0.36049370
br    0.20629841     0.21676305     0.98529700
br    0.79370161     0.78323705     0.01470307
br    0.51824236     0.45167796     0.65088109
br    0.48175766     0.54832214     0.34911898
c     0.10944530     0.89317217     0.47854010
c     0.89055472     0.10682793     0.52145997
c     0.18193370     0.05485850     0.57543040
c     0.81806632     0.94514160     0.42456967
c     0.19461093     0.84831659     0.52882454
c     0.80538908     0.15168351     0.47117553
c     0.13618202     0.48731175     0.38807043
c     0.86381799     0.51268835     0.61192964
c     0.06373856     0.32364806     0.28715183
c     0.93626146     0.67635204     0.71284824
c     0.04979916     0.53185237     0.33511893
c     0.95020086     0.46814773     0.66488114
h     0.22700296     0.33407537     0.68423304
h     0.77299706     0.66592473     0.31576703
h     0.99396415     0.42135625     0.26570704
h     0.00603587     0.57864385     0.73429303
cl    0.15307519     0.26743523     0.34919389
cl    0.84692483     0.73256487     0.65080618
f     0.09588328     0.09224260     0.52297960
f     0.90411673     0.90775750     0.47702047
br    0.98175362     0.80583708     0.07796007
br    0.01824639     0.19416302     0.92204000
br    0.29371420     0.06637693     0.66010398
br    0.70628582     0.93362317     0.33989609

K_POINTS automatic
2 2 2 1 1 1

CELL_PARAMETERS cubic
   37.165621000000     0.846170000000     0.448929000000
   -2.584873000000    21.105144000000    -1.169081000000
    2.187553000000   -40.356759000000     8.734035000000
