&control
 title='crystal',
 prefix='crystal',
 pseudo_dir='.',
 calculation='vc-relax',
/
&system
 ibrav=0,
 celldm(1)=1.0,
 nat=    48,
 ntyp=  5,
 ecutwfc=60.0,
 ecutrho=600.0,
 xdm=.true.,
 xdm_a1=0.4073,
 xdm_a2=2.4150,
/
&electrons
 conv_thr = 1d-8,
/
&ions
/
&cell
/
ATOMIC_SPECIES
h      1.007940 h.UPF
c     12.010700 c.UPF
f     18.998403 f.UPF
cl    35.453000 cl.UPF
br    79.904000 br.UPF

ATOMIC_POSITIONS crystal
c     0.71651890     0.82329009     0.71798573
c     0.28348112     0.17670989     0.28201427
c     0.71651885     0.67670988     0.21798573
c     0.28348116     0.32329010     0.78201428
c     0.66080668     0.73097425     0.74166811
c     0.33919334     0.26902573     0.25833190
c     0.66080663     0.76902572     0.24166810
c     0.33919338     0.23097426     0.75833190
c     0.91561383     0.71468956     0.83480761
c     0.08438618     0.28531042     0.16519239
c     0.91561379     0.78531041     0.33480761
c     0.08438622     0.21468957     0.66519240
c     0.21097100     0.78736900     0.90207061
c     0.78902901     0.21263098     0.09792940
c     0.21097096     0.71263096     0.40207060
c     0.78902905     0.28736902     0.59792940
c     0.25310020     0.87719180     0.87479387
c     0.74689981     0.12280818     0.12520613
c     0.25310016     0.62280817     0.37479387
c     0.74689986     0.37719181     0.62520614
c     0.01361213     0.89696597     0.78398780
c     0.98638788     0.10303401     0.21601221
c     0.01361209     0.60303400     0.28398779
c     0.98638793     0.39696598     0.71601221
br    0.38617679     0.85196079     0.59333331
br    0.61382322     0.14803919     0.40666669
br    0.38617675     0.64803918     0.09333331
br    0.61382326     0.35196081     0.90666669
br    0.87284535     0.58999456     0.87291618
br    0.12715466     0.41000542     0.12708383
br    0.87284531     0.91000540     0.37291617
br    0.12715470     0.08999458     0.62708383
cl    0.29244548     0.64065896     0.65918295
cl    0.70755454     0.35934102     0.34081705
cl    0.29244544     0.85934101     0.15918295
cl    0.70755458     0.14065897     0.84081705
f     0.54239977     0.94839823     0.93963035
f     0.45760025     0.05160175     0.06036966
f     0.54239973     0.55160174     0.43963034
f     0.45760029     0.44839825     0.56036966
h     0.40778877     0.77462449     0.97410068
h     0.59221124     0.22537549     0.02589932
h     0.40778873     0.72537548     0.47410068
h     0.59221129     0.27462450     0.52589933
h     0.05934905     0.96804894     0.76565527
h     0.94065096     0.03195104     0.23434473
h     0.05934901     0.53195102     0.26565527
h     0.94065100     0.46804896     0.73434474

K_POINTS automatic
2 2 2 1 1 1

CELL_PARAMETERS cubic
    7.271407000000     0.000000000000     0.054476000000
    0.000000000000    25.476091000000     0.000000000000
  -27.051501000000     0.000000000000    27.050150000000
