## FHIaims input file generated by critic2.
lattice_vector 10.5548693385      0.0000058980       0.0000003133      
lattice_vector 0.0000039321       7.0364774364       -0.0000001759     
lattice_vector 0.0000000174       -0.0000000358      3.3255328143      
atom_frac  0.0523313001       0.0784965281       0.1736101953       H 
atom_frac  0.3856646334       0.0784965281       0.1736101953       H 
atom_frac  0.7189979668       0.0784965281       0.1736101953       H 
atom_frac  0.0523313001       0.5784965281       0.1736101953       H 
atom_frac  0.3856646334       0.5784965281       0.1736101953       H 
atom_frac  0.7189979668       0.5784965281       0.1736101953       H 
atom_frac  0.2810020355       0.4215034918       0.1736101545       H 
atom_frac  0.6143353688       0.4215034918       0.1736101545       H 
atom_frac  0.9476687022       0.4215034918       0.1736101545       H 
atom_frac  0.2810020355       0.9215034918       0.1736101545       H 
atom_frac  0.6143353688       0.9215034918       0.1736101545       H 
atom_frac  0.9476687022       0.9215034918       0.1736101545       H 
atom_frac  0.2189974864       0.1715041982       0.6736117745       H 
atom_frac  0.5523308197       0.1715041982       0.6736117745       H 
atom_frac  0.8856641531       0.1715041982       0.6736117745       H 
atom_frac  0.2189974864       0.6715041982       0.6736117745       H 
atom_frac  0.5523308197       0.6715041982       0.6736117745       H 
atom_frac  0.8856641531       0.6715041982       0.6736117745       H 
atom_frac  0.1143358723       0.3284957577       0.6736116010       H 
atom_frac  0.4476692056       0.3284957577       0.6736116010       H 
atom_frac  0.7810025390       0.3284957577       0.6736116010       H 
atom_frac  0.1143358723       0.8284957577       0.6736116010       H 
atom_frac  0.4476692056       0.8284957577       0.6736116010       H 
atom_frac  0.7810025390       0.8284957577       0.6736116010       H 
atom_frac  0.9999999805       0.0000000265       0.9927788034       O 
atom_frac  0.3333333138       0.0000000265       0.9927788034       O 
atom_frac  0.6666666471       0.0000000265       0.9927788034       O 
atom_frac  0.9999999805       0.5000000265       0.9927788034       O 
atom_frac  0.3333333138       0.5000000265       0.9927788034       O 
atom_frac  0.6666666471       0.5000000265       0.9927788034       O 
atom_frac  0.1666666585       0.2499999977       0.4927774713       O 
atom_frac  0.4999999919       0.2499999977       0.4927774713       O 
atom_frac  0.8333333252       0.2499999977       0.4927774713       O 
atom_frac  0.1666666585       0.7499999977       0.4927774713       O 
atom_frac  0.4999999919       0.7499999977       0.4927774713       O 
atom_frac  0.8333333252       0.7499999977       0.4927774713       O 
