&control
 title='crystal',
 prefix='crystal',
 pseudo_dir='.',
 calculation='vc-relax',
/
&system
 ibrav=0,
 celldm(1)=1.0,
 nat=    22,
 ntyp=  4,
 ecutwfc=60.0,
 ecutrho=600.0,
 xdm=.true.,
 xdm_a1=0.4073,
 xdm_a2=2.4150,
/
&electrons
 conv_thr = 1d-8,
/
&ions
/
&cell
/
ATOMIC_SPECIES
h      1.007940 h.UPF
c     12.010700 c.UPF
n     14.006700 n.UPF
o     15.999400 o.UPF

ATOMIC_POSITIONS crystal
n     0.22037758     0.22037768     0.39145510
n     0.77962239     0.77962227     0.89145510
c     0.33769574     0.33769583     0.46844700
c     0.66230424     0.66230411     0.96844701
n     0.32950426     0.32950426     0.69445639
n     0.67049581     0.67049560     0.19445640
c     0.20884560     0.20884560     0.76250436
c     0.79115447     0.79115425     0.26250437
c     0.12857405     0.12857349     0.56148968
c     0.87142658     0.87142581     0.06148969
o     0.17080919     0.17080902     0.94878840
o     0.82919105     0.82919066     0.44878841
o     0.43520939     0.43520957     0.36411351
o     0.56479050     0.56479047     0.86411352
h     0.20289733     0.20289739     0.22923079
h     0.79710268     0.79710253     0.72923080
h     0.40830563     0.40830562     0.78917897
h     0.59169444     0.59169422     0.28917898
h     0.92470115     0.21223108     0.55936798
h     0.21223099     0.92470125     0.55936798
h     0.78776898     0.07529871     0.05936799
h     0.07529882     0.78776887     0.05936799

K_POINTS automatic
2 2 2 1 1 1

CELL_PARAMETERS cubic
   11.714417000000     0.233890000000     0.000000000000
    5.677210000000    10.249463000000     0.000000000000
    0.000000000000     0.000000000000    11.761898000000
