&control
 title='crystal',
 prefix='crystal',
 pseudo_dir='.',
 calculation='vc-relax',
/
&system
 ibrav=0,
 celldm(1)=1.0,
 nat=    88,
 ntyp=  4,
 ecutwfc=60.0,
 ecutrho=600.0,
 xdm=.true.,
 xdm_a1=0.4073,
 xdm_a2=2.4150,
/
&electrons
 conv_thr = 1d-8,
/
&ions
/
&cell
/
ATOMIC_SPECIES
h      1.007940 h.UPF
c     12.010700 c.UPF
n     14.006700 n.UPF
o     15.999400 o.UPF

ATOMIC_POSITIONS crystal
c     0.87990677     0.61556304     0.67437024
c     0.12009326     0.38443693     0.32562973
c     0.61558612     0.87992670     0.82563859
c     0.38441390     0.12007328     0.17436138
c     0.98941835     0.74789576     0.50081052
c     0.01058167     0.25210421     0.49918945
c     0.74791883     0.98943828     0.99919830
c     0.25208119     0.01056169     0.00080167
n     0.97562186     0.72082504     0.72723455
n     0.02437816     0.27917493     0.27276542
n     0.72084812     0.97564179     0.77277428
n     0.27915190     0.02435818     0.22722569
n     0.89189635     0.63126149     0.53685217
n     0.10810367     0.36873849     0.46314780
n     0.63128456     0.89191628     0.96315666
n     0.36871546     0.10808369     0.03684331
c     0.05047059     0.81564335     0.62720792
c     0.94952943     0.18435662     0.37279205
c     0.81566643     0.05049052     0.87280091
c     0.18433359     0.94950945     0.12719906
o     0.79702996     0.51963518     0.73072536
o     0.20297007     0.48036479     0.26927461
o     0.51965826     0.79704989     0.76928347
o     0.48034176     0.20295008     0.23071650
o     0.02109135     0.78838756     0.38687560
o     0.97890868     0.21161241     0.61312437
o     0.78841064     0.02111128     0.11313323
o     0.21158938     0.97888870     0.88686674
h     0.97934077     0.73635818     0.82651134
h     0.02065925     0.26364179     0.17348863
h     0.73638126     0.97936070     0.67349749
h     0.26361876     0.02063927     0.32650248
h     0.17488183     0.80947988     0.64221290
h     0.82511820     0.19052009     0.35778707
h     0.80950296     0.17490175     0.85779593
h     0.19049706     0.82509822     0.14220404
h     0.02089524     0.93582301     0.62064723
h     0.97910479     0.06417697     0.37935274
h     0.93584608     0.02091517     0.87936160
h     0.06415394     0.97908481     0.12063837
h     0.82843405     0.56573322     0.47083391
h     0.17156598     0.43426675     0.52916606
h     0.56575630     0.82845398     0.02917492
h     0.43424372     0.17154600     0.97082505
c     0.36522167     0.12767472     0.55489511
c     0.63477836     0.87232525     0.44510486
c     0.12769780     0.36524160     0.94511372
c     0.87230222     0.63475838     0.05488625
c     0.49115706     0.23919415     0.72968602
c     0.50884296     0.76080582     0.27031395
c     0.23921723     0.49117699     0.77032281
c     0.76078279     0.50882298     0.22967716
n     0.46944661     0.22516419     0.50316686
n     0.53055341     0.77483578     0.49683311
n     0.22518727     0.46946654     0.99684197
n     0.77481275     0.53053343     0.00315800
n     0.37640110     0.14048010     0.69218197
n     0.62359892     0.85951987     0.30781800
n     0.14050318     0.37642103     0.80782686
n     0.85949684     0.62357894     0.19217311
c     0.56114615     0.30082818     0.60440234
c     0.43885388     0.69917179     0.39559763
c     0.30085126     0.56116607     0.89560649
c     0.69914876     0.43883390     0.10439348
o     0.27266664     0.04183240     0.49796994
o     0.72733339     0.95816757     0.50203003
o     0.04185548     0.27268657     0.00203888
o     0.95814454     0.72731341     0.99796109
o     0.52883596     0.27221169     0.84364499
o     0.47116406     0.72778828     0.15635498
o     0.27223476     0.52885589     0.65636384
o     0.72776526     0.47114408     0.34363613
h     0.48721343     0.22947836     0.40430517
h     0.51278660     0.77052161     0.59569481
h     0.22950143     0.48723336     0.09570366
h     0.77049859     0.51276661     0.90429631
h     0.55416299     0.42515374     0.59040453
h     0.44583703     0.57484623     0.40959544
h     0.42517681     0.55418292     0.90960430
h     0.57482321     0.44581705     0.09039567
h     0.68211131     0.27346980     0.61258051
h     0.31788872     0.72653017     0.38741946
h     0.27349288     0.68213123     0.88742832
h     0.72650714     0.31786874     0.11257165
h     0.31006577     0.07601788     0.75703458
h     0.68993425     0.92398209     0.24296539
h     0.07604096     0.31008570     0.74297425
h     0.92395906     0.68991427     0.25702572

K_POINTS automatic
2 2 2 1 1 1

CELL_PARAMETERS cubic
   16.704794000000     0.234641000000    -0.489680000000
   -0.867819000000    16.683874000000     0.489679000000
   -1.565840000000     1.465717000000    19.146546000000
