&control
 title='crystal',
 prefix='crystal',
 pseudo_dir='.',
 calculation='vc-relax',
/
&system
 ibrav=0,
 celldm(1)=1.0,
 nat=    44,
 ntyp=  4,
 ecutwfc=60.0,
 ecutrho=600.0,
 xdm=.true.,
 xdm_a1=0.4073,
 xdm_a2=2.4150,
/
&electrons
 conv_thr = 1d-8,
/
&ions
/
&cell
/
ATOMIC_SPECIES
h      1.007940 h.UPF
c     12.010700 c.UPF
n     14.006700 n.UPF
o     15.999400 o.UPF

ATOMIC_POSITIONS crystal
c     0.80053315     0.19699378     0.81916794
c     0.19946683     0.80300621     0.18083211
c     0.19699490     0.80053215     0.68083335
c     0.80300509     0.19946784     0.31916670
n     0.67578547     0.34639335     0.68069077
n     0.32421451     0.65360664     0.31930928
n     0.34639457     0.67578576     0.81931007
n     0.65360541     0.32421423     0.18068998
c     0.75380375     0.48141044     0.63283431
c     0.24619624     0.51858955     0.36716574
c     0.48141041     0.75380390     0.86716610
c     0.51858958     0.24619609     0.13283396
c     0.94748972     0.41871639     0.75582252
c     0.05251026     0.58128360     0.24417753
c     0.41871799     0.94748780     0.74417893
c     0.58128200     0.05251219     0.25582112
n     0.95595637     0.24292467     0.86797456
n     0.04404361     0.75707531     0.13202550
n     0.24292595     0.95595345     0.63202689
n     0.75707403     0.04404653     0.36797316
o     0.67884447     0.62679702     0.51339355
o     0.32115551     0.37320297     0.48660650
o     0.62679938     0.67884402     0.98660899
o     0.37320060     0.32115596     0.01339106
o     0.76454333     0.05483045     0.88045660
o     0.23545665     0.94516953     0.11954345
o     0.05482950     0.76454250     0.61954417
o     0.94517049     0.23545749     0.38045588
h     0.05595541     0.40175272     0.66861461
h     0.94404457     0.59824726     0.33138545
h     0.40175427     0.05595387     0.83138545
h     0.59824571     0.94404611     0.16861460
h     0.95840329     0.52571706     0.83908205
h     0.04159669     0.47428292     0.16091801
h     0.52571865     0.95840040     0.66091917
h     0.47428134     0.04159958     0.33908089
h     0.07082697     0.14893751     0.96124353
h     0.92917301     0.85106247     0.03875652
h     0.14893823     0.07082422     0.53875761
h     0.85106175     0.92917576     0.46124244
h     0.54459736     0.34714705     0.61688653
h     0.45540263     0.65285293     0.38311353
h     0.34714723     0.54459768     0.88311329
h     0.65285276     0.45540230     0.11688677

K_POINTS automatic
2 2 2 1 1 1

CELL_PARAMETERS cubic
   14.374153000000     0.342995000000     0.037320000000
    4.035838000000    13.800286000000    -0.037387000000
   -1.978736000000     2.575670000000    13.418854000000
