&control
 title='crystal',
 prefix='crystal',
 pseudo_dir='.',
 calculation='vc-relax',
/
&system
 ibrav=0,
 celldm(1)=1.0,
 nat=    22,
 ntyp=  4,
 ecutwfc=60.0,
 ecutrho=600.0,
 xdm=.true.,
 xdm_a1=0.4073,
 xdm_a2=2.4150,
/
&electrons
 conv_thr = 1d-8,
/
&ions
/
&cell
/
ATOMIC_SPECIES
h      1.007940 h.UPF
c     12.010700 c.UPF
n     14.006700 n.UPF
o     15.999400 o.UPF

ATOMIC_POSITIONS crystal
o     0.51451860     0.53142450     0.49525824
o     0.48548252     0.03142437     0.50474051
c     0.27325766     0.51469539     0.84754564
c     0.72674346     0.01469526     0.15245311
n     0.15329673     0.34923733     0.01284773
n     0.84670439     0.84923720     0.98715102
c     0.87431661     0.37377908     0.42422698
c     0.12568451     0.87377895     0.57577177
o     0.72638264     0.24474730     0.62963900
o     0.27361848     0.74474718     0.37035975
n     0.80949227     0.55970528     0.53830442
n     0.19050885     0.05970516     0.46169433
c     0.05309467     0.66714060     0.18024728
c     0.94690645     0.16714047     0.81975147
h     0.91603504     0.75313254     0.52989833
h     0.08396608     0.25313242     0.47010042
h     0.22465677     0.76036486     0.78507408
h     0.77534435     0.26036473     0.21492467
h     0.63079298     0.61949203     0.79529188
h     0.36920814     0.11949190     0.20470687
h     0.26634693     0.22196223     0.83225006
h     0.73365419     0.72196210     0.16774869

K_POINTS automatic
2 2 2 1 1 1

CELL_PARAMETERS cubic
   29.980973000000    -0.000009000000     0.187569000000
    0.000000000000    13.506818000000    -0.000002000000
   15.019263000000    -0.000005000000     3.742698000000
