&control
 title='crystal',
 prefix='crystal',
 pseudo_dir='.',
 calculation='vc-relax',
/
&system
 ibrav=0,
 celldm(1)=1.0,
 nat=    22,
 ntyp=  4,
 ecutwfc=60.0,
 ecutrho=600.0,
 xdm=.true.,
 xdm_a1=0.4073,
 xdm_a2=2.4150,
/
&electrons
 conv_thr = 1d-8,
/
&ions
/
&cell
/
ATOMIC_SPECIES
h      1.007940 h.UPF
c     12.010700 c.UPF
n     14.006700 n.UPF
o     15.999400 o.UPF

ATOMIC_POSITIONS crystal
o     0.32918403     0.32918403     0.13098546
o     0.67081593     0.67081593     0.63098548
c     0.29120822     0.29120822     0.31727902
c     0.70879174     0.70879174     0.81727904
n     0.17054166     0.17054166     0.38540978
n     0.82945830     0.82945830     0.88540980
c     0.16240841     0.16240841     0.61138926
c     0.83759155     0.83759155     0.11138928
o     0.06490273     0.06490273     0.71578425
o     0.93509723     0.93509723     0.21578427
n     0.27977529     0.27977529     0.68827181
n     0.72022467     0.72022467     0.18827183
c     0.37155780     0.37155780     0.51819566
c     0.62844217     0.62844217     0.01819568
h     0.28796169     0.57541778     0.52028661
h     0.57541778     0.28796169     0.52028661
h     0.42458218     0.71203827     0.02028663
h     0.71203827     0.42458218     0.02028663
h     0.29727226     0.29727226     0.85045908
h     0.70272770     0.70272770     0.35045910
h     0.09171915     0.09171915     0.29072257
h     0.90828081     0.90828081     0.79072258

K_POINTS automatic
2 2 2 1 1 1

CELL_PARAMETERS cubic
    5.848060000000    10.151191000000     0.000000000000
   -5.848060000000    10.151191000000     0.000000000000
    0.000000000000     0.000000000000    11.763718000000
