&control
 title='crystal',
 prefix='crystal',
 pseudo_dir='.',
 calculation='vc-relax',
/
&system
 ibrav=0,
 celldm(1)=1.0,
 nat=    44,
 ntyp=  4,
 ecutwfc=60.0,
 ecutrho=600.0,
 xdm=.true.,
 xdm_a1=0.4073,
 xdm_a2=2.4150,
/
&electrons
 conv_thr = 1d-8,
/
&ions
/
&cell
/
ATOMIC_SPECIES
h      1.007940 h.UPF
c     12.010700 c.UPF
n     14.006700 n.UPF
o     15.999400 o.UPF

ATOMIC_POSITIONS crystal
c     0.82553239     0.44986076     0.23936485
c     0.32553242     0.05013925     0.76063516
c     0.17446755     0.94986077     0.26063515
c     0.67446753     0.55013926     0.73936486
n     0.64831821     0.36777141     0.14359531
n     0.14831824     0.13222860     0.85640471
n     0.35168173     0.86777142     0.35640470
n     0.85168170     0.63222861     0.64359531
c     0.69007388     0.25944634     0.19144429
c     0.19007391     0.24055367     0.80855572
c     0.30992606     0.75944635     0.30855571
c     0.80992604     0.74055368     0.69144430
n     0.85989794     0.26671032     0.33125425
n     0.35989797     0.23328969     0.66874576
n     0.14010200     0.76671033     0.16874576
n     0.64010197     0.73328970     0.83125425
c     0.95551962     0.37592295     0.36548745
c     0.45551965     0.12407706     0.63451256
c     0.04448032     0.87592295     0.13451256
c     0.54448029     0.62407707     0.86548745
o     0.60368740     0.16968915     0.13120264
o     0.10368743     0.33031086     0.86879737
o     0.39631255     0.66968916     0.36879737
o     0.89631252     0.83031087     0.63120265
o     0.11699081     0.40800067     0.47749015
o     0.61699084     0.09199934     0.52250986
o     0.88300913     0.90800067     0.02250985
o     0.38300910     0.59199935     0.97749016
h     0.63772609     0.51618521     0.28053742
h     0.13772612     0.98381480     0.71946259
h     0.36227385     0.01618522     0.21946258
h     0.86227382     0.48381480     0.78053743
h     0.05898279     0.49228475     0.18605515
h     0.55898282     0.00771526     0.81394486
h     0.94101716     0.99228476     0.31394485
h     0.44101713     0.50771526     0.68605516
h     0.57475700     0.38435306     0.03817357
h     0.07475702     0.11564695     0.96182644
h     0.42524295     0.88435307     0.46182644
h     0.92524292     0.61564696     0.53817357
h     0.84219846     0.19927515     0.40368088
h     0.34219849     0.30072486     0.59631913
h     0.15780148     0.69927515     0.09631913
h     0.65780145     0.80072487     0.90368088

K_POINTS automatic
2 2 2 1 1 1

CELL_PARAMETERS cubic
    6.852857000000     0.000000000000     0.000000000000
    0.000000000000    22.176180000000     0.000000000000
    0.000000000000     0.000000000000    17.230215000000
