&control
 title='crystal',
 prefix='crystal',
 pseudo_dir='.',
 calculation='vc-relax',
/
&system
 ibrav=0,
 celldm(1)=1.0,
 nat=    22,
 ntyp=  4,
 ecutwfc=60.0,
 ecutrho=600.0,
 xdm=.true.,
 xdm_a1=0.4073,
 xdm_a2=2.4150,
/
&electrons
 conv_thr = 1d-8,
/
&ions
/
&cell
/
ATOMIC_SPECIES
h      1.007940 h.UPF
c     12.010700 c.UPF
n     14.006700 n.UPF
o     15.999400 o.UPF

ATOMIC_POSITIONS crystal
o     0.21987783     0.23173426     0.10848938
o     0.78012216     0.73173427     0.89151065
o     0.92505351     0.61248309     0.49624678
o     0.07494648     0.11248310     0.50375325
n     0.27211086     0.59228391     0.15085983
n     0.72788913     0.09228392     0.84914020
n     0.60793058     0.38151745     0.31931546
n     0.39206941     0.88151746     0.68068457
c     0.70598044     0.57558907     0.37620941
c     0.29401956     0.07558908     0.62379062
c     0.34756084     0.38824907     0.18152150
c     0.65243915     0.88824908     0.81847853
c     0.48863992     0.72987936     0.26311036
c     0.51136007     0.22987937     0.73688967
h     0.73024794     0.24968028     0.37026653
h     0.26975205     0.74968029     0.62973350
h     0.10332241     0.64454913     0.05112317
h     0.89667759     0.14454913     0.94887685
h     0.33293847     0.83189433     0.32774878
h     0.66706153     0.33189434     0.67225124
h     0.66081041     0.82969011     0.20538161
h     0.33918959     0.32969012     0.79461841

K_POINTS automatic
2 2 2 1 1 1

CELL_PARAMETERS cubic
    7.277273000000     0.000000000000    -0.319401000000
    0.000000000000    12.092466000000     0.000000000000
   -2.175635000000     0.000000000000    15.972384000000
