&control
 title='crystal',
 prefix='crystal',
 pseudo_dir='.',
 calculation='vc-relax',
/
&system
 ibrav=0,
 celldm(1)=1.0,
 nat=    44,
 ntyp=  4,
 ecutwfc=60.0,
 ecutrho=600.0,
 xdm=.true.,
 xdm_a1=0.4073,
 xdm_a2=2.4150,
/
&electrons
 conv_thr = 1d-8,
/
&ions
/
&cell
/
ATOMIC_SPECIES
h      1.007940 h.UPF
c     12.010700 c.UPF
n     14.006700 n.UPF
o     15.999400 o.UPF

ATOMIC_POSITIONS crystal
c     0.57030656     0.31938317     0.72022000
c     0.42969348     0.68061682     0.27977999
c     0.57030659     0.18061682     0.22022000
c     0.42969346     0.81938316     0.77977999
h     0.31840598     0.25785246     0.77199348
h     0.68159406     0.74214752     0.22800651
h     0.31840601     0.24214753     0.27199347
h     0.68159404     0.75785245     0.72800651
h     0.87387575     0.27615772     0.64667928
h     0.12612430     0.72384226     0.35332071
h     0.87387577     0.22384227     0.14667927
h     0.12612427     0.77615771     0.85332071
n     0.52611273     0.40411368     0.63180406
n     0.47388731     0.59588630     0.36819593
n     0.52611276     0.09588631     0.13180405
n     0.47388729     0.90411367     0.86819593
h     0.55228166     0.39408470     0.52557317
h     0.44771838     0.60591528     0.47442681
h     0.55228169     0.10591529     0.02557317
h     0.44771836     0.89408469     0.97442682
c     0.48243210     0.50427002     0.69533770
c     0.51756795     0.49572997     0.30466228
c     0.48243212     0.99572998     0.19533770
c     0.51756792     0.00427001     0.80466229
o     0.43982716     0.59359114     0.64961396
o     0.56017288     0.40640884     0.35038603
o     0.43982719     0.90640885     0.14961395
o     0.56017286     0.09359114     0.85038603
n     0.48530204     0.49058198     0.83182567
n     0.51469801     0.50941800     0.16817431
n     0.48530206     0.00941801     0.33182567
n     0.51469799     0.99058198     0.66817432
h     0.46858605     0.55521058     0.90166946
h     0.53141400     0.44478940     0.09833053
h     0.46858607     0.94478941     0.40166945
h     0.53141397     0.05521058     0.59833053
c     0.53791012     0.38364585     0.85452333
c     0.46208993     0.61635413     0.14547666
c     0.53791014     0.11635414     0.35452333
c     0.46208991     0.88364585     0.64547666
o     0.55316787     0.34739291     0.96420838
o     0.44683218     0.65260707     0.03579160
o     0.55316789     0.15260708     0.46420838
o     0.44683215     0.84739290     0.53579161

K_POINTS automatic
2 2 2 1 1 1

CELL_PARAMETERS cubic
    7.359288000000     0.000000000000    -0.049989000000
    0.000000000000    23.104624000000     0.000000000000
   11.337989000000     0.000000000000    15.578547000000
