&control
 title='crystal',
 prefix='crystal',
 pseudo_dir='.',
 calculation='vc-relax',
/
&system
 ibrav=0,
 celldm(1)=1.0,
 nat=    44,
 ntyp=  4,
 ecutwfc=60.0,
 ecutrho=600.0,
 xdm=.true.,
 xdm_a1=0.4073,
 xdm_a2=2.4150,
/
&electrons
 conv_thr = 1d-8,
/
&ions
/
&cell
/
ATOMIC_SPECIES
h      1.007940 h.UPF
c     12.010700 c.UPF
n     14.006700 n.UPF
o     15.999400 o.UPF

ATOMIC_POSITIONS crystal
c     0.80343361     0.19909625     0.31812223
c     0.19656635     0.80090371     0.68187774
c     0.19910112     0.80344617     0.18187323
c     0.80089884     0.19655380     0.81812675
c     0.51879122     0.24578208     0.13233018
c     0.48120874     0.75421789     0.86766979
c     0.24578901     0.51877934     0.36767987
c     0.75421095     0.48122063     0.63232010
n     0.75731194     0.04384657     0.36752364
n     0.24268802     0.95615340     0.63247633
n     0.04384334     0.75730865     0.13247714
n     0.95615662     0.24269131     0.86752284
n     0.65412520     0.32364532     0.17938308
n     0.34587475     0.67635464     0.82061690
n     0.32364229     0.65412459     0.32061581
n     0.67635767     0.34587538     0.67938417
c     0.58126430     0.05233248     0.25599777
c     0.41873566     0.94766749     0.74400221
c     0.05233118     0.58126511     0.24400124
c     0.94766878     0.41873486     0.75599874
o     0.94569210     0.23513810     0.37912005
o     0.05430786     0.76486187     0.62087993
o     0.23513469     0.94568039     0.12088518
o     0.76486527     0.05431957     0.87911480
o     0.37320275     0.32084762     0.01324026
o     0.62679721     0.67915235     0.98675972
o     0.32084229     0.37321280     0.48675167
o     0.67915767     0.62678717     0.51324831
h     0.85107388     0.92915861     0.46148084
h     0.14892608     0.07084136     0.53851914
h     0.92915767     0.85107456     0.03851873
h     0.07084229     0.14892541     0.96148125
h     0.47350902     0.04312294     0.33886623
h     0.52649093     0.95687702     0.66113375
h     0.04312280     0.47350915     0.16113365
h     0.95687716     0.52649082     0.83886632
h     0.59846729     0.94246108     0.17033119
h     0.40153267     0.05753889     0.82966879
h     0.94246070     0.59846698     0.32966900
h     0.05753926     0.40153299     0.67033097
h     0.65328866     0.45492358     0.11557478
h     0.34671130     0.54507639     0.88442520
h     0.45492525     0.65328841     0.38442608
h     0.54507471     0.34671156     0.61557390

K_POINTS automatic
2 2 2 1 1 1

CELL_PARAMETERS cubic
   14.351518000000     0.017187000000     0.045904000000
    4.399574000000    13.660419000000    -0.045782000000
   -1.914898000000     2.625236000000    13.479701000000
