&control
 title='crystal',
 prefix='crystal',
 pseudo_dir='.',
 calculation='vc-relax',
/
&system
 ibrav=0,
 celldm(1)=1.0,
 nat=    44,
 ntyp=  4,
 ecutwfc=60.0,
 ecutrho=600.0,
 xdm=.true.,
 xdm_a1=0.4073,
 xdm_a2=2.4150,
/
&electrons
 conv_thr = 1d-8,
/
&ions
/
&cell
/
ATOMIC_SPECIES
h      1.007940 h.UPF
c     12.010700 c.UPF
n     14.006700 n.UPF
o     15.999400 o.UPF

ATOMIC_POSITIONS crystal
h     0.22189589     0.89027996     0.81872972
h     0.77810407     0.10972003     0.18127029
h     0.72189588     0.89027996     0.68127029
h     0.22189589     0.60972002     0.81872972
h     0.72189588     0.60972002     0.68127029
h     0.27810409     0.39027997     0.31872972
h     0.77810407     0.39027997     0.18127029
h     0.27810409     0.10972003     0.31872972
c     0.13604939     0.74999999     0.08764359
c     0.86395058     0.25000000     0.91235641
c     0.63604937     0.74999999     0.41235641
c     0.36395059     0.25000000     0.58764359
n     0.05740506     0.74999999     0.97102315
n     0.94259490     0.25000000     0.02897686
n     0.55740505     0.74999999     0.52897686
n     0.44259492     0.25000000     0.47102315
c     0.22594654     0.74999999     0.87861522
c     0.77405343     0.25000000     0.12138478
c     0.72594652     0.74999999     0.62138478
c     0.27405345     0.25000000     0.37861522
c     0.42799498     0.74999999     0.95779080
c     0.57200498     0.25000000     0.04220920
c     0.92799497     0.74999999     0.54220920
c     0.07200500     0.25000000     0.45779080
n     0.36184419     0.74999999     0.07840225
n     0.63815577     0.25000000     0.92159775
n     0.86184417     0.74999999     0.42159775
n     0.13815579     0.25000000     0.57840225
o     0.03364714     0.74999999     0.18571685
o     0.96635282     0.25000000     0.81428315
o     0.53364712     0.74999999     0.31428315
o     0.46635284     0.25000000     0.68571685
o     0.61390309     0.74999999     0.91899291
o     0.38609688     0.25000000     0.08100710
o     0.11390307     0.74999999     0.58100710
o     0.88609689     0.25000000     0.41899291
h     0.89512528     0.74999999     0.95408602
h     0.10487469     0.25000000     0.04591399
h     0.39512526     0.74999999     0.54591399
h     0.60487471     0.25000000     0.45408602
h     0.45747511     0.74999999     0.15658123
h     0.54252485     0.25000000     0.84341877
h     0.95747510     0.74999999     0.34341877
h     0.04252487     0.25000000     0.65658123

K_POINTS automatic
2 2 2 1 1 1

CELL_PARAMETERS cubic
   11.765983000000     0.000000000000     0.000000000000
    0.000000000000    11.990170000000     0.000000000000
    0.000000000000     0.000000000000    20.348805000000
