&control
 title='crystal',
 prefix='crystal',
 pseudo_dir='.',
 calculation='vc-relax',
/
&system
 ibrav=0,
 celldm(1)=1.0,
 nat=    56,
 ntyp=  5,
 ecutwfc=60.0,
 ecutrho=600.0,
 xdm=.true.,
 xdm_a1=0.4073,
 xdm_a2=2.4150,
/
&electrons
 conv_thr = 1d-8,
/
&ions
/
&cell
/
ATOMIC_SPECIES
h      1.007940 h.UPF
c     12.010700 c.UPF
n     14.006700 n.UPF
o     15.999400 o.UPF
s     32.065000 s.UPF

ATOMIC_POSITIONS crystal
c     0.49905763     0.61357643     0.16274105
c     0.50094237     0.38642354     0.83725894
c     0.00094753     0.11357321     0.83726216
c     0.99905248     0.88642677     0.16273783
c     0.61100171     0.60831616     0.30032005
c     0.38899829     0.39168381     0.69967994
c     0.88899708     0.10831883     0.69968127
c     0.11100292     0.89168115     0.30031872
c     0.74782194     0.39842061     0.34372544
c     0.25217806     0.60157937     0.65627455
c     0.75217880     0.89842484     0.65627765
c     0.24782120     0.10157514     0.34372234
h     0.39618959     0.74976181     0.13604822
h     0.60381041     0.25023817     0.86395177
h     0.10381365     0.24976039     0.86395532
h     0.89618635     0.75023959     0.13604467
h     0.56675731     0.69498742     0.12380700
h     0.43324269     0.30501255     0.87619299
h     0.93324666     0.19498248     0.87619674
h     0.06675334     0.80501750     0.12380325
h     0.66548069     0.81158628     0.32909226
h     0.33451931     0.18841370     0.67090773
h     0.83452300     0.31158400     0.67091315
h     0.16547701     0.68841598     0.32908684
h     0.59743529     0.58767427     0.45403164
h     0.40256471     0.41232571     0.54596835
h     0.90256001     0.08767640     0.54596581
h     0.09743999     0.91232358     0.45403418
h     0.46297336     0.37113696     0.34299266
h     0.53702664     0.62886302     0.65700733
h     0.03702579     0.87114218     0.65700665
h     0.96297421     0.12885780     0.34299334
h     0.43181226     0.72005529     0.33316551
h     0.56818774     0.27994469     0.66683448
h     0.06818421     0.22005405     0.66683391
h     0.93181580     0.77994593     0.33316608
h     0.33528664     0.22108038     0.13831084
h     0.66471336     0.77891960     0.86168915
h     0.16471971     0.72108387     0.86168967
h     0.83528030     0.27891611     0.13831033
o     0.84838117     0.44108138     0.31070595
o     0.15161884     0.55891860     0.68929404
o     0.65162039     0.94108388     0.68929558
o     0.34837961     0.05891610     0.31070441
o     0.75028613     0.20164695     0.40639695
o     0.24971388     0.79835303     0.59360304
o     0.74971374     0.70164488     0.59360356
o     0.25028626     0.29835510     0.40639643
n     0.51764834     0.56409296     0.36031865
n     0.48235167     0.43590702     0.63968134
n     0.98236222     0.06409444     0.63968937
n     0.01763779     0.93590554     0.36031062
s     0.42305277     0.28657603     0.08853954
s     0.57694724     0.71342395     0.91146045
s     0.07695196     0.78657317     0.91146101
s     0.92304804     0.21342681     0.08853898

K_POINTS automatic
2 2 2 1 1 1

CELL_PARAMETERS cubic
   18.320862000000    -0.000018000000     0.062618000000
   -0.000015000000     9.300840000000    -0.000025000000
  -13.050776000000    -0.000052000000    20.818698000000
