&control
 title='crystal',
 prefix='crystal',
 pseudo_dir='.',
 calculation='vc-relax',
/
&system
 ibrav=0,
 celldm(1)=1.0,
 nat=    72,
 ntyp=  3,
 ecutwfc=60.0,
 ecutrho=600.0,
 xdm=.true.,
 xdm_a1=0.4073,
 xdm_a2=2.4150,
/
&electrons
 conv_thr = 1d-8,
/
&ions
/
&cell
/
ATOMIC_SPECIES
h      1.007940 h.UPF
c     12.010700 c.UPF
o     15.999400 o.UPF

ATOMIC_POSITIONS crystal
o     0.38088547     0.91530907     0.55103860
o     0.88088549     0.58469095     0.44896140
o     0.61911458     0.41530907     0.94896140
o     0.11911456     0.08469094     0.05103860
c     0.12856188     0.92286231     0.49127956
c     0.62856190     0.57713770     0.50872044
c     0.87143817     0.42286231     0.00872044
c     0.37143814     0.07713770     0.99127956
h     0.13648234     0.86204330     0.42519195
h     0.63648236     0.63795671     0.57480805
h     0.86351771     0.36204330     0.07480805
h     0.36351769     0.13795671     0.92519195
c     0.98738858     0.06719890     0.49578671
c     0.48738860     0.43280112     0.50421329
c     0.01261147     0.56719889     0.00421329
c     0.51261144     0.93280111     0.99578671
h     0.78435877     0.06381943     0.45817419
h     0.28435880     0.43618058     0.54182581
h     0.21564127     0.56381943     0.04182581
h     0.71564125     0.93618058     0.95817419
h     0.11316638     0.15245624     0.46309279
h     0.61316641     0.34754378     0.53690721
h     0.88683366     0.65245624     0.03690721
h     0.38683364     0.84754377     0.96309279
c     0.93660030     0.09440142     0.60209902
c     0.43660032     0.40559859     0.39790098
c     0.06339974     0.59440142     0.89790098
c     0.56339972     0.90559859     0.10209902
h     0.73716827     0.14926983     0.61604464
h     0.23716830     0.35073018     0.38395536
h     0.26283177     0.64926983     0.88395536
h     0.76283175     0.85073018     0.11604464
o     0.15940835     0.18576764     0.64259674
o     0.65940837     0.31423238     0.35740326
o     0.84059169     0.68576763     0.85740326
o     0.34059167     0.81423237     0.14259674
c     0.27458035     0.12560293     0.72143701
c     0.77458038     0.37439708     0.27856299
c     0.72541969     0.62560293     0.77856299
c     0.22541967     0.87439708     0.22143701
c     0.13058459     0.98603062     0.74495667
c     0.63058461     0.51396940     0.25504333
c     0.86941546     0.48603061     0.75504333
c     0.36941543     0.01396940     0.24495667
h     0.99046762     0.00439304     0.80619449
h     0.49046764     0.49560697     0.19380551
h     0.00953242     0.50439304     0.69380551
h     0.50953240     0.99560697     0.30619449
h     0.28623826     0.90484835     0.76528528
h     0.78623828     0.59515166     0.23471472
h     0.71376178     0.40484835     0.73471472
h     0.21376176     0.09515166     0.26528528
c     0.96315098     0.94954080     0.65513415
c     0.46315100     0.55045922     0.34486585
c     0.03684906     0.44954079     0.84486585
c     0.53684904     0.05045921     0.15513415
h     0.75562786     0.90376055     0.67066482
h     0.25562788     0.59623947     0.32933518
h     0.24437219     0.40376055     0.82933518
h     0.74437217     0.09623946     0.17066482
c     0.11628343     0.85401663     0.58506171
c     0.61628345     0.64598339     0.41493829
c     0.88371662     0.35401662     0.91493829
c     0.38371660     0.14598339     0.08506171
h     0.11999487     0.73851478     0.59421448
h     0.61999489     0.76148524     0.40578552
h     0.88000517     0.23851477     0.90578552
h     0.38000515     0.26148523     0.09421448
o     0.46780566     0.18421480     0.76414596
o     0.96780568     0.31578522     0.23585404
o     0.53219439     0.68421479     0.73585404
o     0.03219436     0.81578521     0.26414596

K_POINTS automatic
2 2 2 1 1 1

CELL_PARAMETERS cubic
    8.939888000000     0.000000000000     0.000000000000
    0.000000000000    17.676741000000     0.000000000000
    0.000000000000     0.000000000000    26.526399000000
