%nprocs=4
%mem=4GB
#p pbepbe aug-cc-pvtz output=wfx scf=(conver=6) int=(grid=ultrafine)

title

0 1
c 0.804433033442514 0.293025356298769 -1.122437131142377
c -0.353603243386161 -0.690670090354983 -0.769530094299802
c -0.353603243386161 -0.690670090354983 0.769530094299802
c 0.804433033442514 0.293025356298769 1.122437131142377
c 2.064048377104688 -0.409671464320120 -0.666124929220723
c 2.064048377104688 -0.409671464320120 0.666124929220723
c 0.652428772053257 1.328247161137240 0.000000000000000
c -1.719654493276023 -0.168113606121403 -1.165953360386166
c -1.719654493276023 -0.168113606121403 1.165953360386166
n -2.420657660415330 0.082005483040419 0.000000000000000
o -2.144109735611141 0.014764741136179 2.275333061422096
o -2.144109735611141 0.014764741136179 -2.275333061422096
h -3.357474556570267 0.458856143187984 0.000000000000000
h 0.778193734924621 0.647150029457526 -2.150908403575436
h -0.206859823526363 -1.666495847578600 -1.233172046585139
h -0.206859823526363 -1.666495847578600 1.233172046585139
h 0.778193734924621 0.647150029457526 2.150908403575436
h 2.764870285277815 -0.908364904866491 -1.323161012654214
h 2.764870285277815 -0.908364904866491 1.323161012654214
h -0.309346015847861 1.847850371617141 0.000000000000000
h 1.460413190880304 2.059792413715444 0.000000000000000

P10X.wfx

