&control
 title='crystal',
 prefix='crystal',
 pseudo_dir='../..',
 forc_conv_thr=1.0D-4,
 etot_conv_thr=1.0D-5,
/
&system
 ibrav=0,
 nat=    24,
 ntyp=  3,
 ecutwfc=80.0,
 ecutrho=800.0,
 vdw_corr='xdm',
 nosym=.true.,
/
&electrons
 conv_thr = 1d-10,
/
&ions
/
&cell
 press_conv_thr=0.01,
/
ATOMIC_SPECIES
C    12.010700 c.UPF
O    15.999400 o.UPF
H     1.007940 h.UPF

ATOMIC_POSITIONS crystal
C             0.9271912733        0.4509021026        0.7382270791
C             0.9271915427        0.5490978510        0.2382270931
C             0.1742998659        0.3665430545        0.8771920443
C             0.1742999797        0.6334565926        0.3771920775
C             0.2397962375        0.1926949884        0.9169113215
C             0.2397965962        0.8073048915        0.4169115812
C             0.0790667765        0.0307658004        0.8291709985
C             0.0790661287        0.9692337708        0.3291707055
O             0.7370739108        0.3529901647        0.6227294657
O             0.7370741365        0.6470094301        0.1227295097
O             0.8972810879        0.6171651041        0.7300028186
O             0.8972813706        0.3828345409        0.2300027705
O             0.2084762801        0.8804817903        0.8988697283
O             0.2084765890        0.1195182546        0.3988699477
O             0.8440327665        0.0336548467        0.7022568424
O             0.8440335970        0.9663448792        0.2022573993
H             0.7727361612        0.2155197957        0.6470828160
H             0.7727360286        0.7844800011        0.1470827995
H             0.3246414211        0.4659372500        0.9586984152
H             0.3246417347        0.5340624224        0.4586985666
H             0.4367139886        0.1644158712        0.0270238102
H             0.4367138910        0.8355840444        0.5270238496
H             0.0896239033        0.7707565987        0.8348482541
H             0.0896240024        0.2292432043        0.3348482656

K_POINTS automatic
7 4 3  1 1 1

CELL_PARAMETERS bohr
   6.914423709   0.000000607   0.000650966
   0.000001226  14.055843142  -0.000000788
  -3.193280181  -0.000001173  15.898141109
