&control
 title='crystal',
 prefix='crystal',
 pseudo_dir='../..',
 forc_conv_thr=1.0D-4,
 etot_conv_thr=1.0D-5,
/
&system
 ibrav=0,
 nat=    20,
 ntyp=  3,
 ecutwfc=80.0,
 ecutrho=800.0,
 vdw_corr='xdm',
 nosym=.true.,
/
&electrons
 conv_thr = 1d-10,
/
&ions
/
&cell
 press_conv_thr=0.01,
/
ATOMIC_SPECIES
C    12.010700 c.UPF
N    14.006700 n.UPF
H     1.007940 h.UPF

ATOMIC_POSITIONS crystal
C             0.0745594265        0.1306856205        0.1825411741
C             0.4254402481        0.3693140000        0.6825408655
C             0.0758293975        0.8695680658        0.8196931853
C             0.4241701219        0.6304312875        0.3196932216
C             0.9254355418        0.8694547715        0.8174543560
C             0.5745642350        0.6305456906        0.3174536234
C             0.9241686853        0.1305751607        0.1803050559
C             0.5758311586        0.3694253300        0.6803047777
N             0.1512053773        0.0001871948        0.0022777185
N             0.3487944323        0.4998124498        0.5022768563
N             0.8487908965        0.9999451414        0.9977258102
N             0.6512087965        0.5000549625        0.4977260664
H             0.1356111946        0.2402228749        0.3306649850
H             0.3643886772        0.2597766460        0.8306646447
H             0.1378815828        0.7600728364        0.6734315420
H             0.3621179438        0.7399265885        0.1734312709
H             0.8643796143        0.7599227132        0.6693312904
H             0.6356198682        0.7400774458        0.1693312905
H             0.8621334181        0.2400858570        0.3265840323
H             0.6378665837        0.2599151435        0.8265838733

K_POINTS automatic
3 7 5  1 1 1

CELL_PARAMETERS bohr
  17.530720100   0.143308434   0.000000162
  -0.113136375   6.948755882  -0.000001438
   0.000001640   0.000001429  10.777431137
