&control
 title='crystal',
 prefix='crystal',
 pseudo_dir='../..',
 forc_conv_thr=1.0D-4,
 etot_conv_thr=1.0D-5,
/
&system
 ibrav=0,
 nat=    24,
 ntyp=  3,
 ecutwfc=80.0,
 ecutrho=800.0,
 vdw_corr='xdm',
 nosym=.true.,
/
&electrons
 conv_thr = 1d-10,
/
&ions
/
&cell
 press_conv_thr=0.01,
/
ATOMIC_SPECIES
N    14.006700 n.UPF
C    12.010700 c.UPF
H     1.007940 h.UPF

ATOMIC_POSITIONS crystal
N             0.8540500425        0.3641402185        0.2123370923
N             0.1459502952        0.8641404168        0.2876632667
N             0.1458984769        0.6359220675        0.7876647790
N             0.8541021438        0.1359220853        0.7123356042
C             0.5494165141        0.4300567858        0.1204607772
C             0.4505839156        0.9300568814        0.3795395324
C             0.4505264957        0.5699987012        0.8795275658
C             0.5494740293        0.0699987948        0.6204727607
H             0.8825644353        0.2975569564        0.0514733952
H             0.1174360148        0.7975570421        0.4485269973
H             0.9909479262        0.4790291086        0.2640644383
H             0.0090526158        0.9790293017        0.2359362190
H             0.5199322955        0.4973345618        0.2946626669
H             0.4800680274        0.9973347295        0.2053376294
H             0.4028158983        0.3062198231        0.0625011506
H             0.5971843744        0.8062198917        0.4374989180
H             0.1173940448        0.7025003443        0.9485383226
H             0.8826066017        0.2025002928        0.5514619141
H             0.0089960534        0.5210355183        0.7359250425
H             0.9910043719        0.0210356146        0.7640754096
H             0.4799827541        0.5027045317        0.7053229182
H             0.5200178518        0.0027045863        0.7946774525
H             0.5971347211        0.6938330097        0.9374557263
H             0.4028658504        0.1938330660        0.5625447117

K_POINTS automatic
6 4 5  1 1 1

CELL_PARAMETERS bohr
   9.391238514   0.000000078   0.019287425
   0.000000114  13.329595591  -0.000000706
  -4.037574192  -0.000000546   9.200652000
