&control
 title='crystal',
 prefix='crystal',
 pseudo_dir='.',
 calculation='vc-relax',
/
&system
 ibrav=0,
 celldm(1)=1.0,
 nat=    88,
 ntyp=  4,
 ecutwfc=60.0,
 ecutrho=600.0,
 xdm=.true.,
 xdm_a1=0.4073,
 xdm_a2=2.4150,
/
&electrons
 conv_thr = 1d-8,
/
&ions
/
&cell
/
ATOMIC_SPECIES
h      1.007940 h.UPF
c     12.010700 c.UPF
n     14.006700 n.UPF
o     15.999400 o.UPF

ATOMIC_POSITIONS crystal
o     0.33466561     0.37968332     0.26123349
o     0.16533451     0.62031656     0.76123352
o     0.83469196     0.12029484     0.73877217
o     0.66530815     0.87970505     0.23877221
o     0.32062218     0.02807990     0.39671345
o     0.17937794     0.97191999     0.89671348
o     0.82063308     0.47189614     0.60328318
o     0.67936704     0.52810374     0.10328321
o     0.20604175     0.77047026     0.22842513
o     0.29395837     0.22952963     0.72842516
o     0.70606003     0.72950522     0.77158201
o     0.79394009     0.27049467     0.27158205
o     0.18948491     0.18753017     0.08625259
o     0.31051521     0.81246972     0.58625262
o     0.68950196     0.31245902     0.91374633
o     0.81049816     0.68754087     0.41374636
n     0.25313236     0.53999238     0.42647107
n     0.24686776     0.46000751     0.92647110
n     0.75315422     0.96000457     0.57353158
n     0.74684590     0.03999532     0.07353161
n     0.37259991     0.29211260     0.47212696
n     0.12740021     0.70788729     0.97212700
n     0.87261186     0.20785243     0.52788013
n     0.62738826     0.79214746     0.02788017
c     0.32075024     0.40358866     0.39434146
c     0.17924988     0.59641123     0.89434150
c     0.82076972     0.09638885     0.60565402
c     0.67923039     0.90361104     0.10565406
c     0.42430434     0.16441997     0.38783017
c     0.07569578     0.83557992     0.88783020
c     0.92433282     0.33555882     0.61216544
c     0.57566730     0.66444107     0.11216547
h     0.54193800     0.12192051     0.41424108
h     0.95806212     0.87807938     0.91424112
h     0.04194946     0.37804983     0.58575561
h     0.45805066     0.62195006     0.08575565
c     0.19642421     0.04707564     0.29969276
c     0.30357591     0.95292425     0.79969280
c     0.69643631     0.45290206     0.70030160
c     0.80356381     0.54709783     0.20030164
h     0.10964792     0.13430381     0.33498959
h     0.39035220     0.86569608     0.83498963
h     0.60965890     0.36568007     0.66500656
h     0.89034122     0.63431982     0.16500659
c     0.10834957     0.89417499     0.27718720
c     0.39165055     0.10582490     0.77718724
c     0.60836533     0.60581013     0.72281706
c     0.89163479     0.39418976     0.22281709
h     0.05285807     0.85596397     0.37004658
h     0.44714204     0.14403592     0.87004662
h     0.55287591     0.64403087     0.62995610
h     0.94712421     0.35596902     0.12995614
h     0.01157659     0.91952243     0.20776113
h     0.48842353     0.08047746     0.70776116
h     0.51159187     0.58046440     0.79223858
h     0.98840825     0.41953549     0.29223861
c     0.40513216     0.22545445     0.24481578
c     0.09486796     0.77454544     0.74481582
c     0.90515012     0.27452320     0.75518533
c     0.59485000     0.72547669     0.25518537
h     0.51559193     0.24106932     0.19076396
h     0.98440819     0.75893057     0.69076400
h     0.01561526     0.25891071     0.80923705
h     0.48438486     0.74108918     0.30923709
c     0.28686246     0.11264246     0.18058194
c     0.21313766     0.88735743     0.68058197
c     0.78687706     0.38733587     0.81941544
c     0.71312306     0.61266402     0.31941547
h     0.35341457     0.01555629     0.13504571
h     0.14658555     0.98444360     0.63504574
h     0.85342752     0.48442335     0.86494431
h     0.64657259     0.51557654     0.36494435
h     0.17556042     0.11216135     0.01234034
h     0.32443970     0.88783854     0.51234037
h     0.67556311     0.38784073     0.98765152
h     0.82443701     0.61215916     0.48765156
h     0.26548825     0.58609958     0.51878021
h     0.23451187     0.41390031     0.01878025
h     0.76549805     0.91388628     0.48122509
h     0.73450207     0.08611361     0.98122513
h     0.17577363     0.74475906     0.13402156
h     0.32422649     0.25524083     0.63402159
h     0.67577515     0.75523526     0.86597878
h     0.82422497     0.24476463     0.36597882
h     0.23233931     0.61941504     0.35103965
h     0.26766081     0.38058485     0.85103969
h     0.73236012     0.88055997     0.64896927
h     0.76764000     0.11943992     0.14896931

K_POINTS automatic
2 2 2 1 1 1

CELL_PARAMETERS cubic
   16.005791000000     0.000118000000     0.000000000000
    0.000127000000    16.092295000000     0.000000000000
    0.000000000000    -0.000001000000    19.110757000000
