%nprocs=4
%mem=2GB
#p b3lyp 6-31+G* output=wfx scf=(conver=6) int=(grid=ultrafine)

title

-1 1
  O   -1.521483378  -1.716488413   0.495043660
  H   -1.062363600  -2.447333837   0.942523180
  H   -0.926219885  -0.836209544   0.371590833
  H   -1.946441714  -2.027010922  -0.322361388
  H    0.903675672   2.467176410   1.325997252
  H   -0.099723006   2.936430538  -0.096366528
  H   -0.862302888   2.133097246   1.319191916
  C    0.034133791   2.237858762   0.721250076
  O    0.254770302   0.882033217   0.118485184
  C    1.296331370   0.745603497  -0.659518756
  N    2.197179870   0.568505792  -1.352075686

01.001_oxonium--methylcyanate_150.wfx


