%nprocs=4
%mem=2GB
#p b3lyp 6-31+G* output=wfx scf=(conver=6) int=(grid=ultrafine)

title

-1 1
  N   -1.171055239   0.883129879  -0.190652445
  C   -1.704290407  -0.334625344  -0.191792459
  N   -0.921194994  -1.395663920  -0.039211169
  N   -3.021699643  -0.488814065  -0.345769017
  H   -0.167974861   1.014121178  -0.074331560
  H   -1.747525618   1.697143282  -0.304753574
  H    0.082349306  -1.283235598   0.078306946
  H   -1.301823063  -2.324766949  -0.036922587
  H   -3.630755306   0.300698603  -0.462391235
  H   -3.444135661  -1.399647346  -0.349245911
  H    2.796897969   1.951678502   1.124005790
  H    3.010309818   1.859579870  -0.612199542
  H    3.730018829   0.565176602   0.428582651
  C    2.900759396   1.253718570   0.290135691
  N    1.628060434   0.553795398   0.170820454
  O    1.692855069  -0.646779408   0.242450303

02.005_guanidinium--nitrosomethane_090.wfx


