%nprocs=4
%mem=2GB
#p hf aug-cc-pvdz output=wfx scf=(conver=6) int=(grid=ultrafine)

title

1 0
  C    0.929048510  -1.190929560  -2.140703908
  N   -0.107011514  -0.183477542  -1.775867337
  H   -0.074781141  -0.050508839  -0.743449558
  C    0.174920201   1.146316869  -2.391004161
  C   -1.481661611  -0.660692668  -2.105905192
  H    1.903008141  -0.821162226  -1.835994944
  H    0.912436370  -1.345768733  -3.215695095
  H    0.709461226  -2.123156572  -1.629921265
  H    1.162373180   1.474013966  -2.082295085
  H   -0.571587939   1.854806411  -2.047608933
  H    0.134122355   1.053332250  -3.472476366
  H   -1.658174263  -1.602696327  -1.596782893
  H   -1.561987008  -0.796795659  -3.180574081
  H   -2.198592900   0.079996407  -1.767497333
  H   -1.133704301   1.399631670   2.558539035
  H    1.651166198  -1.240237001   1.409077532
  H    2.005130782  -0.153885860   2.774700521
  H    0.855090470  -1.456910553   2.987157171
  O   -0.269623570   0.347868142   0.708025946
  C    0.123185389   0.181103542   1.852969066
  O   -0.422937361   0.822631184   2.875316208
  C    1.231565062  -0.730051992   2.268638419

02.011_NHk-O__trimethylammonium--aceticacid_090.wfx

