%nprocs=4
%mem=2GB
#p hf aug-cc-pvdz output=wfx scf=(conver=6) int=(grid=ultrafine)

title

1 0
  N   -1.376678580   1.495225042  -1.670772311
  H   -0.661760795   1.276850866  -0.919599616
  H   -0.920645618   1.903098735  -2.486251104
  H   -2.075729519   2.146928368  -1.315885175
  H   -1.830894748   0.621079448  -1.936966169
  H    1.312731796  -0.656188416   2.698347200
  H    1.341737471  -2.208019913   1.780912538
  H    2.549797895  -0.910748557   1.450808866
  C    1.532738985  -1.143763010   1.752886240
  N    0.627841951  -0.542859959   0.733247917
  O    0.710797675   0.680817620   0.561853069
  O   -0.140000749  -1.248150747   0.120019851

02.004_NHk-O__ammonium--nitromethane_125.wfx

