%nprocs=4
%mem=2GB
#p b3lyp 6-31+G* output=wfx scf=(conver=6) int=(grid=ultrafine)

title

-1 1
  N    2.231143973   0.276883603   0.009597670
  H    1.142933021   0.144899817   0.004738936
  H    2.624771614  -0.011497764  -0.884633725
  H    2.650232365  -0.282448762   0.750712995
  H    2.466361632   1.255068860   0.169281120
  H   -0.401568148   2.010946193   0.001731284
  H   -1.596538047   1.048238887  -0.895601424
  H   -1.601933068   1.045081798   0.888871131
  H    0.119451474  -2.041906103  -0.006062211
  H   -1.281721061  -1.409482082  -0.898855838
  H   -1.285020484  -1.414353385   0.885527938
  C   -0.975637562   1.088473072  -0.001407641
  O   -0.043848968  -0.003016753  -0.000590494
  C   -0.669384803  -1.294608386  -0.005212436

02.003_ammonium--dimethylether_080.wfx


