%nprocs=4
%mem=2GB
#p b3lyp 6-31+G* output=wfx scf=(conver=6) int=(grid=ultrafine)

title

-1 1
  N    2.231143973   0.276883603   0.009597670
  H    1.142933021   0.144899817   0.004738936
  H    2.624771614  -0.011497764  -0.884633725
  H    2.650232365  -0.282448762   0.750712995
  H    2.466361632   1.255068860   0.169281120
  H   -2.181741131   1.789071339  -0.006262860
  H   -3.376711030   0.826364033  -0.903595568
  H   -3.382106051   0.823206944   0.880876987
  H   -1.660721509  -2.263780957  -0.014056355
  H   -3.061894044  -1.631356936  -0.906849982
  H   -3.065193467  -1.636228239   0.877533794
  C   -2.755810545   0.866598218  -0.009401785
  O   -1.824021951  -0.224891607  -0.008584638
  C   -2.449557786  -1.516483240  -0.013206580

02.003_ammonium--dimethylether_200.wfx


