%nprocs=4
%mem=2GB
#p b3lyp 6-31+G* output=wfx scf=(conver=6) int=(grid=ultrafine)

title

-1 1
  N    2.231143973   0.276883603   0.009597670
  H    1.142933021   0.144899817   0.004738936
  H    2.624771614  -0.011497764  -0.884633725
  H    2.650232365  -0.282448762   0.750712995
  H    2.466361632   1.255068860   0.169281120
  H   -1.440002388   1.881519195  -0.002931966
  H   -2.634972287   0.918811889  -0.900264674
  H   -2.640367308   0.915654800   0.884207880
  H   -0.918982766  -2.171333101  -0.010725462
  H   -2.320155301  -1.538909080  -0.903519088
  H   -2.323454724  -1.543780383   0.880864688
  C   -2.014071802   0.959046074  -0.006070892
  O   -1.082283208  -0.132443751  -0.005253744
  C   -1.707819043  -1.424035384  -0.009875686

02.003_ammonium--dimethylether_150.wfx


