%nprocs=4
%mem=2GB
#p hf aug-cc-pvdz output=wfx scf=(conver=6) int=(grid=ultrafine)

title

1 0
  C    0.000143402   0.716618420   2.902324524
  C    0.000211565   1.134698481   1.610513358
  N    0.000054914   0.007390289   0.820776427
  H    0.000057187  -0.006175457  -0.220847748
  C   -0.000106124  -1.070701780   1.590383280
  N   -0.000054205  -0.662015785   2.861054136
  H    0.000216886   1.264568788   3.824906052
  H    0.000355036   2.123748309   1.194201101
  H   -0.000252805  -2.090885866   1.254167652
  H   -0.000146573  -1.273936361   3.661761919
  H   -0.001148496  -1.022666321  -6.695885481
  H    0.887304129   0.512429274  -6.670002961
  H   -0.886894938   0.513991543  -6.669871847
  C   -0.000224721  -0.004841240  -6.309761447
  C   -0.000146862  -0.029161887  -4.860706883
  N   -0.000123409  -0.048057717  -3.714581206

03.005_NHk-N__imidazolium--acetonitrile_200.wfx

