%nprocs=4
%mem=2GB
#p b3lyp 6-31+G* output=wfx scf=(conver=6) int=(grid=ultrafine)

title

-1 1
  H    1.429105111  -0.972909454   2.812384370
  H    1.719688967   0.782469952   2.710770060
  H    2.356139420  -0.299809881   1.462633188
  C    1.526890405  -0.123415349   2.138530544
  N    0.313916045   0.028577122   1.297887195
  N   -0.734512467   0.241045304   1.924710467
  N   -1.730834464   0.435849480   2.402230973

03.012_trimethylammonium--methylazide_2.wfx


