%nprocs=4
%mem=2GB
#p b3lyp 6-31+G* output=wfx scf=(conver=6) int=(grid=ultrafine)

title

-1 1
  H    3.833759570  -0.153753478   0.210617001
  H    3.850336270   1.607656228   0.065496148
  H    3.399186563   0.833389018   1.588976882
  H    1.584559297   2.787691259  -0.386756614
  H    2.310354174  -1.817456024   0.916171491
  H    1.872314490  -0.822143144   2.303820830
  H    0.675111923  -1.892010580   1.573402706
  H    2.018146067   1.801510089  -1.761688542
  H    0.371917838   1.708394395  -1.104513885
  C    1.884484412   0.727829871   0.075788059
  N    1.053864060  -0.167842235   0.456279780
  C    1.506825075  -1.225712057   1.357997901
  C    1.422506637   1.811549321  -0.847216939
  C    3.323612871   0.765335854   0.502729527

03.015_guanidinium--Nmethyl2propanimine_2.wfx


