%nprocs=4
%mem=2GB
#p b3lyp 6-31+G* output=wfx scf=(conver=6) int=(grid=ultrafine)

title

-1 1
  H    4.207005654   0.964248791  -0.955092891
  H    4.399528745  -0.389859002   0.174877134
  H    4.163675835   1.255774790   0.794377708
  C    3.891657392   0.557861881   0.004377079
  C    2.457063572   0.352813809   0.003090022
  N    1.321871591   0.190658975   0.002204737

03.007_trimethylammonium--acetonitrile_2.wfx


