%nprocs=4
%mem=2GB
#p b3lyp 6-31+G* output=wfx scf=(conver=6) int=(grid=ultrafine)

title

-1 1
  H   -1.155991984   2.496429278   0.900143993
  H   -0.059062243   3.589107808   0.000000000
  H   -1.155991984   2.496429278  -0.900143993
  C   -0.566468541   2.634032503   0.000000000
  O    0.532600407   1.639986696   0.000000000
  C    0.239468919   0.417855872   0.000000000
  N    0.033668568  -0.717961690   0.000000000

03.002_ammonium--methylcyanate_2.wfx


