%nprocs=4
%mem=2GB
#p b3lyp 6-31+G* output=wfx scf=(conver=6) int=(grid=ultrafine)

title

-1 1
  N   -2.132812305   0.442491127  -0.199753587
  C   -2.402596161  -0.803755983   0.169873633
  N   -1.396226795  -1.620635958   0.457018582
  N   -3.666282178  -1.228156300   0.253930360
  H   -1.162902778   0.731089719  -0.261802695
  H   -2.861106695   1.091311128  -0.434284223
  H   -0.448347621  -1.270398784   0.375023274
  H   -1.553146251  -2.571480807   0.735681802
  H   -4.436157561  -0.619843315   0.042159745
  H   -3.883720033  -2.167646522   0.532638697
  H    3.487390539   2.455573485   0.672294012
  H    4.066193205   0.833680802   1.188566426
  H    4.889463169   1.699654529  -0.144132459
  C    3.948592484   1.524355686   0.359982794
  O    3.094732298   0.892918446  -0.666457241
  C    1.917156852   0.575199624  -0.343428078
  N    0.829533516   0.262835337  -0.104465645

03.014_guanidinium--methylcyanate_100.wfx


