%nprocs=4
%mem=2GB
#p hf aug-cc-pvdz output=wfx scf=(conver=6) int=(grid=ultrafine)

title

0 1
  N   -0.000030746   2.442408530   0.000009941
  H   -0.468013888   2.831866918  -0.811926306
  H   -0.469199550   2.831862021   0.811263730
  H    0.937117504   2.831867982   0.000695298

03.008_NHk-N__trimethylammonium--ammonia_2.wfx

