%nprocs=4
%mem=2GB
#p hf aug-cc-pvdz output=wfx scf=(conver=6) int=(grid=ultrafine)

title

1 0
  C    0.615256892  -1.265111477  -1.127409964
  N   -0.140093353  -0.014010270  -0.846250376
  H   -0.283535471   0.040229106   0.221072799
  C    0.628953413   1.194152256  -1.250641255
  C   -1.491219251  -0.037814690  -1.469996266
  H    1.574508468  -1.220384144  -0.621230163
  H    0.769136422  -1.362948454  -2.198734517
  H    0.044713750  -2.112566483  -0.759859720
  H    1.585877873   1.192251652  -0.738021950
  H    0.065833919   2.080481439  -0.974770208
  H    0.787955796   1.179971009  -2.325579647
  H   -2.032423135  -0.906768614  -1.108422847
  H   -1.390468181  -0.090801255  -2.550709957
  H   -2.023930177   0.867198382  -1.194455614
  N   -0.440771063   0.114677115   1.825771611
  H   -1.060835502  -0.614764025   2.160879409
  H   -0.878437744   0.987002486   2.102099608
  C    0.876805380  -0.010880369   2.490362792
  H    1.530101871   0.788220881   2.147335529
  H    0.811199547   0.041074980   3.576211383
  H    1.327054874  -0.962883111   2.218693005

03.011_NHk-N__trimethylammonium--methylamine_095.wfx

