%nprocs=4
%mem=2GB
#p b3lyp 6-31+G* output=wfx scf=(conver=6) int=(grid=ultrafine)

title

-1 1
  N    0.000001655   0.000001458   2.921046025
  H    0.000001416   0.000000806   1.835940144
  H    0.958437807   0.000001146   3.267461025
  H   -0.479215840  -0.830028562   3.267461882
  H   -0.479215984   0.830031278   3.267461868
  H   -1.027331045  -0.000000178  -2.675774809
  H    0.513662915   0.889693168  -2.675775755
  H    0.513662979  -0.889693504  -2.675776305
  C    0.000000272  -0.000000522   0.255376856
  N   -0.000000470  -0.000000606  -0.896181269
  C   -0.000001410  -0.000000316  -2.321091763

04.001_ammonium--methylisocyanide_090.wfx


