%nprocs=4
%mem=2GB
#p hf aug-cc-pvdz output=wfx scf=(conver=6) int=(grid=ultrafine)

title

1 0
  N    0.000001655   0.000001458   2.921046025
  H    0.000001416   0.000000806   1.835940144
  H    0.958437807   0.000001146   3.267461025
  H   -0.479215840  -0.830028562   3.267461882
  H   -0.479215984   0.830031278   3.267461868
  H   -1.027330918  -0.000000030  -2.500156666
  H    0.513663042   0.889693315  -2.500157612
  H    0.513663106  -0.889693357  -2.500158162
  C    0.000000399  -0.000000374   0.430994999
  N   -0.000000343  -0.000000459  -0.720563126
  C   -0.000001283  -0.000000169  -2.145473620

04.001_NHk-C__ammonium--methylisocyanide_080.wfx

