%nprocs=4
%mem=2GB
#p b3lyp 6-31+G* output=wfx scf=(conver=6) int=(grid=ultrafine)

title

-1 1
  O   -1.491537052   1.456932722  -1.005297628
  H   -1.152166816   0.809683119  -0.344795821
  C   -0.770448190   1.264818571  -2.198308915
  H   -0.928405570   2.136399682  -2.839956168
  H    0.299665214   1.148821814  -2.010776683
  H   -1.110358605   0.377151783  -2.751892538
  N    0.616859944  -0.757481621   0.872944707
  O   -0.621629131  -0.477280158   0.866202906
  O    1.377869982  -0.205089888   0.048731218
  O    1.053358195  -1.579609885   1.699627159

05.006_methanol--nitrate_105.wfx


