%nprocs=4
%mem=2GB
#p b3lyp 6-31+G* output=wfx scf=(conver=6) int=(grid=ultrafine)

title

-1 1
  O    0.139006368   0.942014028   0.786271343
  H   -0.692705568   1.414923079   0.702832688

05.012_water--hydroxide_2.wfx


