%nprocs=4
%mem=2GB
#p b3lyp 6-31+G* output=wfx scf=(conver=6) int=(grid=ultrafine)

title

-1 1
  N    0.066115294   0.593487048   0.561515220
  O   -0.275554437  -0.616008134   0.379462018
  O    0.484336147   1.266689159  -0.402196248
  O   -0.023000248   1.087219276   1.703399596

05.013_water--nitrate_2.wfx


