%nprocs=4
%mem=2GB
#p hf aug-cc-pvdz output=wfx scf=(conver=6) int=(grid=ultrafine)

title

-1 0
  O   -0.078719960  -0.924127744  -0.811003191
  H    0.031689558  -0.043993800  -0.081842430
  H   -0.295773036  -1.654797588  -0.228477884
  O    0.192664773   1.435017942   1.220328230
  H   -0.639047163   1.907926993   1.136889574

05.012_OH-Oa__water--hydroxide_150.wfx

