%nprocs=4
%mem=2GB
#p hf aug-cc-pvdz output=wfx scf=(conver=6) int=(grid=ultrafine)

title

-1 0
  O   -0.204298186  -0.737785523   2.213977699
  H   -0.297980176  -0.785684740   1.223370934
  C    0.712295334   0.292530547   2.494426147
  H    1.722757814  -0.100618557   2.690881627
  H    0.780442301   0.999498096   1.663753855
  H    0.393939328   0.832336685   3.394752649
  C   -0.362734785  -0.058930565  -3.085579726
  C   -0.143532916   0.134924434  -1.567221387
  O   -0.451711537  -0.866979859  -0.860943222
  O    0.304404769   1.232048114  -1.184844125
  H   -1.417106688  -0.267516977  -3.276626843
  H    0.203173397  -0.926481352  -3.429656715
  H   -0.058487236   0.823754347  -3.645825898

05.004_OH-Oa__methanol--acetate_125.wfx

