%nprocs=4
%mem=2GB
#p b3lyp 6-31+G* output=wfx scf=(conver=6) int=(grid=ultrafine)

title

-1 1
  O    0.181818524  -2.064298258  -1.296939607
  H    0.261754568  -1.094953727  -1.068107513
  H   -0.228779188  -2.417819200  -0.505331155
  N   -0.221067695   0.155055700   0.574830090
  O    0.299720331   0.256792327  -0.580264571
  O   -0.309343576   1.207171346   1.225549353

05.014_water--nitrite_085.wfx


