%nprocs=4
%mem=2GB
#p hf aug-cc-pvdz output=wfx scf=(conver=6) int=(grid=ultrafine)

title

-2 0
  O   -0.545165845  -2.952028234  -1.200939738
  H   -0.454201379  -2.059658579  -1.607994472
  H   -0.407250553  -2.604918400  -0.289487970
  C   -0.084966978  -0.459985903  -0.187095253
  O   -0.220427027  -0.563130420  -1.443041097
  O   -0.146332554  -1.422254954   0.635483316
  C    0.178341037   0.965457138   0.392730450
  O   -0.838464381   1.638052599   0.708571381
  O    1.384019446   1.315259285   0.492761262

05.001_OH-Oa__water--oxalate_080.wfx

