%nprocs=4
%mem=2GB
#p hf aug-cc-pvdz output=wfx scf=(conver=6) int=(grid=ultrafine)

title

-1 0
  O   -0.200102966  -1.998204668  -1.994996425
  H   -0.150044238  -1.339152027  -1.263629579
  H   -0.541292159  -2.775745672  -1.549597553
  N    0.003360195   0.955058994   1.383061018
  O   -0.338309536  -0.254436188   1.201007816
  O    0.421581048   1.628261106   0.419349550
  O   -0.085755348   1.448791222   2.524945394

05.013_OH-Oa__water--nitrate_150.wfx

