%nprocs=4
%mem=2GB
#p hf aug-cc-pvdz output=wfx scf=(conver=6) int=(grid=ultrafine)

title

-1 0
  O    0.181818524  -2.064298258  -1.296939607
  H    0.261754568  -1.094953727  -1.068107513
  H   -0.228779188  -2.417819200  -0.505331155
  N   -0.223300976   0.075541226   0.546133446
  O    0.297487050   0.177277853  -0.608961215
  O   -0.311576857   1.127656872   1.196852709

05.014_OH-Oa__water--nitrite_080.wfx

