%nprocs=4
%mem=2GB
#p hf aug-cc-pvdz output=wfx scf=(conver=6) int=(grid=ultrafine)

title

-1 1
  N   -3.319429426   0.797172354   1.021503747
  O   -2.063389237   0.883839386   0.800851747
  O   -3.856025635  -0.258815392   0.679897950

05.011_OH-Oa__phenol--nitrite_2.wfx

