%nprocs=4
%mem=2GB
#p b3lyp 6-31+G* output=wfx scf=(conver=6) int=(grid=ultrafine)

title

-1 1
  N   -0.214367855   0.393599121   0.660920021
  O    0.306420171   0.495335748  -0.494174640
  O   -0.302643736   1.445714767   1.311639284

05.014_water--nitrite_2.wfx


