%nprocs=4
%mem=2GB
#p b3lyp 6-31+G* output=wfx scf=(conver=6) int=(grid=ultrafine)

title

0 1
  O   -0.030801125  -4.272717386  -0.333300151
  H    0.206600629  -3.575589241  -0.968955817
  H   -0.256967559  -3.680692143   0.404703233

05.015_water--benzoate_1.wfx


