%nprocs=4
%mem=2GB
#p hf aug-cc-pvdz output=wfx scf=(conver=6) int=(grid=ultrafine)

title

0 1
  H    2.965251329  -2.553508326  -1.124936834
  H    5.988583992   0.433071985  -1.762080928
  H    5.240376151  -1.931117228  -1.878237027
  H    2.156060742   1.517171193  -0.129791297
  H    0.637453031  -0.157588138   0.135262200
  H    4.430084419   2.151807506  -0.882871244
  C    4.996197933   0.155930039  -1.434220373
  C    4.572799890  -1.168132044  -1.497789697
  C    3.300143398  -1.526368237  -1.078488503
  C    2.415005096  -0.559735351  -0.581118553
  C    2.841675916   0.776308944  -0.516291630
  C    4.117496249   1.116829904  -0.940109371
  O    1.199953254  -0.947573751  -0.186679980

05.009_OH-Oa__phenol--benzoate_1.wfx

