%nprocs=4
%mem=2GB
#p hf aug-cc-pvdz output=wfx scf=(conver=6) int=(grid=ultrafine)

title

-1 0
  O   -0.078719960  -0.924127744  -0.811003191
  H    0.031689558  -0.043993800  -0.081842430
  H   -0.295773036  -1.654797588  -0.228477884
  O    0.246323178   1.928021856   1.654385116
  H   -0.585388758   2.400930907   1.570946461

05.012_OH-Oa__water--hydroxide_200.wfx

