%nprocs=4
%mem=2GB
#p b3lyp 6-31+G* output=wfx scf=(conver=6) int=(grid=ultrafine)

title

-1 1
  O   -0.200102966  -1.998204668  -1.994996425
  H   -0.150044238  -1.339152027  -1.263629579
  H   -0.541292159  -2.775745672  -1.549597553
  N    0.084941824   0.485015464   0.315051480
  O   -0.256727907  -0.724479718   0.132998278
  O    0.503162677   1.158217575  -0.648659988
  O   -0.004173718   0.978747692   1.456935856

05.013_water--nitrate_085.wfx


