%nprocs=4
%mem=2GB
#p b3lyp 6-31+G* output=wfx scf=(conver=6) int=(grid=ultrafine)

title

-1 1
  O    0.181818524  -2.064298258  -1.296939607
  H    0.261754568  -1.094953727  -1.068107513
  H   -0.228779188  -2.417819200  -0.505331155
  N   -0.169702252   1.983888596   1.234852894
  O    0.351085774   2.085625223   0.079758233
  O   -0.257978133   3.036004242   1.885572157

05.014_water--nitrite_200.wfx


