%nprocs=4
%mem=2GB
#p hf aug-cc-pvdz output=wfx scf=(conver=6) int=(grid=ultrafine)

title

-1 1
  N    0.591596245  -0.696197655   0.815278101
  O   -0.646892830  -0.415996192   0.808536300
  O    1.352606283  -0.143805922  -0.008935388
  O    1.028094496  -1.518325919   1.641960553

05.006_OH-Oa__methanol--nitrate_2.wfx

