%nprocs=4
%mem=2GB
#p hf aug-cc-pvdz output=wfx scf=(conver=6) int=(grid=ultrafine)

title

-1 0
  O   -0.200102966  -1.998204668  -1.994996425
  H   -0.150044238  -1.339152027  -1.263629579
  H   -0.541292159  -2.775745672  -1.549597553
  N    0.091217334   0.448858269   0.232896901
  O   -0.250452397  -0.760636913   0.050843699
  O    0.509438187   1.122060380  -0.730814567
  O    0.002101792   0.942590497   1.374781277

05.013_OH-Oa__water--nitrate_080.wfx

