%nprocs=4
%mem=2GB
#p hf aug-cc-pvdz output=wfx scf=(conver=6) int=(grid=ultrafine)

title

-2 1
  C   -0.021227622  -0.114781559  -0.046662323
  O   -0.156687671  -0.217926076  -1.302608167
  O   -0.082593198  -1.077050610   0.775916246
  C    0.242080393   1.310661482   0.533163380
  O   -0.774725025   1.983256943   0.849004311
  O    1.447758802   1.660463629   0.633194192

05.001_OH-Oa__water--oxalate_2.wfx

