%nprocs=4
%mem=2GB
#p b3lyp 6-31+G* output=wfx scf=(conver=6) int=(grid=ultrafine)

title

-1 1
  O   -0.200102966  -1.998204668  -1.994996425
  H   -0.150044238  -1.339152027  -1.263629579
  H   -0.541292159  -2.775745672  -1.549597553
  N   -0.059394905   1.316630941   2.204606817
  O   -0.401064636   0.107135759   2.022553615
  O    0.358825948   1.989833052   1.240895349
  O   -0.148510447   1.810363169   3.346491193

05.013_water--nitrate_200.wfx


