%nprocs=4
%mem=2GB
#p b3lyp 6-31+G* output=wfx scf=(conver=6) int=(grid=ultrafine)

title

-1 1
  N    0.338304311  -0.929500235   1.453357182
  O    0.398140891   0.324980289   1.295814255
  O   -0.073536903  -1.589945404   0.481541407

05.007_methanol--nitrite_2.wfx


