%nprocs=4
%mem=2GB
#p hf aug-cc-pvdz output=wfx scf=(conver=6) int=(grid=ultrafine)

title

-1 0
  C    1.104710407  -0.400343921  -0.015744828
  O    0.698586684  -1.523372021  -0.250774055
  O    0.381432798   0.675215139   0.148506994
  H   -0.686716691   0.563026453   0.069119192
  C    2.593893917  -0.105478830   0.121727587
  H    3.170886390  -1.014945375  -0.020066651
  H    2.891546464   0.641775758  -0.614122034
  H    2.797463442   0.313521037   1.107368931
  C   -4.044091112   0.869470052  -0.055483077
  N   -2.888989524   0.715032680  -0.021721039

06.001_OH-Na__aceticacid--cyanide_150.wfx

