%nprocs=4
%mem=2GB
#p hf aug-cc-pvdz output=wfx scf=(conver=6) int=(grid=ultrafine)

title

-1 1
  C   -3.609587753   1.062321489   1.649726450
  N   -2.881209838   0.329753867   1.106777389

06.002_OH-Na__phenol--cyanide_2.wfx

