%nprocs=4
%mem=2GB
#p b3lyp 6-31+G* output=wfx scf=(conver=6) int=(grid=ultrafine)

title

-1 1
  O   -0.191375339  -1.365037704  -1.407361054
  H   -0.103609683  -0.590928264  -0.786452397
  H   -0.135943946  -2.113683698  -0.810934482
  C    0.201548894   1.381118471   1.491755754
  N    0.079293437   0.682948839   0.563521339

06.003_water--cyanide_105.wfx


