%nprocs=4
%mem=2GB
#p b3lyp 6-31+G* output=wfx scf=(conver=6) int=(grid=ultrafine)

title

-1 1
  C    0.192839222   1.320457657   1.427471290
  N    0.070583765   0.622288025   0.499236875

06.003_water--cyanide_2.wfx


