%nprocs=4
%mem=2GB
#p b3lyp 6-31+G* output=wfx scf=(conver=6) int=(grid=ultrafine)

title

-1 1
  O    0.220311970  -1.715180308  -1.182816955
  H    0.127239907  -0.834508093  -0.716063691
  H    0.137658852  -2.338231956  -0.458174070
  C   -0.074650273   0.694596054   0.378790432
  N   -0.206743139   1.592263011   1.110970151

07.002_water--cyanide_100.wfx


