%nprocs=4
%mem=2GB
#p hf aug-cc-pvdz output=wfx scf=(conver=6) int=(grid=ultrafine)

title

-1 1
  C   -0.074650273   0.694596054   0.378790432
  N   -0.206743139   1.592263011   1.110970151

07.002_OH-Ca__water--cyanide_2.wfx

