%nprocs=4
%mem=2GB
#p hf aug-cc-pvdz output=wfx scf=(conver=6) int=(grid=ultrafine)

title

-1 0
  O    0.679371003  -1.382309636   0.100133184
  H    0.571468069  -0.383993132   0.078073590
  C   -0.607682953  -1.927592746   0.024192146
  H   -0.539829132  -2.958594595  -0.338375073
  H   -1.116979480  -1.951922504   1.000111086
  H   -1.251750787  -1.366055671  -0.662977985
  C    0.117456791   1.393635224  -0.036491418
  N   -0.187700793   2.515883292  -0.109366222

07.001_OH-Ca__methanol--cyanide_100.wfx

