%nprocs=4
%mem=2GB
#p hf aug-cc-pvdz output=wfx scf=(conver=6) int=(grid=ultrafine)

title

-1 1
  C    0.117456791   1.393635224  -0.036491418
  N   -0.187700793   2.515883292  -0.109366222

07.001_OH-Ca__methanol--cyanide_2.wfx

