%nprocs=4
%mem=2GB
#p b3lyp 6-31+G* output=wfx scf=(conver=6) int=(grid=ultrafine)

title

-1 1
  C    0.117456791   1.393635224  -0.036491418
  N   -0.187700793   2.515883292  -0.109366222

07.001_methanol--cyanide_2.wfx


