%nprocs=4
%mem=2GB
#p hf aug-cc-pvdz output=wfx scf=(conver=6) int=(grid=ultrafine)

title

-1 1
  C    0.254067072  -1.087989404  -0.983557598
  C    0.496151738  -0.548538706   0.454800700
  O    0.117735104   0.637085414   0.650782477
  O    1.028328322  -1.331312510   1.265809242
  H    0.702203755  -0.411986933  -1.714595104
  H   -0.819504429  -1.114235072  -1.184764345
  H    0.666822681  -2.088356504  -1.107104466

08.006_NH-Oa__ammonia--acetate_2.wfx

