%nprocs=4
%mem=2GB
#p hf aug-cc-pvdz output=wfx scf=(conver=6) int=(grid=ultrafine)

title

-1 1
  N    0.690493413  -1.077760493  -1.139912122
  O   -0.287795829  -0.330401967  -1.412081997
  O    0.806774707  -1.429744314   0.055125779

08.015_NH-Oa__methylamine--nitrite_2.wfx

