%nprocs=4
%mem=2GB
#p b3lyp 6-31+G* output=wfx scf=(conver=6) int=(grid=ultrafine)

title

-1 1
  N   -0.957764232   2.208081912  -0.971789512
  H   -0.097926385   1.761728985  -0.541948365
  H   -1.422256081   2.619610307  -0.162614312
  H   -1.438359052   1.305126400  -1.073983644
  C    0.068637137  -0.373994383   0.104434354
  O    0.714593901   0.772169617   0.076858716
  O   -1.088304706  -0.469819811  -0.487812985
  O    0.585339608  -1.385403289   0.715272597

08.001_ammonia--carbonate_080.wfx


