%nprocs=4
%mem=2GB
#p hf aug-cc-pvdz output=wfx scf=(conver=6) int=(grid=ultrafine)

title

-1 1
  C   -1.548665996   2.054002106  -2.838034723
  C   -1.084314638   1.243083970  -1.609998566
  O    0.110669204   0.825492991  -1.670785336
  O   -1.896682097   1.068042606  -0.684417620
  H   -1.461036584   1.439036288  -3.735447397
  H   -0.894342284   2.916659657  -2.975012169
  H   -2.577889236   2.389181602  -2.723395346

08.003_NH-Oa__1Hpyrrole--acetate_2.wfx

