%nprocs=4
%mem=2GB
#p hf aug-cc-pvdz output=wfx scf=(conver=6) int=(grid=ultrafine)

title

-1 0
  N   -0.854266185   0.803187264   2.119850253
  H   -0.991210480   0.258249543   1.265754170
  H   -0.095399362   0.320624167   2.587178661
  C   -0.368012927   2.121626769   1.710757164
  H   -0.109185501   2.718933757   2.589571578
  H    0.501790035   2.081653041   1.045350921
  H   -1.164536295   2.650744310   1.184322100
  N    0.294633814  -0.681699005  -0.861556928
  O   -0.906581933  -0.546445634  -0.494388858
  O    0.552225813  -1.229327945  -1.953895198
  O    1.220238287  -0.264152298  -0.124196191

08.014_NH-Oa__methylamine--nitrate_095.wfx

