%nprocs=4
%mem=2GB
#p hf aug-cc-pvdz output=wfx scf=(conver=6) int=(grid=ultrafine)

title

-1 1
  N   -2.608987139  -2.558221770   0.842648018
  O   -1.421141830  -2.443140155   0.421987248
  O   -3.317783172  -1.535175548   0.768674631

08.009_NH-Oa__aniline--nitrite_2.wfx

