%nprocs=4
%mem=2GB
#p b3lyp 6-31+G* output=wfx scf=(conver=6) int=(grid=ultrafine)

title

-1 1
  N   -1.616937694   2.084062706  -1.212227733
  H   -0.951789432   1.617028760  -0.573061380
  H   -2.501427567   2.106033197  -0.716748279
  H   -1.751591421   1.438566987  -1.982493316
  C    0.147114618  -0.989995069  -1.105941984
  C    0.389199284  -0.450544371   0.332416314
  O    0.010782650   0.735079749   0.528398091
  O    0.921375868  -1.233318175   1.143424856
  H    0.595251301  -0.313992598  -1.836979490
  H   -0.926456883  -1.016240737  -1.307148731
  H    0.559870227  -1.990362169  -1.229488852

08.006_ammonia--acetate_090.wfx


