%nprocs=4
%mem=2GB
#p b3lyp 6-31+G* output=wfx scf=(conver=6) int=(grid=ultrafine)

title

0 1
  N   -0.606951804   1.038348431   2.166071342
  H   -0.533234231   0.252432166   1.507307835
  H   -0.212765513   0.715382143   3.041135380
  C    0.184405151   2.147641202   1.638723376
  H   -0.041109868   3.076200770   2.175083107
  H    1.273061267   1.994357719   1.679254575
  H   -0.067652837   2.275873013   0.587791633

08.012_methylamine--acetate_1.wfx


