%nprocs=4
%mem=2GB
#p b3lyp 6-31+G* output=wfx scf=(conver=6) int=(grid=ultrafine)

title

-1 1
  O   -0.217233595  -1.177363684  -1.781689592
  H   -0.311772415  -2.128797931  -1.680122645

08.011_dimethylamine--hydroxide_2.wfx


