%nprocs=4
%mem=2GB
#p b3lyp 6-31+G* output=wfx scf=(conver=6) int=(grid=ultrafine)

title

-1 1
  H   -1.683987059  -0.701266233   1.912212306
  H    0.247242209  -1.956394114   3.355668755
  H    2.540972236  -1.664110735   1.921942793
  H    1.829295407  -0.241611583  -0.304757192
  N   -0.092597389  -0.297390138   0.562451903
  C   -0.636161976  -0.817438206   1.698034433
  C    0.364092284  -1.448679327   2.412429037
  C    1.562447740  -1.295441620   1.662561745
  C    1.236846103  -0.578426015   0.526877683
  H   -0.600066395   0.237122991  -0.178244393
  N   -1.816730378   2.376464119  -3.469770898
  O   -2.512300305   1.978292205  -2.487181913
  O   -0.608475476   2.083450114  -3.436207322

08.005_1Hpyrrole--nitrite_200.wfx


