%nprocs=4
%mem=2GB
#p hf aug-cc-pvdz output=wfx scf=(conver=6) int=(grid=ultrafine)

title

-1 1
  N    0.299087948  -0.724051383  -0.954196035
  O   -0.902127799  -0.588798012  -0.587027965
  O    0.556679947  -1.271680323  -2.046534305
  O    1.224692421  -0.306504676  -0.216835298

08.014_NH-Oa__methylamine--nitrate_2.wfx

