%nprocs=4
%mem=2GB
#p b3lyp 6-31+G* output=wfx scf=(conver=6) int=(grid=ultrafine)

title

0 1
  N   -1.568832222   4.286467343   0.387366758
  H   -1.193492076   3.569273049  -0.241343928
  H   -1.378923015   3.867019176   1.293387299
  H   -2.576783041   4.242000738   0.277819100

08.007_ammonia--benzoate_1.wfx


