%nprocs=4
%mem=2GB
#p b3lyp 6-31+G* output=wfx scf=(conver=6) int=(grid=ultrafine)

title

-1 1
  N   -1.310918316   3.185548960   0.254764294
  H   -0.969764711   2.646200090  -0.552684681
  H   -0.918223695   2.557446092   0.968522390
  H   -2.306494690   2.974871234   0.276112173
  C    0.284447878  -0.328972262  -0.031129726
  O    0.094921948   0.302533381  -1.112155996
  O    0.183364591   0.154665064   1.134458773
  C    0.671629161  -1.839856121  -0.145970731
  O    1.901848918  -2.105636714  -0.213514544
  O   -0.282757127  -2.663798415  -0.161046713

08.002_ammonia--oxalate_125.wfx


