%nprocs=4
%mem=2GB
#p hf aug-cc-pvdz output=wfx scf=(conver=6) int=(grid=ultrafine)

title

-1 1
  N   -0.860613423   1.505879512  -2.315302138
  O   -1.556183350   1.107707598  -1.332713153
  O    0.347641479   1.212865507  -2.281738562

08.005_NH-Oa__1Hpyrrole--nitrite_2.wfx

