%nprocs=4
%mem=2GB
#p hf aug-cc-pvdz output=wfx scf=(conver=6) int=(grid=ultrafine)

title

-2 0
  N   -0.957764232   2.208081912  -0.971789512
  H   -0.097926385   1.761728985  -0.541948365
  H   -1.422256081   2.619610307  -0.162614312
  H   -1.438359052   1.305126400  -1.073983644
  C    0.271767209  -0.621384225   0.259136124
  O    0.917723973   0.524779775   0.231560486
  O   -0.885174634  -0.717209653  -0.333111215
  O    0.788469680  -1.632793131   0.869974367

08.001_NH-Oa__ammonia--carbonate_100.wfx

