%nprocs=4
%mem=2GB
#p hf aug-cc-pvdz output=wfx scf=(conver=6) int=(grid=ultrafine)

title

-1 1
  C   -1.375264035   2.412532686  -2.631030818
  N   -0.955400006   1.676038295  -1.827660162

09.001_NH-Na__1Hpyrrole--cyanide_2.wfx

