%nprocs=4
%mem=2GB
#p hf aug-cc-pvdz output=wfx scf=(conver=6) int=(grid=ultrafine)

title

-1 1
  C    1.270026605  -1.356332257  -1.711145657
  N    0.326778682  -1.028400995  -1.103429369

09.005_NH-Na__methylamine--cyanide_2.wfx

