%nprocs=4
%mem=2GB
#p hf aug-cc-pvdz output=wfx scf=(conver=6) int=(grid=ultrafine)

title

0 1
  N   -1.043610918   0.386555372   1.163729680
  H   -0.740667234  -0.166071488   0.351452759
  H   -0.769963039  -0.162777701   1.970056154
  C   -0.283092987   1.633039383   1.157198301
  H   -0.523496760   2.233947829   2.039455852
  H    0.806542127   1.501732798   1.117668308
  H   -0.563746445   2.216492118   0.279289536

09.005_NH-Na__methylamine--cyanide_1.wfx

