%nprocs=4
%mem=2GB
#p b3lyp 6-31+G* output=wfx scf=(conver=6) int=(grid=ultrafine)

title

-1 1
  C   -1.375264035   2.412532686  -2.631030818
  N   -0.955400006   1.676038295  -1.827660162

09.001_1Hpyrrole--cyanide_2.wfx


