%nprocs=4
%mem=2GB
#p b3lyp 6-31+G* output=wfx scf=(conver=6) int=(grid=ultrafine)

title

-1 1
  C   -2.326778509  -3.541702884   1.149471233
  N   -2.134646582  -2.461454492   0.747866036

09.003_aniline--cyanide_2.wfx


