%nprocs=4
%mem=2GB
#p b3lyp 6-31+G* output=wfx scf=(conver=6) int=(grid=ultrafine)

title

-1 1
  H   -1.771093281  -0.628721735   1.031859457
  H   -0.150955848  -2.164058647   2.585047698
  H    2.371612214  -1.731443453   1.663094954
  H    2.108608645   0.036587331  -0.386142936
  N    0.042163327  -0.073991220   0.080686543
  C   -0.702627174  -0.747717140   0.998942415
  C    0.142671083  -1.518865303   1.773923301
  C    1.460192028  -1.292920030   1.292389061
  C    1.354034157  -0.395029177   0.247249172
  H   -0.335515994   0.588550806  -0.641808291
  C   -1.375264035   2.412532686  -2.631030818
  N   -0.955400006   1.676038295  -1.827660162

09.001_1Hpyrrole--cyanide_100.wfx


