%nprocs=4
%mem=2GB
#p b3lyp 6-31+G* output=wfx scf=(conver=6) int=(grid=ultrafine)

title

-1 1
  C    3.573188848  -0.401909768  -0.035267410
  N    2.425047553  -0.266510772  -0.203165423

09.006_Nmethylacetamide--cyanide_2.wfx


