%nprocs=4
%mem=2GB
#p hf aug-cc-pvdz output=wfx scf=(conver=6) int=(grid=ultrafine)

title

-1 1
  C    1.053282281  -1.579184385   0.700346807
  N    0.472319443  -0.720569467   0.160484396

09.002_NH-Na__ammonia--cyanide_2.wfx

