%nprocs=4
%mem=2GB
#p hf aug-cc-pvdz output=wfx scf=(conver=6) int=(grid=ultrafine)

title

-1 1
  C   -2.326778509  -3.541702884   1.149471233
  N   -2.134646582  -2.461454492   0.747866036

09.003_NH-Na__aniline--cyanide_2.wfx

