%nprocs=4
%mem=2GB
#p hf aug-cc-pvdz output=wfx scf=(conver=6) int=(grid=ultrafine)

title

-1 1
  C   -0.062396284  -1.270987297  -2.594900638
  N   -0.065847572  -1.218033005  -1.427172239

09.004_NH-Na__dimethylamine--cyanide_2.wfx

