%nprocs=4
%mem=2GB
#p b3lyp 6-31+G* output=wfx scf=(conver=6) int=(grid=ultrafine)

title

-1 1
  C   -0.222776811  -1.291150766  -1.399209312
  N   -0.341216559  -1.796272896  -2.444566035

10.003_dimethylamine--cyanide_2.wfx


