%nprocs=4
%mem=2GB
#p hf aug-cc-pvdz output=wfx scf=(conver=6) int=(grid=ultrafine)

title

-1 0
  H    1.606413607   1.654006642   1.919815060
  H    1.414907764   1.694147413   0.157543133
  H    2.179090900   0.300129971   0.935033450
  H   -0.002185192  -0.301214723   0.423422865
  H   -1.935443196   0.710399715   1.211019727
  H   -0.982683281   1.912170861   2.093484080
  H   -1.021777929   1.937116471   0.320987065
  C    1.382042244   1.035472146   1.043392696
  N    0.116054793   0.355230138   1.210080029
  C   -1.002199784   1.273212070   1.203319831
  C   -0.333072620  -1.786118788  -2.310525400
  N   -0.451512368  -2.291240918  -3.355882124

10.003_NH-Ca__dimethylamine--cyanide_150.wfx

