%nprocs=4
%mem=2GB
#p hf aug-cc-pvdz output=wfx scf=(conver=6) int=(grid=ultrafine)

title

-1 1
  C   -0.222776811  -1.291150766  -1.399209312
  N   -0.341216559  -1.796272896  -2.444566035

10.003_NH-Ca__dimethylamine--cyanide_2.wfx

