%nprocs=4
%mem=2GB
#p b3lyp 6-31+G* output=wfx scf=(conver=6) int=(grid=ultrafine)

title

-1 1
  C   -2.373076880  -2.371046791   0.834261090
  N   -2.706363082  -3.388219652   1.296141817

10.002_aniline--cyanide_2.wfx


