%nprocs=4
%mem=2GB
#p hf aug-cc-pvdz output=wfx scf=(conver=6) int=(grid=ultrafine)

title

-1 1
  C    0.347015050  -0.726530209   0.355711057
  N    0.716545948  -1.570224569   1.073493894

10.001_NH-Ca__ammonia--cyanide_2.wfx

