%nprocs=4
%mem=2GB
#p hf aug-cc-pvdz output=wfx scf=(conver=6) int=(grid=ultrafine)

title

-1 0
  N   -0.782251638   0.656304154   1.377436975
  H   -0.640506002   0.028601406   0.572482250
  H   -0.426895253   0.142299072   2.175328612
  C    0.041450258   1.842435833   1.166930698
  H   -0.028552253   2.516165370   2.026069825
  H    1.104652490   1.635124107   0.981997756
  H   -0.331198235   2.384987954   0.296993596
  C    0.022161696  -0.946586887  -0.821315419
  N    0.533795091  -1.587165962  -1.652504546

10.004_NH-Ca__methylamine--cyanide_085.wfx

