%nprocs=4
%mem=2GB
#p hf aug-cc-pvdz output=wfx scf=(conver=6) int=(grid=ultrafine)

title

-1 1
  C    0.139103054  -1.118678939  -1.067279714
  N    0.650736449  -1.759258014  -1.898468841

10.004_NH-Ca__methylamine--cyanide_2.wfx

