%nprocs=4
%mem=2GB
#p hf aug-cc-pvdz output=wfx scf=(conver=6) int=(grid=ultrafine)

title

-1 0
  N   -0.828252957   1.807914375  -1.205489677
  H   -0.418648109   0.952789009  -0.796174458
  H   -0.371406840   2.575128170  -0.723670851
  H   -1.789697494   1.820208123  -0.881549666
  C    0.193882418  -0.390666365   0.125333954
  N    0.563413316  -1.234360725   0.843116791

10.001_NH-Ca__ammonia--cyanide_080.wfx

