%nprocs=4
%mem=2GB
#p b3lyp 6-31+G* output=wfx scf=(conver=6) int=(grid=ultrafine)

title

-1 1
  C    2.309723968   1.036691943   0.058496916
  N    3.370917309   1.468398953   0.270543002

10.005_Nmethylacetamide--cyanide_2.wfx


