%nprocs=4
%mem=2GB
#p b3lyp 6-31+G* output=wfx scf=(conver=6) int=(grid=ultrafine)

title

-1 1
  C    2.446498286  -0.224421247  -0.209153866
  H    1.368494895  -0.144528884  -0.323115553
  C    3.638847919  -0.314358267  -0.100712471
  H    4.690695339  -0.392944095   0.004245848
  N   -1.098068423   0.103931226   0.128232246
  O   -0.299093272  -0.052897912  -0.841726919
  O   -0.644654617   0.173740132   1.292929284
  O   -2.324094017   0.186790850  -0.087582457

11.008_ethyne--nitrate_090.wfx


