%nprocs=4
%mem=2GB
#p hf aug-cc-pvdz output=wfx scf=(conver=6) int=(grid=ultrafine)

title

-2 0
  H    0.073086240   2.688425198  -0.230134685
  H    0.051300070   4.354310532  -1.128605344
  H   -0.180202278   3.097572590  -3.258056406
  H   -0.145621160   1.503221082  -2.238593849
  C    0.011215063   3.266229711  -1.155668272
  C   -0.112636863   2.594089320  -2.294627511
  C    0.001436507  -0.076687836   0.044998862
  O    0.100953796   0.990797357   0.717091821
  O   -0.115076707  -0.149326280  -1.212863842
  C    0.024469905  -1.423911678   0.838387762
  O   -1.089260684  -1.869859130   1.227959632
  O    1.154881229  -1.952357761   1.022670994

11.002_CH-Oa__ethene--oxalate_090.wfx

