%nprocs=4
%mem=2GB
#p b3lyp 6-31+G* output=wfx scf=(conver=6) int=(grid=ultrafine)

title

-1 1
  N    2.611135745   2.101542444   0.371935384
  O    1.458107850   2.575174867   0.210439034
  O    2.706747788   0.849832798   0.381351589

11.004_benzene--nitrite_2.wfx


