%nprocs=4
%mem=2GB
#p hf aug-cc-pvdz output=wfx scf=(conver=6) int=(grid=ultrafine)

title

-1 0
  C    2.404434686  -0.241718552  -0.787254506
  H    1.400441098  -0.263697926  -0.335343938
  C    3.502584637  -0.222335486  -1.276842492
  H    4.468537031  -0.199812289  -1.712989638
  C   -2.238095189  -0.251167788   1.213787864
  C   -1.065450432   0.166142038   0.289152534
  O    0.004797755  -0.477208408   0.477265109
  O   -1.281090866   1.075024326  -0.533775849
  H   -1.945271350  -0.117824606   2.257178428
  H   -2.452816488  -1.312606835   1.074481203
  H   -3.134080246   0.333093705   1.008201339

11.007_CH-Oa__ethyne--acetate_090.wfx

