%nprocs=4
%mem=2GB
#p hf aug-cc-pvdz output=wfx scf=(conver=6) int=(grid=ultrafine)

title

-1 1
  C   -0.313090648   2.280859521  -0.000249007
  C    0.040978085   0.764513376   0.000848184
  O   -0.948417325  -0.008500964   0.002959398
  O    1.257135750   0.473407056  -0.000620861
  H   -0.919280145   2.512387289  -0.878903952
  H    0.581977244   2.902727358  -0.000722776
  H   -0.919547765   2.513846076   0.877822131

11.009_CH-Oa__methane--acetate_2.wfx

