%nprocs=4
%mem=2GB
#p hf aug-cc-pvdz output=wfx scf=(conver=6) int=(grid=ultrafine)

title

-1 0
  H    0.047341790   0.809082792  -0.752652171
  H   -0.372177546   2.565575244  -0.350222577
  H    0.094597218   3.251834116  -2.661773242
  H    0.517400839   1.510107730  -3.087350256
  C   -0.052394521   1.840482452  -1.090013179
  C    0.197109173   2.222306924  -2.336241858
  N   -0.179763565  -0.406766103   0.994683777
  O    0.178108388  -0.769022468  -0.159437358
  O   -0.241398912  -1.301157703   1.864424727

11.006_CH-Oa__ethene--nitrite_080.wfx

