%nprocs=4
%mem=2GB
#p hf aug-cc-pvdz output=wfx scf=(conver=6) int=(grid=ultrafine)

title

-1 1
  N   -0.147071916  -0.801292418   1.142987480
  O    0.210800037  -1.163548783  -0.011133655
  O   -0.208707263  -1.695684018   2.012728430

11.006_CH-Oa__ethene--nitrite_2.wfx

