%nprocs=4
%mem=2GB
#p b3lyp 6-31+G* output=wfx scf=(conver=6) int=(grid=ultrafine)

title

-1 1
  C    2.404434686  -0.241718552  -0.787254506
  H    1.400441098  -0.263697926  -0.335343938
  C    3.502584637  -0.222335486  -1.276842492
  H    4.468537031  -0.199812289  -1.712989638
  C   -2.160559448  -0.239306095   1.168642917
  C   -0.987914691   0.178003731   0.244007587
  O    0.082333496  -0.465346715   0.432120162
  O   -1.203555125   1.086886019  -0.578920796
  H   -1.867735609  -0.105962913   2.212033481
  H   -2.375280747  -1.300745142   1.029336256
  H   -3.056544505   0.344955398   0.963056392

11.007_ethyne--acetate_085.wfx


