%nprocs=4
%mem=2GB
#p b3lyp 6-31+G* output=wfx scf=(conver=6) int=(grid=ultrafine)

title

-1 1
  N   -0.098755571  -1.394695281   0.000000000
  O   -1.054186509  -0.577110047   0.000000000
  O    1.055521077  -0.904204337   0.000000000

11.012_methane--nitrite_2.wfx


