%nprocs=4
%mem=2GB
#p b3lyp 6-31+G* output=wfx scf=(conver=6) int=(grid=ultrafine)

title

-1 1
  O    0.884089193  -0.909417563   0.741908970
  H    0.663130198  -0.751755772   1.666323559

11.010_methane--hydroxide_2.wfx


