%nprocs=4
%mem=2GB
#p b3lyp 6-31+G* output=wfx scf=(conver=6) int=(grid=ultrafine)

title

-1 1
  O    1.972381170   2.881241130   0.227102340
  H    2.259999128   3.156983175  -0.649232926

11.003_benzene--hydroxide_2.wfx


