%nprocs=4
%mem=2GB
#p hf aug-cc-pvdz output=wfx scf=(conver=6) int=(grid=ultrafine)

title

-1 0
  H    0.047341790   0.809082792  -0.752652171
  H   -0.372177546   2.565575244  -0.350222577
  H    0.094597218   3.251834116  -2.661773242
  H    0.517400839   1.510107730  -3.087350256
  C   -0.052394521   1.840482452  -1.090013179
  C    0.197109173   2.222306924  -2.336241858
  N   -0.065342792  -1.787608206   1.513746738
  O    0.292529160  -2.149864570   0.359625603
  O   -0.126978140  -2.681999806   2.383487688

11.006_CH-Oa__ethene--nitrite_150.wfx

