%nprocs=4
%mem=2GB
#p hf aug-cc-pvdz output=wfx scf=(conver=6) int=(grid=ultrafine)

title

-1 1
  N    0.548704883  -0.415647689   0.469133418
  O   -0.298618193   0.406888108   0.904730697
  O    0.625597941  -0.637660402  -0.764648217
  O    1.312125740  -1.010101040   1.265700583

11.011_CH-Oa__methane--nitrate_2.wfx

