%nprocs=4
%mem=2GB
#p hf aug-cc-pvdz output=wfx scf=(conver=6) int=(grid=ultrafine)

title

-2 0
  C    3.220818853   0.169374430  -0.230600282
  H    2.079744481   0.096059110  -0.033424881
  C    4.409974132   0.246069241  -0.439014871
  H    5.450434023   0.314702298  -0.633869902
  C   -1.196361238  -0.050721062  -0.013604703
  O   -0.153249066  -0.092332168   0.730039572
  O   -1.188512196   0.096585932  -1.255227092
  C   -2.568491876  -0.197912426   0.714525234
  O   -3.113333794   0.868866832   1.104245957
  O   -3.013927874  -1.369563670   0.839306899

11.001_CH-Oa__ethyne--oxalate_150.wfx

