%nprocs=4
%mem=2GB
#p hf aug-cc-pvdz output=wfx scf=(conver=6) int=(grid=ultrafine)

title

-1 1
  O    0.670060738  -0.843099328   0.470702876
  C    0.669982964   0.406199912   0.388556359
  O   -0.157823539   1.153045205  -0.181103894
  C    1.846990172   1.120771296   1.081840117
  C    1.950725095   2.510145660   1.056103625
  C    3.010680173   3.157916443   1.680222118
  C    3.987286591   2.420180344   2.342644672
  C    3.892629976   1.032060553   2.374000266
  C    2.829858096   0.391088082   1.747658051
  H    1.178478239   3.057338453   0.534667171
  H    3.078186668   4.238606307   1.651911672
  H    4.813885040   2.922022163   2.829577472
  H    4.649247878   0.451708330   2.887780178
  H    2.731029737  -0.684944482   1.755963587

11.014_CH-Oa__benzene--benzoate_2.wfx

