%nprocs=4
%mem=2GB
#p hf aug-cc-pvdz output=wfx scf=(conver=6) int=(grid=ultrafine)

title

-1 0
  C    2.446498286  -0.224421247  -0.209153866
  H    1.368494895  -0.144528884  -0.323115553
  C    3.638847919  -0.314358267  -0.100712471
  H    4.690695339  -0.392944095   0.004245848
  N   -3.136231738   0.215924636  -0.505626090
  O   -2.337256587   0.059095498  -1.475585255
  O   -2.682817932   0.285733542   0.659070948
  O   -4.362257332   0.298784260  -0.721440793

11.008_CH-Oa__ethyne--nitrate_200.wfx

