%nprocs=4
%mem=2GB
#p hf aug-cc-pvdz output=wfx scf=(conver=6) int=(grid=ultrafine)

title

-1 0
  H   -0.616913525   1.960557820  -0.354568490
  H   -0.991047728   3.263628929  -1.646266499
  H   -0.367718513   1.625863212  -3.390821524
  H   -0.016705554   0.383351094  -2.034194078
  C   -0.667906519   2.257008926  -1.398052674
  C   -0.333411387   1.378075539  -2.334044992
  C    0.389097334  -1.545574668   1.566578829
  C    0.135247914  -0.460897881   0.481938237
  O   -0.246735061   0.657884570   0.898234317
  O    0.321564438  -0.832190658  -0.701115362
  H    0.482872507  -1.103348714   2.558294761
  H    1.282479244  -2.123217166   1.324990114
  H   -0.455842247  -2.239019243   1.572959121

11.015_CH-Oa__ethene--acetate_080.wfx

