%nprocs=4
%mem=2GB
#p b3lyp 6-31+G* output=wfx scf=(conver=6) int=(grid=ultrafine)

title

-1 1
  C   -2.114273443   1.600957237  -1.811270243
  H   -1.457472176   1.139980209  -1.074599696
  H   -1.519338971   2.158371818  -2.534114136
  H   -2.810631457   2.280033769  -1.319000042
  H   -2.675957110   0.828005534  -2.334903039
  N    0.838418379  -0.598920714   0.963966016
  O   -0.008904697   0.223615083   1.399563295
  O    0.915311437  -0.820933427  -0.269815619
  O    1.601839236  -1.193374065   1.760533181

11.011_methane--nitrate_125.wfx


