%nprocs=4
%mem=2GB
#p hf aug-cc-pvdz output=wfx scf=(conver=6) int=(grid=ultrafine)

title

-1 1
  O   -0.072415358  -1.337356970   1.578994901
  H   -0.214607204  -2.214401829   1.208381275

11.005_CH-Oa__ethene--hydroxide_2.wfx

