%nprocs=4
%mem=2GB
#p hf aug-cc-pvdz output=wfx scf=(conver=6) int=(grid=ultrafine)

title

-1 1
  C    0.196420491  -2.291146830   1.660749549
  N    0.117437995  -1.344920517   0.978299080

12.002_CH-Na__ethene--cyanide_2.wfx

