%nprocs=4
%mem=2GB
#p hf aug-cc-pvdz output=wfx scf=(conver=6) int=(grid=ultrafine)

title

-1 1
  C    3.002734454   1.778560488  -0.500769612
  N    2.267394710   2.553551156  -0.025197749

12.001_CH-Na__benzene--cyanide_2.wfx

