%nprocs=4
%mem=2GB
#p hf aug-cc-pvdz output=wfx scf=(conver=6) int=(grid=ultrafine)

title

-1 0
  C   -0.000003057   0.000012044   1.483199061
  H   -0.000003057   0.000012044   0.386191553
  C    0.000009850  -0.000089019   2.685232289
  H    0.000025762  -0.000194541   3.745343555
  C   -0.000016204   0.000131632  -2.906276875
  N    0.000008358  -0.000042994  -1.737466079

12.003_CH-Na__ethyne--cyanide_110.wfx

