%nprocs=4
%mem=2GB
#p b3lyp 6-31+G* output=wfx scf=(conver=6) int=(grid=ultrafine)

title

-1 1
  C   -0.000017242   0.000136635  -2.713217090
  N    0.000007320  -0.000037991  -1.544406294

12.003_ethyne--cyanide_2.wfx


