%nprocs=4
%mem=2GB
#p b3lyp 6-31+G* output=wfx scf=(conver=6) int=(grid=ultrafine)

title

-1 1
  C    0.499015653  -0.546094389   0.675906805
  N    1.083152292  -1.188168422   1.458945178

13.001_methane--cyanide_2.wfx


