%nprocs=4
%mem=4GB
#p pbepbe aug-cc-pvtz output=wfx scf=(conver=6) int=(grid=ultrafine)

title

0 1
S 0.691831000000000 -1.304247000000000 0.000000000000000
C -0.486207000000000 -1.387475000000000 1.360941000000000
C -0.486207000000000 -1.387475000000000 -1.360941000000000
H -1.035340000000000 -2.326136000000000 1.332261000000000
H 0.080605000000000 -1.338205000000000 2.287319000000000
H -1.175349000000000 -0.546625000000000 1.319382000000000
H -1.035340000000000 -2.326136000000000 -1.332261000000000
H -1.175349000000000 -0.546625000000000 -1.319382000000000
H 0.080605000000000 -1.338205000000000 -2.287319000000000
O -0.382870000000000 1.542737000000000 0.000000000000000
C 0.360183000000000 2.747787000000000 0.000000000000000
H -0.353918000000000 3.566533000000000 0.000000000000000
H 0.990499000000000 2.847338000000000 0.886188000000000
H 0.990499000000000 2.847338000000000 -0.886188000000000
H 0.250069000000000 0.811120000000000 0.000000000000000

ch3oh_ch3sch3_cs_090.wfx

