%nprocs=4
%mem=4GB
#p pbepbe aug-cc-pvtz output=wfx scf=(conver=6) int=(grid=ultrafine)

title

0 1
S 0.691831000000000 -1.304247000000000 0.000000000000000
C -0.486207000000000 -1.387475000000000 1.360941000000000
C -0.486207000000000 -1.387475000000000 -1.360941000000000
H -1.035340000000000 -2.326136000000000 1.332261000000000
H 0.080605000000000 -1.338205000000000 2.287319000000000
H -1.175349000000000 -0.546625000000000 1.319382000000000
H -1.035340000000000 -2.326136000000000 -1.332261000000000
H -1.175349000000000 -0.546625000000000 -1.319382000000000
H 0.080605000000000 -1.338205000000000 -2.287319000000000
O -0.677378000000000 2.952981000000000 0.000000000000000
C 0.065675000000000 4.158031000000000 0.000000000000000
H -0.648426000000000 4.976778000000000 0.000000000000000
H 0.695991000000000 4.257583000000000 0.886188000000000
H 0.695991000000000 4.257583000000000 -0.886188000000000
H -0.044439000000000 2.221364000000000 0.000000000000000

ch3oh_ch3sch3_cs_150.wfx

