%nprocs=4
%mem=4GB
#p pbepbe aug-cc-pvtz output=wfx scf=(conver=6) int=(grid=ultrafine)

title

0 1
S 0.691831000000000 -1.304247000000000 0.000000000000000
C -0.486207000000000 -1.387475000000000 1.360941000000000
C -0.486207000000000 -1.387475000000000 -1.360941000000000
H -1.035340000000000 -2.326136000000000 1.332261000000000
H 0.080605000000000 -1.338205000000000 2.287319000000000
H -1.175349000000000 -0.546625000000000 1.319382000000000
H -1.035340000000000 -2.326136000000000 -1.332261000000000
H -1.175349000000000 -0.546625000000000 -1.319382000000000
H 0.080605000000000 -1.338205000000000 -2.287319000000000
O -0.922801000000000 4.128185000000000 0.000000000000000
C -0.179749000000000 5.333235000000000 0.000000000000000
H -0.893849000000000 6.151981000000000 0.000000000000000
H 0.450568000000000 5.432786000000000 0.886188000000000
H 0.450568000000000 5.432786000000000 -0.886188000000000
H -0.289862000000000 3.396568000000000 0.000000000000000

ch3oh_ch3sch3_cs_200.wfx

