%nprocs=4
%mem=4GB
#p pbepbe aug-cc-pvtz output=wfx scf=(conver=6) int=(grid=ultrafine)

title

0 1
S 0.779515000000000 2.257972000000000 0.000000000000000
C -1.015571000000000 2.488997000000000 0.000000000000000
H 0.754913000000000 0.923350000000000 0.000000000000000
H -1.190627000000000 3.561804000000000 0.000000000000000
H -1.466354000000000 2.058713000000000 -0.889264000000000
H -1.466354000000000 2.058713000000000 0.889264000000000
C 0.521520000000000 -1.805707000000000 -1.207526000000000
C -0.831036000000000 -1.467865000000000 -1.207375000000000
C -1.507646000000000 -1.300891000000000 0.000000000000000
C -0.831036000000000 -1.467865000000000 1.207375000000000
C 0.521520000000000 -1.805707000000000 1.207526000000000
C 1.197474000000000 -1.976186000000000 0.000000000000000
H -1.354851000000000 -1.335864000000000 -2.144286000000000
H -2.557832000000000 -1.042096000000000 0.000000000000000
H -1.354851000000000 -1.335864000000000 2.144286000000000
H 1.046879000000000 -1.932724000000000 2.144045000000000
H 2.246938000000000 -2.236959000000000 0.000000000000000
H 1.046879000000000 -1.932724000000000 -2.144045000000000

ch3sh_benzene_cs_110.wfx

