%nprocs=4
%mem=4GB
#p pbepbe aug-cc-pvtz output=wfx scf=(conver=6) int=(grid=ultrafine)

title

0 1
S 0.779515000000000 2.257972000000000 0.000000000000000
C -1.015571000000000 2.488997000000000 0.000000000000000
H 0.754913000000000 0.923350000000000 0.000000000000000
H -1.190627000000000 3.561804000000000 0.000000000000000
H -1.466354000000000 2.058713000000000 -0.889264000000000
H -1.466354000000000 2.058713000000000 0.889264000000000

ch3sh_benzene_cs_1.wfx

