%nprocs=4
%mem=4GB
#p pbepbe aug-cc-pvtz output=wfx scf=(conver=6) int=(grid=ultrafine)

title

0 1
S 0.779515000000000 2.257972000000000 0.000000000000000
C -1.015571000000000 2.488997000000000 0.000000000000000
H 0.754913000000000 0.923350000000000 0.000000000000000
H -1.190627000000000 3.561804000000000 0.000000000000000
H -1.466354000000000 2.058713000000000 -0.889264000000000
H -1.466354000000000 2.058713000000000 0.889264000000000
C 0.686896000000000 -1.340223000000000 -1.207526000000000
C -0.665660000000000 -1.002381000000000 -1.207375000000000
C -1.342270000000000 -0.835407000000000 0.000000000000000
C -0.665660000000000 -1.002381000000000 1.207375000000000
C 0.686896000000000 -1.340223000000000 1.207526000000000
C 1.362850000000000 -1.510703000000000 0.000000000000000
H -1.189475000000000 -0.870380000000000 -2.144286000000000
H -2.392456000000000 -0.576613000000000 0.000000000000000
H -1.189475000000000 -0.870380000000000 2.144286000000000
H 1.212255000000000 -1.467241000000000 2.144045000000000
H 2.412314000000000 -1.771475000000000 0.000000000000000
H 1.212255000000000 -1.467241000000000 -2.144045000000000

ch3sh_benzene_cs_090.wfx

