%nprocs=4
%mem=4GB
#p pbepbe aug-cc-pvtz output=wfx scf=(conver=6) int=(grid=ultrafine)

title

0 1
O -0.075612000000000 -2.593240000000000 0.000000000000000
H 0.069290000000000 -3.167521000000000 -0.754927000000000
H 0.069290000000000 -3.167521000000000 0.754927000000000

ch3sh_h2o_cs_2.wfx

