%nprocs=4
%mem=4GB
#p pbepbe aug-cc-pvtz output=wfx scf=(conver=6) int=(grid=ultrafine)

title

0 1
C -0.983954000000000 1.768721000000000 0.716523000000000
S 0.423029000000000 1.812899000000000 -0.422374000000000
H -1.417406000000000 0.777911000000000 0.608658000000000
H -1.727877000000000 2.513526000000000 0.452324000000000
H -0.663231000000000 1.905316000000000 1.744643000000000
H 0.828754000000000 3.049171000000000 -0.132248000000000
C 0.896802000000000 -1.790414000000000 0.800079000000000
S -0.430447000000000 -1.911330000000000 -0.426467000000000
H 0.530684000000000 -2.284804000000000 1.695862000000000
H 1.120799000000000 -0.753008000000000 1.029395000000000
H 1.792823000000000 -2.300782000000000 0.461195000000000
H 0.177021000000000 -1.201173000000000 -1.377499000000000

ch3sh_dimer_100.wfx

