%nprocs=4
%mem=4GB
#p pbepbe aug-cc-pvtz output=wfx scf=(conver=6) int=(grid=ultrafine)

title

0 1
C -1.008555000000000 1.467314000000000 0.621010000000000
S 0.398428000000000 1.511492000000000 -0.517887000000000
H -1.442007000000000 0.476504000000000 0.513146000000000
H -1.752478000000000 2.212118000000000 0.356811000000000
H -0.687832000000000 1.603909000000000 1.649130000000000
H 0.804153000000000 2.747764000000000 -0.227760000000000
C 0.896802000000000 -1.790414000000000 0.800079000000000
S -0.430447000000000 -1.911330000000000 -0.426467000000000
H 0.530684000000000 -2.284804000000000 1.695862000000000
H 1.120799000000000 -0.753008000000000 1.029395000000000
H 1.792823000000000 -2.300782000000000 0.461195000000000
H 0.177021000000000 -1.201173000000000 -1.377499000000000

ch3sh_dimer_090.wfx

