%nprocs=4
%mem=4GB
#p pbepbe aug-cc-pvtz output=wfx scf=(conver=6) int=(grid=ultrafine)

title

0 1
C -1.151251000000000 1.488626000000000 0.056543000000000
S 0.651215000000000 1.337311000000000 -0.031735000000000
H -1.360067000000000 2.374376000000000 0.650097000000000
H -1.597552000000000 0.627284000000000 0.544269000000000
H -1.582766000000000 1.618991000000000 -0.930693000000000
H 0.658434000000000 0.213802000000000 -0.752707000000000
C 0.036648000000000 -2.513155000000000 0.574737000000000
O -0.163946000000000 -2.320437000000000 -0.605691000000000
H -0.129944000000000 -3.498538000000000 1.034010000000000
H 0.393750000000000 -1.710490000000000 1.236650000000000

ch3sh_h2co_110.wfx

