%nprocs=4
%mem=4GB
#p pbepbe aug-cc-pvtz output=wfx scf=(conver=6) int=(grid=ultrafine)

title

0 1
S 0.779515000000000 2.257972000000000 0.000000000000000
C -1.015571000000000 2.488997000000000 0.000000000000000
H 0.754913000000000 0.923350000000000 0.000000000000000
H -1.190627000000000 3.561804000000000 0.000000000000000
H -1.466354000000000 2.058713000000000 -0.889264000000000
H -1.466354000000000 2.058713000000000 0.889264000000000
C 0.562864000000000 -1.689336000000000 -1.207526000000000
C -0.789692000000000 -1.351494000000000 -1.207375000000000
C -1.466302000000000 -1.184520000000000 0.000000000000000
C -0.789692000000000 -1.351494000000000 1.207375000000000
C 0.562864000000000 -1.689336000000000 1.207526000000000
C 1.238818000000000 -1.859815000000000 0.000000000000000
H -1.313507000000000 -1.219493000000000 -2.144286000000000
H -2.516488000000000 -0.925725000000000 0.000000000000000
H -1.313507000000000 -1.219493000000000 2.144286000000000
H 1.088223000000000 -1.816354000000000 2.144045000000000
H 2.288281000000000 -2.120588000000000 0.000000000000000
H 1.088223000000000 -1.816354000000000 -2.144045000000000

ch3sh_benzene_cs_105.wfx

