%nprocs=4
%mem=4GB
#p pbepbe aug-cc-pvtz output=wfx scf=(conver=6) int=(grid=ultrafine)

title

0 1
C 1.152285000000000 1.504542000000000 -0.486178000000000
S -0.483922000000000 1.867145000000000 0.206910000000000
H 1.071252000000000 1.676116000000000 -1.556110000000000
H 1.422769000000000 0.468990000000000 -0.302374000000000
H 1.898584000000000 2.178873000000000 -0.079115000000000
H -0.194151000000000 1.535812000000000 1.465591000000000
C -0.105041000000000 -2.509630000000000 -0.032624000000000
O 0.957401000000000 -2.041902000000000 0.340284000000000
N -1.206275000000000 -1.789332000000000 -0.344168000000000
H -2.053946000000000 -2.253395000000000 -0.609019000000000
H -1.197357000000000 -0.783725000000000 -0.233837000000000
H -0.260295000000000 -3.591806000000000 -0.158258000000000

formamide_ch3sh_110.wfx

