%nprocs=4
%mem=4GB
#p pbepbe aug-cc-pvtz output=wfx scf=(conver=6) int=(grid=ultrafine)

title

0 1
C -0.040183000000000 -2.268641000000000 0.007444000000000
O 1.022259000000000 -1.800914000000000 0.380352000000000
N -1.141418000000000 -1.548343000000000 -0.304100000000000
H -0.195437000000000 -3.350818000000000 -0.118190000000000
H -1.989089000000000 -2.012407000000000 -0.568951000000000
H -1.132499000000000 -0.542737000000000 -0.193769000000000

formamide_ch3sh_2.wfx

