%nprocs=4
%mem=4GB
#p pbepbe aug-cc-pvtz output=wfx scf=(conver=6) int=(grid=ultrafine)

title

0 1
O 0.025883000000000 -1.390422000000000 0.000000000000000
H -0.419470000000000 -1.778763000000000 -0.756177000000000
H -0.419470000000000 -1.778763000000000 0.756177000000000

h2o_dimer_cs_2.wfx

