%nprocs=4
%mem=4GB
#p pbepbe aug-cc-pvtz output=wfx scf=(conver=6) int=(grid=ultrafine)

title

0 1
O 0.016511000000000 2.457011000000000 0.000000000000000
H 0.665202000000000 3.163040000000000 0.000000000000000
H 0.550491000000000 1.651410000000000 0.000000000000000

h2o_ch3sch3_cs_2.wfx

