%nprocs=4
%mem=4GB
#p pbepbe aug-cc-pvtz output=wfx scf=(conver=6) int=(grid=ultrafine)

title

0 1
S -0.068054000000000 1.258755000000000 0.000000000000000
H 0.849620000000000 1.150685000000000 -0.960960000000000
H 0.849620000000000 1.150685000000000 0.960960000000000

h2o_h2s_cs_2.wfx

