%nprocs=4
%mem=4GB
#p pbepbe aug-cc-pvtz output=wfx scf=(conver=6) int=(grid=ultrafine)

title

0 1
O 0.046884000000000 -2.293802000000000 0.000000000000000
H -0.805511000000000 -2.732678000000000 0.000000000000000
H -0.179936000000000 -1.358345000000000 0.000000000000000
S 0.043828000000000 3.875856000000000 0.000000000000000
H 0.961502000000000 3.767786000000000 -0.960960000000000
H 0.961502000000000 3.767786000000000 0.960960000000000

h2o_h2s_cs_200.wfx

