%nprocs=4
%mem=4GB
#p pbepbe aug-cc-pvtz output=wfx scf=(conver=6) int=(grid=ultrafine)

title

0 1
S 0.621513000000000 -0.789789000000000 0.000000000000000
C -0.552898000000000 -0.664999000000000 -1.360784000000000
H -1.261461000000000 -1.489855000000000 -1.328509000000000
H -1.080381000000000 0.285619000000000 -1.323247000000000
H 0.012979000000000 -0.722208000000000 -2.287249000000000
C -0.552898000000000 -0.664999000000000 1.360784000000000
H -1.261461000000000 -1.489855000000000 1.328509000000000
H 0.012979000000000 -0.722208000000000 2.287249000000000
H -1.080381000000000 0.285619000000000 1.323247000000000
O 0.020062000000000 2.334951000000000 0.000000000000000
H 0.668753000000000 3.040981000000000 0.000000000000000
H 0.554042000000000 1.529350000000000 0.000000000000000

h2o_ch3sch3_cs_095.wfx

