%nprocs=4
%mem=4GB
#p pbepbe aug-cc-pvtz output=wfx scf=(conver=6) int=(grid=ultrafine)

title

0 1
O 0.046884000000000 -2.293802000000000 0.000000000000000
H -0.805511000000000 -2.732678000000000 0.000000000000000
H -0.179936000000000 -1.358345000000000 0.000000000000000
S -0.079242000000000 0.997045000000000 0.000000000000000
H 0.838431000000000 0.888975000000000 -0.960960000000000
H 0.838431000000000 0.888975000000000 0.960960000000000

h2o_h2s_cs_090.wfx

