%nprocs=4
%mem=4GB
#p pbepbe aug-cc-pvtz output=wfx scf=(conver=6) int=(grid=ultrafine)

title

0 1
O -0.054524000000000 1.581007000000000 0.000000000000000
H 0.853478000000000 1.886707000000000 0.000000000000000
H 0.029467000000000 0.619943000000000 0.000000000000000
O 0.026062000000000 -1.289904000000000 0.000000000000000
H -0.419291000000000 -1.678244000000000 -0.756177000000000
H -0.419291000000000 -1.678244000000000 0.756177000000000

h2o_dimer_cs_095.wfx

