%nprocs=4
%mem=4GB
#p pbepbe aug-cc-pvtz output=wfx scf=(conver=6) int=(grid=ultrafine)

title

0 1
S 0.080299000000000 1.333240000000000 0.025922000000000
H -0.629381000000000 2.461103000000000 0.007509000000000
H -1.015174000000000 0.578039000000000 -0.041582000000000

h2s_ch4_1.wfx

