%nprocs=4
%mem=4GB
#p pbepbe aug-cc-pvtz output=wfx scf=(conver=6) int=(grid=ultrafine)

title

0 1
S 0.080299000000000 1.333240000000000 0.025922000000000
H -0.629381000000000 2.461103000000000 0.007509000000000
H -1.015174000000000 0.578039000000000 -0.041582000000000
C -0.072083000000000 -2.136340000000000 -0.003220000000000
H -1.155290000000000 -2.130538000000000 -0.080521000000000
H 0.279975000000000 -3.162817000000000 0.018873000000000
H 0.356501000000000 -1.625837000000000 -0.860138000000000
H 0.230276000000000 -1.631094000000000 0.908877000000000

h2s_ch4_090.wfx

