%nprocs=4
%mem=4GB
#p pbepbe aug-cc-pvtz output=wfx scf=(conver=6) int=(grid=ultrafine)

title

0 1
S 0.080299000000000 1.333240000000000 0.025922000000000
H -0.629381000000000 2.461103000000000 0.007509000000000
H -1.015174000000000 0.578039000000000 -0.041582000000000
C 0.137492000000000 -2.739535000000000 0.005305000000000
H -0.945714000000000 -2.733733000000000 -0.071996000000000
H 0.489551000000000 -3.766012000000000 0.027398000000000
H 0.566077000000000 -2.229032000000000 -0.851613000000000
H 0.439852000000000 -2.234289000000000 0.917402000000000

h2s_ch4_110.wfx

