%nprocs=4
%mem=4GB
#p pbepbe aug-cc-pvtz output=wfx scf=(conver=6) int=(grid=ultrafine)

title

0 1
S 0.080299000000000 1.333240000000000 0.025922000000000
H -0.629381000000000 2.461103000000000 0.007509000000000
H -1.015174000000000 0.578039000000000 -0.041582000000000
C 0.085098000000000 -2.588737000000000 0.003174000000000
H -0.998108000000000 -2.582934000000000 -0.074127000000000
H 0.437157000000000 -3.615214000000000 0.025267000000000
H 0.513683000000000 -2.078233000000000 -0.853745000000000
H 0.387458000000000 -2.083491000000000 0.915271000000000

h2s_ch4_105.wfx

