%nprocs=4
%mem=4GB
#p pbepbe aug-cc-pvtz output=wfx scf=(conver=6) int=(grid=ultrafine)

title

0 1
S -0.060964000000000 2.066020000000000 0.000000000000000
H 0.859673000000000 2.137007000000000 -0.961210000000000
H 0.859673000000000 2.137007000000000 0.961210000000000

h2s_dimer_cs_2.wfx

