%nprocs=4
%mem=4GB
#p pbepbe aug-cc-pvtz output=wfx scf=(conver=6) int=(grid=ultrafine)

title

0 1
O -0.014815000000000 2.222219000000000 0.000000000000000
H 0.212404000000000 2.768199000000000 -0.755525000000000
H 0.212404000000000 2.768199000000000 0.755525000000000

h2s_h2o_cs_2.wfx

