%nprocs=4
%mem=4GB
#p pbepbe aug-cc-pvtz output=wfx scf=(conver=6) int=(grid=ultrafine)

title

0 1
S 0.080299000000000 1.333240000000000 0.025922000000000
H -0.629381000000000 2.461103000000000 0.007509000000000
H -1.015174000000000 0.578039000000000 -0.041582000000000
C 0.294674000000000 -3.191932000000000 0.011699000000000
H -0.788533000000000 -3.186130000000000 -0.065602000000000
H 0.646732000000000 -4.218409000000000 0.033792000000000
H 0.723259000000000 -2.681429000000000 -0.845220000000000
H 0.597034000000000 -2.686686000000000 0.923796000000000

h2s_ch4_125.wfx

