%nprocs=4
%mem=4GB
#p pbepbe aug-cc-pvtz output=wfx scf=(conver=6) int=(grid=ultrafine)

title

0 1
o -1.060537919819982 0.000000000000000 -0.210072984170359
o 0.000000000000000 0.000000000000000 0.420145968340719
o 1.060537919819982 0.000000000000000 -0.210072984170359

o3.wfx

