%nprocs=4
%mem=4GB
#p pbepbe aug-cc-pvtz output=wfx scf=(conver=6) int=(grid=ultrafine)

title

0 1
o 0.530425388548282 -1.889481571735435 0.000000000000000
c -0.087001564858096 1.344611184164365 0.600097954547695
c -0.087001564858096 1.344611184164365 -0.600097954547695
h -0.091209564557956 1.348660184105068 -1.664732874385441
h -0.091209564557956 1.348660184105068 1.664732874385441
o -0.087001564858096 -1.748530582401723 1.059554920237306
o -0.087001564858096 -1.748530582401723 -1.059554920237306

o3_c2h2_vdw.wfx

