%nprocs=4
%mem=4GB
#p pbepbe aug-cc-pvtz output=wfx scf=(conver=6) int=(grid=ultrafine)

title

0 1
o -0.525023389152221 -1.556325025525789 0.000000000000000
o 0.087573564900727 -1.183041053460040 1.050990920555888
o 0.087573564900727 -1.183041053460040 -1.050990920555888
c 0.087573564900727 0.833463794351471 0.614862953832217
c 0.087573564900727 0.833463794351471 -0.614862953832217
h 0.087364564774662 1.127739771871465 1.639238876518970
h 0.087364564774662 1.127739771871465 -1.639238876518970

o3_c2h2_ts.wfx

