%nprocs=4
%mem=4GB
#p pbepbe aug-cc-pvtz output=wfx scf=(conver=6) int=(grid=ultrafine)

title

0 1
o -0.524273960409762 -2.202568500394734 0.000000000000000
o 0.065047995094673 -1.961707518965133 1.060060920013337
o 0.065047995094673 -1.961707518965133 -1.060060920013337
c 0.065047995094673 1.017670256481396 0.664286949920677
c 0.065047995094673 1.017670256481396 -0.664286949920677
h 0.960126927731923 0.799033273158796 1.232073907156416
h 0.960126927731923 0.799033273158796 -1.232073907156416
h -0.828085937716392 1.246288239522299 1.232995906894728
h -0.828085937716392 1.246288239522299 -1.232995906894728

o3_c2h4_vdw.wfx

