&control
 title='crystal',
 prefix='crystal',
 pseudo_dir='../..',
 forc_conv_thr=1.0D-4,
 etot_conv_thr=1.0D-5,
/
&system
 ibrav=0,
 nat=    28,
 ntyp=  3,
 ecutwfc=80.0,
 ecutrho=800.0,
 vdw_corr='xdm',
 nosym=.true.,
/
&electrons
 conv_thr = 1d-10,
/
&ions
/
&cell
 press_conv_thr=0.01,
/
ATOMIC_SPECIES
C    12.010700 c.UPF
O    15.999400 o.UPF
H     1.007940 h.UPF

ATOMIC_POSITIONS crystal
C             0.0833034389        0.9323328195        0.9722508024
C             0.9166968637        0.4323323283        0.5277496511
C             0.2631655794        0.9665989415        0.7617570222
C             0.7368348000        0.4665989387        0.7382436360
C             0.9166918099        0.0677495427        0.0277397360
C             0.0833084815        0.5677490596        0.4722607176
C             0.7368338956        0.0334853091        0.2382365787
C             0.2631665356        0.5334846441        0.2617634039
O             0.2479681140        0.0802030196        0.6114066019
O             0.7520320414        0.5802025957        0.8885932166
O             0.4369713458        0.8617406225        0.7515283529
O             0.5630289318        0.3617402814        0.7484721067
O             0.7520421801        0.9198846726        0.3885963365
O             0.2479580840        0.4198844533        0.1114045348
O             0.5630292806        0.1383441541        0.2484666505
O             0.4369707692        0.6383437027        0.2515336881
H             0.9793079477        0.8299182094        0.9057283965
H             0.0206922931        0.3299177119        0.5942720406
H             0.1833472054        0.8949628719        0.1513892615
H             0.8166532444        0.3949623529        0.3486111172
H             0.5531526383        0.8850414086        0.6015981327
H             0.4468474616        0.3850409264        0.8984023235
H             0.0206934973        0.1701569792        0.0942822192
H             0.9793069146        0.6701564511        0.4057180308
H             0.8166517129        0.1051335331        0.8486077824
H             0.1833488874        0.6051328534        0.6513925106
H             0.4468510666        0.1150518942        0.3984042304
H             0.5531488896        0.6150514126        0.1015956687

K_POINTS automatic
5 3 5  1 1 1

CELL_PARAMETERS bohr
  10.457369294   0.000000655  -0.009166362
   0.000000932  16.282488958  -0.000001059
  -0.232836488  -0.000000609   9.521712845
