&control
 title='crystal',
 prefix='crystal',
 pseudo_dir='.',
 calculation='vc-relax',
/
&system
 ibrav=0,
 celldm(1)=1.0,
 nat=    70,
 ntyp=  4,
 ecutwfc=60.0,
 ecutrho=600.0,
 xdm=.true.,
 xdm_a1=0.4073,
 xdm_a2=2.4150,
/
&electrons
 conv_thr = 1d-8,
/
&ions
/
&cell
/
ATOMIC_SPECIES
h      1.007940 h.UPF
c     12.010700 c.UPF
n     14.006700 n.UPF
o     15.999400 o.UPF

ATOMIC_POSITIONS crystal
n     0.69720998     0.38525006     0.17346935
n     0.30279000     0.61474997     0.82653066
c     0.84516088     0.48499310     0.17010117
c     0.15483909     0.51500693     0.82989883
c     0.74799695     0.59264886     0.14711899
c     0.25200302     0.40735117     0.85288102
n     0.57224480     0.59935073     0.19017306
n     0.42775517     0.40064930     0.80982694
c     0.49210672     0.52217019     0.26799154
c     0.50789325     0.47782984     0.73200846
c     0.60338443     0.42025375     0.30001105
c     0.39661555     0.57974628     0.69998896
n     0.61349075     0.19902201     0.86563986
n     0.38650923     0.80097802     0.13436015
c     0.45254075     0.10598213     0.86973562
c     0.54745923     0.89401790     0.13026439
c     0.25790785     0.06987720     0.71361166
c     0.74209213     0.93012283     0.28638835
n     0.27726034     0.09287661     0.56812319
n     0.72273963     0.90712342     0.43187681
c     0.46744760     0.13350257     0.55123443
c     0.53255238     0.86649746     0.44876558
c     0.66123834     0.16890673     0.71036827
c     0.33876164     0.83109330     0.28963173
c     0.80697153     0.22103013     0.01641906
c     0.19302844     0.77896990     0.98358094
c     0.77965160     0.27482781     0.18291839
c     0.22034838     0.72517222     0.81708162
c     0.98613968     0.28816089     0.33140428
c     0.01386030     0.71183914     0.66859573
o     0.82169716     0.67319936     0.09559833
o     0.17830282     0.32680067     0.90440168
o     0.34144179     0.53969858     0.31092520
o     0.65855819     0.46030145     0.68907481
o     0.09045599     0.01737973     0.71490695
o     0.90954399     0.98262030     0.28509305
o     0.47481515     0.13490189     0.41115612
o     0.52518482     0.86509814     0.58884389
h     0.90014290     0.46021525     0.06470696
h     0.09985708     0.53978478     0.93529305
h     0.98918176     0.51543646     0.28511106
h     0.01081822     0.48456357     0.71488895
h     0.49600247     0.67024704     0.16040097
h     0.50399751     0.32975299     0.83959904
h     0.48751528     0.34492971     0.29620009
h     0.51248470     0.65507032     0.70379992
h     0.71745307     0.44948372     0.43201755
h     0.28254690     0.55051631     0.56798246
h     0.51246797     0.02306826     0.88383105
h     0.48753200     0.97693177     0.11616896
h     0.40130658     0.13671170     0.97546104
h     0.59869340     0.86328833     0.02453896
h     0.14440127     0.05997985     0.45890019
h     0.85559871     0.94002017     0.54109982
h     0.74714237     0.09454847     0.70875635
h     0.25285761     0.90545155     0.29124366
h     0.76211505     0.24655372     0.70219466
h     0.23788492     0.75344631     0.29780535
h     0.86308797     0.13669914     0.02630405
h     0.13691201     0.86330089     0.97369596
h     0.92937783     0.27984463     0.99635019
h     0.07062215     0.72015540     0.00364982
h     0.65826239     0.21357070     0.20144769
h     0.34173759     0.78642933     0.79855231
h     0.96627478     0.31799653     0.45298291
h     0.03372520     0.68200350     0.54701710
h     0.03325659     0.20164715     0.32765634
h     0.96674339     0.79835288     0.67234367
h     0.11452044     0.35166093     0.32577728
h     0.88547953     0.64833910     0.67422273

K_POINTS automatic
2 2 2 1 1 1

CELL_PARAMETERS cubic
   12.959530000000     0.033449000000    -0.087926000000
   -2.804892000000    21.829278000000    -0.046765000000
   -5.169154000000    -3.768808000000    14.990487000000
