&control
 title='crystal',
 prefix='crystal',
 pseudo_dir='../..',
 forc_conv_thr=1.0D-4,
 etot_conv_thr=1.0D-5,
/
&system
 ibrav=0,
 nat=    48,
 ntyp=  4,
 ecutwfc=80.0,
 ecutrho=800.0,
 vdw_corr='xdm',
 nosym=.true.,
/
&electrons
 conv_thr = 1d-10,
/
&ions
/
&cell
 press_conv_thr=0.01,
/
ATOMIC_SPECIES
N    14.006700 n.UPF
C    12.010700 c.UPF
O    15.999400 o.UPF
H     1.007940 h.UPF

ATOMIC_POSITIONS crystal
N             0.0155421665        0.6050470562        0.3503005646
N             0.4844569665        0.1050465698        0.1496993186
N             0.9844571216        0.3949522920        0.6496991073
N             0.5155422010        0.8949533857        0.8503010400
N             0.0114349964        0.7926660390        0.3856879318
N             0.4885639682        0.2926672499        0.1143110941
N             0.9885640382        0.2073326119        0.6143117965
N             0.5114354039        0.7073335031        0.8856891482
C             0.9983664208        0.9505800353        0.3063328631
C             0.5016327145        0.4505781035        0.1936676766
C             0.0016327228        0.0494214284        0.6936675109
C             0.4983668796        0.5494197560        0.8063329766
C             0.9802408860        0.9094236503        0.1699982105
C             0.5197584698        0.4094242912        0.3300018684
C             0.0197583596        0.0905770196        0.8300011146
C             0.4802408006        0.5905757471        0.6699980371
C             0.9855342385        0.7223930744        0.1299616709
C             0.5144652395        0.2223934009        0.3700372906
C             0.0144652052        0.2776049488        0.8700372411
C             0.4855338599        0.7776074517        0.6299620596
C             0.0036418770        0.5712712016        0.2250756491
C             0.4963569961        0.0712709700        0.2749241851
C             0.9963576496        0.4287272206        0.7749240966
C             0.5036422953        0.9287300364        0.7250762537
O             0.0024827635        0.1209677840        0.3548044796
O             0.4975164620        0.6209700448        0.1451953144
O             0.9975163909        0.8790295097        0.6451945437
O             0.5024827678        0.3790322957        0.8548044113
O             0.0044770248        0.3878492957        0.1838819254
O             0.4955222161        0.8878483329        0.3161182240
O             0.9955222876        0.6121509481        0.8161175961
O             0.5044769810        0.1121505698        0.6838819150
H             0.0128912686        0.8157284769        0.4839421554
H             0.4871077741        0.3157289578        0.0160564836
H             0.9871078979        0.1842708800        0.5160572812
H             0.5128915227        0.6842711868        0.9839431545
H             0.9615307958        0.0307102185        0.1020142539
H             0.5384688012        0.5307117135        0.3979860320
H             0.0384685965        0.9692885832        0.8979855805
H             0.4615306837        0.4692886999        0.6020142477
H             0.9745004225        0.6844676982        0.0277465747
H             0.5254990336        0.1844682794        0.4722530320
H             0.0254990255        0.3155317713        0.9722533533
H             0.4745002649        0.8155318394        0.5277471610
H             0.0060283745        0.2904442763        0.2585326957
H             0.4939707979        0.7904454332        0.2414670455
H             0.9939709337        0.7095546742        0.7414671511
H             0.5060283561        0.2095549874        0.7585330327

K_POINTS automatic
4 4 3  1 1 1

CELL_PARAMETERS bohr
  12.257449782  -0.000001144   0.012168959
  -0.000001279  13.023016683   0.000004932
  -5.205927546   0.000007843  19.145658240
