&control
 title='crystal',
 prefix='crystal',
 pseudo_dir='..',
 calculation='vc-relax',
 etot_conv_thr=1.0D-5,
/
&system
 ibrav=0,
 celldm(1)=1.0,
 nat=    96,
 ntyp=  4,
 ecutwfc=80.0,
 ecutrho=800.0,
 xdm=.true.,
 xdm_a1=0.6512,
 xdm_a2=1.4633,
/
&electrons
 conv_thr = 1d-8,
/
&ions
/
&cell
/
ATOMIC_SPECIES
h      1.007940 h.UPF
c     12.010700 c.UPF
n     14.006700 n.UPF
o     15.999400 o.UPF

ATOMIC_POSITIONS crystal
c        0.094451212   0.793126756   0.281907920
c        0.405548788   0.293126756   0.781907920
c        0.594451212   0.706873244   0.281907920
c        0.905548788   0.206873244   0.781907920
c        0.066325241   0.844002092   0.073362939
c        0.433674759   0.344002092   0.573362939
c        0.566325241   0.655997908   0.073362939
c        0.933674759   0.155997908   0.573362939
c        0.000909150   0.819298239   0.035915503
c        0.499090850   0.319298239   0.535915503
c        0.500909150   0.680701761   0.035915503
c        0.999090850   0.180701761   0.535915503
c        0.962018273   0.742618749   0.208822909
c        0.537981727   0.242618749   0.708822909
c        0.462018273   0.757381251   0.208822909
c        0.037981727   0.257381251   0.708822909
c        0.989447744   0.684518035   0.415570099
c        0.510552256   0.184518035   0.915570099
c        0.489447744   0.815481965   0.415570099
c        0.010552256   0.315481965   0.915570099
c        0.055015801   0.711463719   0.450773116
c        0.444984199   0.211463719   0.950773116
c        0.555015801   0.788536281   0.450773116
c        0.944984199   0.288536281   0.950773116
c        0.164843754   0.831004808   0.322256317
c        0.335156246   0.331004808   0.822256317
c        0.664843754   0.668995192   0.322256317
c        0.835156246   0.168995192   0.822256317
c        0.208894831   0.649976647   0.271542512
c        0.291105169   0.149976647   0.771542512
c        0.708894831   0.850023353   0.271542512
c        0.791105169   0.350023353   0.771542512
c        0.196933368   0.564460150   0.033721582
c        0.303066632   0.064460150   0.533721582
c        0.696933368   0.935539850   0.033721582
c        0.803066632   0.435539850   0.533721582
h        0.874180774   0.679484083   0.308877993
h        0.625819226   0.179484083   0.808877993
h        0.374180774   0.820515917   0.308877993
h        0.125819226   0.320515917   0.808877993
h        0.154013746   0.429336876   0.440989077
h        0.345986254   0.929336876   0.940989077
h        0.654013746   0.070663124   0.440989077
h        0.845986254   0.570663124   0.940989077
h        0.206646841   0.551676769   0.609049887
h        0.293353159   0.051676769   0.109049887
h        0.706646841   0.948323231   0.609049887
h        0.793353159   0.448323231   0.109049887
h        0.232068418   0.370187259   0.417292623
h        0.267931582   0.870187259   0.917292623
h        0.732068418   0.129812741   0.417292623
h        0.767931582   0.629812741   0.917292623
h        0.095889228   0.909189669   0.939646710
h        0.404110772   0.409189669   0.439646710
h        0.595889228   0.590810331   0.939646710
h        0.904110772   0.090810331   0.439646710
h        0.979271481   0.863963838   0.875626084
h        0.520728519   0.363963838   0.375626084
h        0.479271481   0.636036162   0.875626084
h        0.020728519   0.136036162   0.375626084
h        0.959370899   0.623405970   0.550056698
h        0.540629101   0.123405970   0.050056698
h        0.459370899   0.876594030   0.550056698
h        0.040629101   0.376594030   0.050056698
h        0.075019019   0.673584247   0.616257049
h        0.424980981   0.173584247   0.116257049
h        0.575019019   0.826415753   0.616257049
h        0.924980981   0.326415753   0.116257049
h        0.173029734   0.876288925   0.499308300
h        0.326970266   0.376288925   0.999308300
h        0.673029734   0.623711075   0.499308300
h        0.826970266   0.123711075   0.999308300
h        0.180840980   0.956545874   0.216241114
h        0.319159020   0.456545874   0.716241114
h        0.680840980   0.543454126   0.216241114
h        0.819159020   0.043454126   0.716241114
h        0.259104277   0.698031812   0.286506846
h        0.240895723   0.198031812   0.786506846
h        0.759104277   0.801968188   0.286506846
h        0.740895723   0.301968188   0.786506846
n        0.199761928   0.489867341   0.445063975
n        0.300238072   0.989867341   0.945063975
n        0.699761928   0.010132659   0.445063975
n        0.800238072   0.510132659   0.945063975
o        0.897313001   0.730044341   0.169747336
o        0.602686999   0.230044341   0.669747336
o        0.397313001   0.769955659   0.169747336
o        0.102686999   0.269955659   0.669747336
o        0.169891631   0.395555626   0.020119918
o        0.330108369   0.895555626   0.520119918
o        0.669891631   0.104444374   0.020119918
o        0.830108369   0.604444374   0.520119918
o        0.214960293   0.673398249   0.867013494
o        0.285039707   0.173398249   0.367013494
o        0.714960293   0.826601751   0.867013494
o        0.785039707   0.326601751   0.367013494

K_POINTS automatic
4 4 4 1 1 1

CELL_PARAMETERS cubic
  39.372057788   0.000000000   0.000000000
   0.000000000  12.596248946   0.000000000
   0.000000000   0.000000000  11.124729228
