%nprocs=4
%mem=2GB
#p pbepbe aug-cc-pvtz output=wfx scf=(conver=6) int=(grid=ultrafine)

title

0 2
C	.000000 .264813 .000000
H	1.053429 .516668 .000000
H	-.526627 .517025 .912250
H	-.526627 .517025 -.912250
H	-.000260 -1.117771 .000000
H	.000084 -2.021825 .000000

bh22ts3.wfx


