%nprocs=4
%mem=2GB
#p pbepbe aug-cc-pvtz output=wfx scf=(conver=6) int=(grid=ultrafine)

title

0 2
H	-1.477576 -.209398 .000454
N	-.604481 .337143 -.000079
N	.327017 -.459576 .000046
H	1.270678 .139685 -.000812
H	2.149144 .926742 .000587

bh22ts15.wfx


