%nprocs=4
%mem=2GB
#p pbepbe aug-cc-pvtz output=wfx scf=(conver=6) int=(grid=ultrafine)

title

0 1
H	-0.984975 -0.915252 0.000000
N	0.000000 -0.621592 0.000000
N	0.000000 0.621592 0.000000
H	0.984975 0.915252 0.000000

bh22n2h2.wfx


