%nprocs=4
%mem=2GB
#p pbepbe aug-cc-pvtz output=wfx scf=(conver=6) int=(grid=ultrafine)

title

0 1
N	0.000000 0.000000 0.112890
H	0.000000 0.938024 -0.263409
H	0.812353 -0.469012 -0.263409
H	-0.812353 -0.469012 -0.263409

bh22nh3.wfx


