%nprocs=4
%mem=2GB
#p pbepbe aug-cc-pvtz output=wfx scf=(conver=6) int=(grid=ultrafine)

title

0 1
Cl	0.000000 0.000000 0.070803
H	0.000000 0.000000 -1.203645

bh22hcl.wfx


