%nprocs=4
%mem=2GB
#p pbepbe aug-cc-pvtz output=wfx scf=(conver=6) int=(grid=ultrafine)

title

0 1
C	-0.046423 0.663069 0.000000
O	-0.046423 -0.755063 0.000000
H	-1.086956 0.975938 0.000000
H	0.860592 -1.057039 0.000000
H	0.438145 1.071594 0.889539
H	0.438145 1.071594 -0.889539

bh22ch3oh.wfx


