%nprocs=4
%mem=2GB
#p pbepbe aug-cc-pvtz output=wfx scf=(conver=6) int=(grid=ultrafine)

title

0 2
H	0.874485 -0.985654 0.000000
N	-0.062463 -0.518712 0.000000
N	-0.062463 0.659520 0.000000

bh22n2h.wfx


