%nprocs=4
%mem=2GB
#p pbepbe aug-cc-pvtz output=wfx scf=(conver=6) int=(grid=ultrafine)

title

0 1
H	0.000000 0.000000 0.370938
H	0.000000 0.000000 -0.370938

bh22h2.wfx


