%nprocs=4
%mem=2GB
#p pbepbe aug-cc-pvtz output=wfx scf=(conver=6) int=(grid=ultrafine)

title

0 2
H	.146568 -1.128390 .000000
F	.000000 .330422 .000000
H	-.146568 -1.845410 .000000

bh22ts10.wfx


