%nprocs=4
%mem=2GB
#p pbepbe aug-cc-pvtz output=wfx scf=(conver=6) int=(grid=ultrafine)

title

0 3
Cl	.018820 -.817301 .000000
H	-.470488 .569480 .000000
O	.018820 1.665579 .000000

bh22ts17.wfx


