%nprocs=4
%mem=2GB
#p pbepbe aug-cc-pvtz output=wfx scf=(conver=6) int=(grid=ultrafine)

title

0 2
H	0.000480 -1.340627 0.000000
Cl	0.000000 0.203252 0.000000
H	-0.000480 -2.114659 0.000000

bh22ts1.wfx


