%nprocs=4
%mem=2GB
#p pbepbe aug-cc-pvtz output=wfx scf=(conver=6) int=(grid=ultrafine)

title

0 2
N	0.000000 0.000000 0.141415
H	0.000000 0.802314 -0.494954
H	0.000000 -0.802314 -0.494954

bh22nh2.wfx


