%nprocs=4
%mem=2GB
#p pbepbe aug-cc-pvtz output=wfx scf=(conver=6) int=(grid=ultrafine)

title

0 1
S	0.000000 0.000000 0.102519
H	0.000000 0.966249 -0.820154
H	0.000000 -0.966249 -0.820154

bh22h2s.wfx


