%nprocs=4
%mem=2GB
#p pbepbe aug-cc-pvtz output=wfx scf=(conver=6) int=(grid=ultrafine)

title

0 2
P	.217429 .000088 -.111249
H	.246609 1.034668 .852164
H	.262661 -1.025058 .861623
H	-1.266418 -.010952 -.150626
H	-2.504290 .000028 .105575

bh22ts12.wfx


