%nprocs=4
%mem=2GB
#p pbepbe aug-cc-pvtz output=wfx scf=(conver=6) int=(grid=ultrafine)

title

0 3
C	0.000290 -1.142289 0.000000
H	-1.055957 -1.384735 0.000000
H	0.520167 -1.407389 0.912447
H	0.520167 -1.407389 -0.912447
H	0.011560 0.160099 0.000000
O	0.000290 1.361643 0.000000

bh22ts11.wfx


