%nprocs=4
%mem=2GB
#p pbepbe aug-cc-pvtz output=wfx scf=(conver=6) int=(grid=ultrafine)

title

0 2
H	0.000000 0.000000 0.000000
H	0.000000 0.000000 0.929474
H	0.000000 0.000000 -0.929474

bh22ts6.wfx


