%nprocs=4
%mem=2GB
#p pbepbe aug-cc-pvtz output=wfx scf=(conver=6) int=(grid=ultrafine)

title

0 2
C	1.458334 -.446365 .025478
C	.469423 .697422 -.027493
O	-1.853037 -.314659 -.053055
H	1.301764 -1.061079 .910737
H	1.366585 -1.086189 -.851118
H	2.482245 -.066879 .057150
H	.471069 1.325443 .861037
H	.533524 1.303495 -.928560
H	-.630232 .207816 -.078465
H	-2.267207 .388321 .465751

bh22ts9.wfx


