%nprocs=4
%mem=2GB
#p pbepbe aug-cc-pvtz output=wfx scf=(conver=6) int=(grid=ultrafine)

title

0 1
C	-0.763092 0.000000 0.000000
C	0.763092 0.000000 0.000000
H	1.158312 -0.443642 -0.914097
H	-1.158309 -1.013325 -0.074640
H	1.158311 -0.569815 0.841253
H	1.158308 1.013455 0.072848
H	-1.158310 0.442020 0.914883
H	-1.158310 0.571304 -0.840243

bh22c2h6.wfx


