%nprocs=4
%mem=2GB
#p pbepbe aug-cc-pvtz output=wfx scf=(conver=6) int=(grid=ultrafine)

title

0 2
O	-.301064 -.108049 -.000008
H	-.427945 .851569 .000016
H	1.015486 -.100367 .000119
H	1.820968 .113187 -.000073

bh22ts2.wfx


