%nprocs=4
%mem=2GB
#p pbepbe aug-cc-pvtz output=wfx scf=(conver=6) int=(grid=ultrafine)

title

0 2
O	0.000000 0.000000 0.107655
H	0.000000 0.000000 -0.861243

bh22oh.wfx


