%nprocs=4
%mem=2GB
#p pbepbe aug-cc-pvtz output=wfx scf=(conver=6) int=(grid=ultrafine)

title

0 2
H	1.262097 -.220097 .000000
S	.000000 .223153 .000000
H	-.500576 -1.115445 .000000
H	-.761521 -2.234913 .000000

bh22ts16.wfx


