&control
 title='crystal',
 prefix='crystal',
 pseudo_dir='../..',
 forc_conv_thr=1.0D-4,
 etot_conv_thr=1.0D-5,
/
&system
 ibrav=0,
 nat=    48,
 ntyp=  3,
 ecutwfc=80.0,
 ecutrho=800.0,
 vdw_corr='xdm',
 nosym=.true.,
/
&electrons
 conv_thr = 1d-10,
/
&ions
/
&cell
 press_conv_thr=0.01,
/
ATOMIC_SPECIES
C    12.010700 c.UPF
O    15.999400 o.UPF
H     1.007940 h.UPF

ATOMIC_POSITIONS crystal
C             0.4596613762        0.3493512555        0.2435390818
C             0.5403384723        0.8493473017        0.2564599923
C             0.5403375303        0.6506472631        0.7564600355
C             0.4596606069        0.1506537147        0.7435391764
C             0.3034206276        0.4339901857        0.2476463144
C             0.6965763295        0.9339894120        0.2523526918
C             0.6965781332        0.5660102365        0.7523527537
C             0.3034222128        0.0660109452        0.7476465446
C             0.1308664369        0.3966215354        0.2485882714
C             0.8691338483        0.8966205892        0.2514107441
C             0.8691328818        0.6033786736        0.7514109057
C             0.1308660868        0.1033796033        0.7485885667
C             0.0409537528        0.2632865749        0.2441185328
C             0.9590391345        0.7632850308        0.2558807041
C             0.9590434194        0.7367133313        0.7558807404
C             0.0409590965        0.2367153814        0.7441185139
O             0.6040328519        0.4172052615        0.2393212505
O             0.3959641983        0.9172046608        0.2606782090
O             0.3959659229        0.5827952174        0.7606780071
O             0.6040347265        0.0827955572        0.7393209732
O             0.4608835244        0.2260262190        0.2460089282
O             0.5391142261        0.7260273722        0.2539900881
O             0.5391152990        0.7739753371        0.7539901931
O             0.4608848753        0.2739722535        0.7460092613
O             0.1339190318        0.1556363775        0.2402434513
O             0.8660809954        0.6556361472        0.2597559751
O             0.8660802260        0.8443637830        0.7597560180
O             0.1339179776        0.3443640682        0.7402432942
O             0.8716663875        0.2522682883        0.2422171925
O             0.1283369017        0.7522672020        0.2577824296
O             0.1283346197        0.7477320065        0.7577822742
O             0.8716630475        0.2477329723        0.7422168737
H             0.3380262009        0.5396428369        0.2519716967
H             0.6619721679        0.0396419262        0.2480271860
H             0.6619723818        0.4603572291        0.7480272983
H             0.3380269885        0.9603583335        0.7519720524
H             0.0360504746        0.4755302806        0.2520129002
H             0.9639472188        0.9755290678        0.2479860721
H             0.9639482417        0.5244698874        0.7479862070
H             0.0360519260        0.0244710905        0.7520132759
H             0.7153353267        0.3549642764        0.2406031070
H             0.2846641250        0.8549634680        0.2593965082
H             0.2846640731        0.6450357418        0.7593962362
H             0.7153350746        0.1450369445        0.7406027058
H             0.2754033013        0.1778925264        0.2428887090
H             0.7245946232        0.6778915330        0.2571104577
H             0.7245962253        0.8221076308        0.7571105936
H             0.2754046636        0.3221087686        0.7428888347

K_POINTS automatic
7 3 4  1 1 1

CELL_PARAMETERS bohr
  14.048327508  -0.000020498  -0.082532640
  -0.000027728  19.125206829   0.000000109
 -19.765870155   0.000027861  11.755960924
