&control
 title='crystal',
 prefix='crystal',
 pseudo_dir='.',
 calculation='vc-relax',
/
&system
 ibrav=0,
 celldm(1)=1.0,
 nat=    88,
 ntyp=  4,
 ecutwfc=60.0,
 ecutrho=600.0,
 xdm=.true.,
 xdm_a1=0.4073,
 xdm_a2=2.4150,
/
&electrons
 conv_thr = 1d-8,
/
&ions
/
&cell
/
ATOMIC_SPECIES
h      1.007940 h.UPF
c     12.010700 c.UPF
o     15.999400 o.UPF
f     18.998403 f.UPF

ATOMIC_POSITIONS crystal
f     0.91133178     0.10168931     0.38031813
f     0.08866817     0.89831070     0.61968186
f     0.91133176     0.39831070     0.88031814
f     0.08866819     0.60168932     0.11968186
o     0.25544587     0.50174304     0.44837279
o     0.74455408     0.49825698     0.55162720
o     0.25544585     0.99825697     0.94837280
o     0.74455410     0.00174305     0.05162720
h     0.13598478     0.58415742     0.47180907
h     0.86401517     0.41584259     0.52819093
h     0.13598476     0.91584258     0.97180907
h     0.86401519     0.08415743     0.02819093
o     0.04814139     0.28356105     0.49923406
o     0.95185856     0.71643897     0.50076594
o     0.04814137     0.21643896     0.99923406
o     0.95185858     0.78356105     0.00076594
c     0.33330821     0.20673091     0.41851333
c     0.66669174     0.79326910     0.58148667
c     0.33330820     0.29326909     0.91851333
c     0.66669175     0.70673092     0.08148666
h     0.49678491     0.25984590     0.39680700
h     0.50321504     0.74015411     0.60319300
h     0.49678489     0.24015411     0.89680700
h     0.50321506     0.75984591     0.10319300
c     0.20216816     0.33213291     0.45976462
c     0.79783179     0.66786710     0.54023538
c     0.20216814     0.16786710     0.95976462
c     0.79783181     0.83213292     0.04023537
c     0.04277366     0.16017419     0.25398274
c     0.95722629     0.83982582     0.74601725
c     0.04277364     0.33982581     0.75398275
c     0.95722631     0.66017420     0.24601725
h     0.87687934     0.22448084     0.27036024
h     0.12312061     0.77551917     0.72963976
h     0.87687932     0.27551917     0.77036024
h     0.12312063     0.72448085     0.22963976
c     0.29752332     0.07503259     0.16568414
c     0.70247663     0.92496742     0.83431585
c     0.29752330     0.42496742     0.66568415
c     0.70247665     0.57503260     0.33431585
h     0.33176525     0.07355300     0.11355612
h     0.66823470     0.92644702     0.88644387
h     0.33176523     0.42644701     0.61355613
h     0.66823472     0.57355300     0.38644387
c     0.21350116     0.08055230     0.30014509
c     0.78649879     0.91944771     0.69985491
c     0.21350114     0.41944770     0.80014509
c     0.78649881     0.58055231     0.19985490
c     0.08382868     0.15590640     0.18715852
c     0.91617127     0.84409361     0.81284148
c     0.08382866     0.34409360     0.68715852
c     0.91617129     0.65590641     0.31284148
h     0.94816893     0.21616313     0.15181611
h     0.05183102     0.78383688     0.84818388
h     0.94816891     0.28383687     0.65181612
h     0.05183104     0.71616314     0.34818388
c     0.46966589     0.99840165     0.21169799
c     0.53033406     0.00159837     0.78830201
c     0.46966587     0.50159836     0.71169799
c     0.53033408     0.49840165     0.28830200
h     0.63876890     0.93725391     0.19595922
h     0.36123105     0.06274611     0.80404078
h     0.63876889     0.56274610     0.69595922
h     0.36123106     0.43725391     0.30404078
c     0.42797867     0.00004642     0.27856420
c     0.57202128     0.99995360     0.72143580
c     0.42797865     0.49995359     0.77856420
c     0.57202130     0.50004642     0.22143580
h     0.56409788     0.93837996     0.31336957
h     0.43590207     0.06162005     0.68663042
h     0.56409786     0.56162005     0.81336958
h     0.43590209     0.43837997     0.18663042
c     0.16554621     0.08882956     0.37105137
c     0.83445374     0.91117045     0.62894863
c     0.16554619     0.41117045     0.87105137
c     0.83445376     0.58882957     0.12894863
c     0.31476715     0.00636735     0.42700036
c     0.68523280     0.99363267     0.57299964
c     0.31476713     0.49363266     0.92700036
c     0.68523282     0.50636736     0.07299964
h     0.47892891     0.92831122     0.41749413
h     0.52107104     0.07168879     0.58250587
h     0.47892889     0.57168878     0.91749413
h     0.52107106     0.42831123     0.08250587
h     0.20721647     0.95976599     0.46704585
h     0.79278348     0.04023402     0.53295414
h     0.20721645     0.54023401     0.96704586
h     0.79278350     0.45976600     0.03295414

K_POINTS automatic
2 2 2 1 1 1

CELL_PARAMETERS cubic
   10.165425000000     0.000000000000    -0.015628000000
    0.000000000000    14.154824000000     0.000000000000
   -2.548048000000     0.000000000000    38.361017000000
