&control
 title='crystal',
 prefix='crystal',
 pseudo_dir='.',
 calculation='vc-relax',
/
&system
 ibrav=0,
 celldm(1)=1.0,
 nat=    42,
 ntyp=  4,
 ecutwfc=60.0,
 ecutrho=600.0,
 xdm=.true.,
 xdm_a1=0.4073,
 xdm_a2=2.4150,
/
&electrons
 conv_thr = 1d-8,
/
&ions
/
&cell
/
ATOMIC_SPECIES
h      1.007940 h.UPF
c     12.010700 c.UPF
n     14.006700 n.UPF
o     15.999400 o.UPF

ATOMIC_POSITIONS crystal
c     0.42291644     0.85963642     0.35341632
c     0.57708359     0.14036362     0.64658364
o     0.20460627     0.92861336     0.34370266
o     0.79539376     0.07138668     0.65629730
n     0.60235501     0.75601757     0.24066797
n     0.39764502     0.24398247     0.75933200
c     0.52986461     0.73521412     0.10843780
c     0.47013542     0.26478591     0.89156216
h     0.69328103     0.64950503     0.02729323
h     0.30671901     0.35049500     0.97270673
h     0.39047301     0.66136407     0.11973392
h     0.60952702     0.33863597     0.88026604
h     0.49909882     0.29365847     0.23952587
h     0.50090121     0.70634156     0.76047409
c     0.86488925     0.67271501     0.23450992
c     0.13511078     0.32728503     0.76549004
h     0.99944832     0.87103465     0.84959362
h     0.00055171     0.12896539     0.15040634
h     0.80780197     0.47447816     0.52425307
h     0.19219807     0.52552187     0.47574689
h     0.90615124     0.70201524     0.33490663
h     0.09384879     0.29798480     0.66509333
c     0.48141463     0.89850585     0.49492390
c     0.51858540     0.10149418     0.50507606
h     0.65122246     0.79088884     0.50573126
h     0.34877757     0.20911120     0.49426870
o     0.29011812     0.88831978     0.60692638
o     0.70988191     0.11168025     0.39307358
h     0.12629860     0.95559567     0.59049300
h     0.87370143     0.04440436     0.40950697
h     0.45131161     0.87735066     0.07618920
h     0.54868842     0.12264937     0.92381077
h     0.60465093     0.64964752     0.79002329
h     0.39534910     0.35035252     0.20997668
h     0.92435554     0.51494602     0.20439052
h     0.07564449     0.48505402     0.79560944
h     0.02830522     0.26279886     0.84286216
h     0.97169481     0.73720117     0.15713780
h     0.21054371     0.60062429     0.52399496
h     0.78945632     0.39937575     0.47600501
h     0.00582836     0.14947932     0.07614050
h     0.99417167     0.85052072     0.92385946

K_POINTS automatic
2 2 2 1 1 1

CELL_PARAMETERS cubic
   11.035137000000     0.085578000000    -0.518727000000
    3.894513000000    12.853043000000    -3.105131000000
    4.806284000000     1.657187000000    17.850856000000
