&control
 title='crystal',
 prefix='crystal',
 pseudo_dir='.',
 calculation='vc-relax',
/
&system
 ibrav=0,
 celldm(1)=1.0,
 nat=    88,
 ntyp=  5,
 ecutwfc=60.0,
 ecutrho=600.0,
 xdm=.true.,
 xdm_a1=0.4073,
 xdm_a2=2.4150,
/
&electrons
 conv_thr = 1d-8,
/
&ions
/
&cell
/
ATOMIC_SPECIES
h      1.007940 h.UPF
c     12.010700 c.UPF
n     14.006700 n.UPF
o     15.999400 o.UPF
s     32.065000 s.UPF

ATOMIC_POSITIONS crystal
s     0.00641193     0.15520902     0.66958077
s     0.50642586     0.34476755     0.33042880
s     0.99359636     0.65523179     0.83042787
s     0.49355065     0.84479539     0.16958099
n     0.07423739     0.11212855     0.57925150
n     0.57419371     0.38783712     0.42076134
n     0.92576862     0.61216613     0.92075869
n     0.42580136     0.88787529     0.07924904
o     0.75494302     0.20046238     0.67850541
o     0.25497918     0.29943644     0.32149574
o     0.24506235     0.70051470     0.82150170
o     0.74502070     0.79948238     0.17851170
o     0.09679493     0.02238503     0.70763797
o     0.59672454     0.47762255     0.29238162
o     0.90323488     0.52239379     0.79237721
o     0.40324918     0.97762422     0.20763263
o     0.95266545     0.22727832     0.53321727
o     0.45271132     0.27262850     0.46678970
o     0.04725406     0.72736581     0.96679133
o     0.54737002     0.77271755     0.03321852
c     0.85448476     0.07801156     0.53837042
c     0.35441865     0.42185956     0.46164880
c     0.14552694     0.57812938     0.96164993
c     0.64557145     0.92197867     0.03837206
c     0.87236165     0.97556803     0.47610686
c     0.37230687     0.52431249     0.52391048
c     0.12765264     0.47567364     0.02391019
c     0.62768145     0.02442039     0.97610712
c     0.68362067     0.87349308     0.46348716
c     0.18359340     0.62642193     0.53651341
c     0.31638235     0.37357723     0.03650702
c     0.81640606     0.12650829     0.96348098
c     0.69169181     0.77857761     0.40398035
c     0.19176758     0.72141461     0.59599573
c     0.30826596     0.27859372     0.09599295
c     0.80827625     0.22143208     0.90397692
c     0.88687880     0.78544266     0.35702077
c     0.38697038     0.71458749     0.64294202
c     0.11308615     0.28541491     0.14294875
c     0.61306611     0.21455935     0.85702712
c     0.07485859     0.88790145     0.36962793
c     0.57489712     0.61207566     0.63035752
c     0.92512932     0.38790329     0.13036703
c     0.42511648     0.11207757     0.86963753
c     0.06867821     0.98242585     0.42913113
c     0.56862774     0.51748444     0.57087667
c     0.93134880     0.48249135     0.07088394
c     0.43134774     0.01755109     0.92913929
c     0.19679339     0.31321453     0.68283402
c     0.69689657     0.18681607     0.31717718
c     0.80320126     0.81321340     0.81717035
c     0.30310436     0.68681334     0.18282678
h     0.68575568     0.07304389     0.56855597
h     0.18568072     0.42678536     0.43146885
h     0.31426790     0.57319834     0.93147137
h     0.81429722     0.92693964     0.06855923
h     0.53046721     0.86905250     0.49988684
h     0.03043172     0.63084476     0.50012170
h     0.46952542     0.36916213     0.00010756
h     0.96957826     0.13095738     0.99987261
h     0.54446233     0.70018445     0.39366697
h     0.04457817     0.79984440     0.60629263
h     0.45547878     0.20018061     0.10628537
h     0.95548197     0.29984171     0.89365849
h     0.88922109     0.71230390     0.31028513
h     0.38939484     0.78779713     0.68965466
h     0.11070914     0.21221773     0.18966615
h     0.61067641     0.28770932     0.81029557
h     0.22408898     0.89657064     0.33207251
h     0.72414234     0.60343912     0.66790479
h     0.77589937     0.39653265     0.16792037
h     0.27587118     0.10339964     0.83208831
h     0.21179321     0.06447234     0.43859885
h     0.71171213     0.43541175     0.56142071
h     0.78824126     0.56454819     0.06143263
h     0.28825671     0.93548847     0.93861206
h     0.16168255     0.35302076     0.73717520
h     0.66180760     0.14699333     0.26283688
h     0.83831838     0.85302673     0.76283033
h     0.33818597     0.64699776     0.23716836
h     0.14394471     0.40119837     0.64477079
h     0.64409011     0.09882174     0.35524226
h     0.85603066     0.90120264     0.85523478
h     0.35592882     0.59882471     0.14476323
h     0.38379529     0.27729281     0.67535810
h     0.88388004     0.22278163     0.32465345
h     0.61620094     0.77727752     0.82464313
h     0.11611909     0.72276613     0.17534732

K_POINTS automatic
2 2 2 1 1 1

CELL_PARAMETERS cubic
   10.471723000000    -0.000259000000     0.000008000000
   -0.000412000000    16.654771000000    -0.000002000000
    0.000028000000    -0.000003000000    35.419718000000
