%nprocs=4
%mem=4GB
#p pbepbe aug-cc-pvtz output=wfx scf=(conver=6) int=(grid=ultrafine)

title

0 1
o 0.219237147106406 0.951514463101560 0.000000000000000
c -0.312038691354529 -0.285478330491864 0.000000000000000
o 0.314587914686490 -1.306084494119096 0.000000000000000
h 1.184370524609843 0.855505552442706 0.000000000000000
h -1.406156895048206 -0.215457190933317 0.000000000000000

104.wfx

