%nprocs=4
%mem=4GB
#p pbepbe aug-cc-pvtz output=wfx scf=(conver=6) int=(grid=ultrafine)

title

0 1
n 0.000000000000000 0.000000000000000 0.285184142929267
h -0.469749149813710 0.813629394289630 -0.095061380976421
h -0.469749149813710 -0.813629394289630 -0.095061380976421
h 0.939498299627419 0.000000000000000 -0.095061380976421

11.wfx

