%nprocs=4
%mem=4GB
#p pbepbe aug-cc-pvtz output=wfx scf=(conver=6) int=(grid=ultrafine)

title

0 1
c -0.509904744391018 0.346706620318198 0.000000000000000
c 0.626808861773665 -0.319404708329477 0.000000000000000
f -1.707529926841144 -0.276256869291780 0.000000000000000
h -0.617897277869746 1.422764281843846 0.000000000000000
h 0.650134005875822 -1.399378571510694 0.000000000000000
h 1.558389081452419 0.225569246969908 0.000000000000000

121.wfx

