%nprocs=4
%mem=4GB
#p pbepbe aug-cc-pvtz output=wfx scf=(conver=6) int=(grid=ultrafine)

title

0 1
s 0.000000000000000 0.000000000000000 -0.619833381330665
h -0.971552029247776 0.000000000000000 0.309916690665330
h 0.971552029247776 0.000000000000000 0.309916690665330

21.wfx

