%nprocs=4
%mem=4GB
#p pbepbe aug-cc-pvtz output=wfx scf=(conver=6) int=(grid=ultrafine)

title

0 1
n 0.000000000000000 0.000000000000000 -0.021186106591226
n 0.000000000000000 0.000000000000000 -1.142448531812391
o 0.000000000000000 0.000000000000000 1.163634638403616

68.wfx

