%nprocs=4
%mem=4GB
#p pbepbe aug-cc-pvtz output=wfx scf=(conver=6) int=(grid=ultrafine)

title

0 1
c 1.204811399929906 0.695598186072260 0.000000000000000
c 1.204811399929906 -0.695598186072260 0.000000000000000
c 0.000000000000000 -1.391196372144520 0.000000000000000
c -1.204811399929906 -0.695598186072260 0.000000000000000
c -1.204811399929906 0.695598186072260 0.000000000000000
c 0.000000000000000 1.391196372144520 0.000000000000000
h 2.142017662638338 1.236694474133181 0.000000000000000
h 2.142017662638338 -1.236694474133181 0.000000000000000
h 0.000000000000000 -2.473388948266356 0.000000000000000
h -2.142017662638338 -1.236694474133176 0.000000000000000
h -2.142017662638338 1.236694474133176 0.000000000000000
h 0.000000000000000 2.473388948266356 0.000000000000000

94.wfx

