%nprocs=4
%mem=4GB
#p pbepbe aug-cc-pvtz output=wfx scf=(conver=6) int=(grid=ultrafine)

title

0 1
cl 0.000000000000000 1.493992432622107 0.834644397331604
c 0.000000000000000 0.000000000000000 -0.155598209415281
cl 0.000000000000000 -1.493992432622107 0.834644397331604
h 0.898649434538516 0.000000000000000 -0.756845292623960
h -0.898649434538516 0.000000000000000 -0.756845292623960

97.wfx

