&control
 title='crystal',
 prefix='crystal',
 pseudo_dir='.',
 calculation='vc-relax',
/
&system
 ibrav=0,
 celldm(1)=1.0,
 nat=   120,
 ntyp=  4,
 ecutwfc=60.0,
 ecutrho=600.0,
 xdm=.true.,
 xdm_a1=0.4073,
 xdm_a2=2.4150,
/
&electrons
 conv_thr = 1d-8,
/
&ions
/
&cell
/
ATOMIC_SPECIES
h      1.007940 h.UPF
c     12.010700 c.UPF
n     14.006700 n.UPF
o     15.999400 o.UPF

ATOMIC_POSITIONS crystal
o     0.98580320     0.07669680     0.79903828
n     0.01282952     0.93435114     0.19580401
o     0.54751323     0.62716168     0.51389616
c     0.41726734     0.28039360     0.41701431
h     0.25527433     0.31168752     0.40746838
h     0.46183734     0.38829299     0.44565272
o     0.30315293     0.81178654     0.47199617
c     0.90392193     0.29948529     0.49666268
h     0.95891498     0.21610088     0.45615430
h     0.00625729     0.39315344     0.50551169
h     0.76004101     0.37266272     0.48164193
c     0.96020192     0.97631601     0.26260121
h     0.80386781     0.03958723     0.26318900
h     0.05219631     0.06761793     0.28402861
c     0.94877681     0.73058777     0.60653629
h     0.92343371     0.67684376     0.65346849
h     0.10247732     0.68080801     0.59407720
h     0.85047798     0.68122600     0.56961916
c     0.91813764     0.67167631     0.40588403
h     0.84358981     0.69081915     0.45216764
h     0.07664642     0.62566101     0.41626592
h     0.85382411     0.57092019     0.37873887
c     0.48232148     0.43253615     0.31491680
h     0.56663537     0.42291516     0.27043322
h     0.52522599     0.53992735     0.34407893
h     0.32322899     0.46285888     0.30130760
c     0.89196698     0.83660368     0.36745824
h     0.73186282     0.88427331     0.35987472
h     0.95598808     0.93633895     0.39568226
c     0.52407831     0.26673757     0.35289996
h     0.47804968     0.16107716     0.32311958
h     0.68575213     0.23333207     0.36288557
c     0.98859231     0.81217594     0.30169246
h     0.92506917     0.71117540     0.27424406
h     0.14922607     0.76595396     0.30853833
o     0.24857729     0.98890707     0.91473633
c     0.35407952     0.71688959     0.86251011
h     0.49240096     0.62553337     0.86370197
c     0.17290365     0.62256961     0.86753115
h     0.16770782     0.53349370     0.82631335
h     0.03468840     0.71454824     0.86682875
h     0.18193159     0.55134158     0.91270110
h     0.95951729     0.95347952     0.50802219
h     0.94739273     0.96957416     0.97732793
h     0.46555655     0.13266909     0.19472559
h     0.33017626     0.10259313     0.73820629
h     0.43639317     0.13957813     0.98677685
h     0.86946399     0.93330586     0.71179430
h     0.75759267     0.44257380     0.84268124
h     0.86692424     0.44134885     0.08688832
h     0.03703370     0.80602245     0.18387325
h     0.81891368     0.41986504     0.61883301
h     0.36401864     0.28009349     0.53494580
h     0.49697534     0.64014789     0.62807228
c     0.46038787     0.77835713     0.63130455
c     0.36446286     0.03379038     0.69302367
c     0.39096561     0.05357856     0.57353989
c     0.84472089     0.28082901     0.61579527
c     0.35290263     0.13032188     0.63711775
c     0.84084675     0.18614718     0.67188247
c     0.88795643     0.19764499     0.55628832
c     0.42516638     0.85803985     0.69144413
c     0.43282449     0.87009349     0.57441580
n     0.79954399     0.27244826     0.73156529
h     0.71929291     0.39343968     0.73087745
o     0.31204833     0.41099603     0.59970098
n     0.30570038     0.31281172     0.64712141
n     0.39154607     0.15258133     0.52182106
c     0.99214341     0.94891394     0.07889090
c     0.91320468     0.92234019     0.60943122
o     0.26288536     0.37143128     0.70209788
c     0.47461424     0.06379459     0.14837393
c     0.45587701     0.06909280     0.03162737
c     0.45229742     0.15710282     0.09109682
o     0.02373038     0.70298528     0.01419441
o     0.05644694     0.67072893     0.11923577
n     0.02627305     0.76557091     0.06998305
n     0.97319450     0.31814777     0.19806721
c     0.95044927     0.21276805     0.14056829
c     0.45556062     0.75025685     0.75050580
o     0.70315216     0.45394689     0.97077319
c     0.89932666     0.21903110     0.02390625
n     0.87329319     0.24642359     0.90702747
h     0.98548412     0.14444609     0.90258453
n     0.47948529     0.79738812     0.97012696
h     0.55766902     0.67560891     0.96921914
c     0.82179181     0.31747148     0.96518580
c     0.87400953     0.00703154     0.66837773
n     0.43028881     0.76509685     0.51601884
c     0.46099340     0.11688813     0.45630798
h     0.38800213     0.01559204     0.43303530
h     0.62226297     0.06905687     0.45914911
o     0.58011285     0.61664391     0.75098725
c     0.89998095     0.30280979     0.08402277
c     0.41969283     0.34893750     0.09324103
h     0.49268679     0.40042541     0.05314891
h     0.47705010     0.39782024     0.13921835
h     0.26025039     0.40059849     0.08860307
c     0.50745986     0.79882901     0.08745683
h     0.52603826     0.65983299     0.08558861
c     0.54625129     0.26357555     0.84862636
h     0.47336518     0.31906136     0.89214444
h     0.54720744     0.12489038     0.84880599
h     0.45941820     0.31704552     0.80611496
o     0.11932319     0.27559233     0.23607856
c     0.92114496     0.01905183     0.55376926
c     0.48212972     0.89018076     0.02972863
c     0.98991009     0.02971033     0.14236493
c     0.94874005     0.04200024     0.02247722
c     0.86414099     0.20842916     0.79065420
n     0.34434055     0.80794592     0.80152305
h     0.23194811     0.90958758     0.79669986
c     0.50033929     0.88520252     0.14736720
c     0.35704033     0.84844464     0.91817809
o     0.84983113     0.45066965     0.20518546
c     0.76152680     0.30421607     0.84801993
c     0.51211540     0.78752491     0.20928855
h     0.40848065     0.69339418     0.20692616
h     0.47445544     0.87356400     0.25076795
h     0.66113056     0.71574847     0.21851176

K_POINTS automatic
2 2 2 1 1 1

CELL_PARAMETERS cubic
   12.809104000000    -0.011515000000    -0.261870000000
    2.244441000000    14.775400000000    -0.261429000000
   -0.718681000000    -0.063909000000    39.020031000000
