&control
 title='crystal',
 prefix='crystal',
 pseudo_dir='.',
 calculation='vc-relax',
/
&system
 ibrav=0,
 celldm(1)=1.0,
 nat=    96,
 ntyp=  5,
 ecutwfc=60.0,
 ecutrho=600.0,
 xdm=.true.,
 xdm_a1=0.4073,
 xdm_a2=2.4150,
/
&electrons
 conv_thr = 1d-8,
/
&ions
/
&cell
/
ATOMIC_SPECIES
h      1.007940 h.UPF
c     12.010700 c.UPF
f     18.998403 f.UPF
cl    35.453000 cl.UPF
br    79.904000 br.UPF

ATOMIC_POSITIONS crystal
c     0.19380901     0.97741882     0.67727556
c     0.30619099     0.52258118     0.82272439
c     0.69380901     0.47741882     0.82272439
c     0.52258118     0.69380901     0.17727557
c     0.02258118     0.19380901     0.32272441
c     0.47741882     0.30619099     0.17727557
c     0.97741882     0.80619099     0.32272441
c     0.80619099     0.02258118     0.67727556
c     0.19255496     0.90752871     0.65256736
c     0.30744504     0.59247129     0.84743258
c     0.69255496     0.40752871     0.84743258
c     0.59247129     0.69255496     0.15256737
c     0.09247129     0.19255496     0.34743261
c     0.40752871     0.30744504     0.15256737
c     0.90752871     0.80744504     0.34743261
c     0.80744504     0.09247129     0.65256736
c     0.25052219     0.01499178     0.57716970
c     0.24947781     0.48500822     0.92283024
c     0.75052219     0.51499178     0.92283024
c     0.48500822     0.75052219     0.07716972
c     0.98500822     0.25052219     0.42283027
c     0.51499178     0.24947781     0.07716972
c     0.01499178     0.74947781     0.42283027
c     0.74947781     0.98500822     0.57716970
br    0.11535350     0.02202459     0.84764806
br    0.38464650     0.47797541     0.65235188
br    0.61535350     0.52202459     0.65235188
br    0.47797541     0.61535350     0.34764808
br    0.97797541     0.11535350     0.15235191
br    0.52202459     0.38464650     0.34764808
br    0.02202459     0.88464650     0.15235191
br    0.88464650     0.97797541     0.84764806
c     0.24927564     0.87547147     0.52127360
c     0.25072436     0.62452854     0.97872635
c     0.74927564     0.37547147     0.97872635
c     0.62452854     0.74927564     0.02127361
c     0.12452853     0.24927564     0.47872638
c     0.37547147     0.25072436     0.02127361
c     0.87547147     0.75072436     0.47872638
c     0.75072436     0.12452853     0.52127360
h     0.14868841     0.87855217     0.73107339
h     0.35131159     0.62144784     0.76892655
h     0.64868841     0.37855217     0.76892655
h     0.62144784     0.64868841     0.23107341
h     0.12144783     0.14868841     0.26892658
h     0.37855217     0.35131159     0.23107341
h     0.87855217     0.85131159     0.26892658
h     0.85131159     0.12144783     0.73107339
c     0.30650602     0.97986888     0.44704456
c     0.19349398     0.52013112     0.05295539
c     0.80650602     0.47986888     0.05295539
c     0.52013112     0.80650602     0.94704457
c     0.02013112     0.30650602     0.55295541
c     0.47986888     0.19349398     0.94704457
c     0.97986888     0.69349398     0.55295541
c     0.69349398     0.02013112     0.44704456
cl    0.25114028     0.10129340     0.61197898
cl    0.24885972     0.39870661     0.88802096
cl    0.75114028     0.60129340     0.88802096
cl    0.39870661     0.75114028     0.11197900
cl    0.89870660     0.25114028     0.38802099
cl    0.60129340     0.24885972     0.11197900
cl    0.10129340     0.74885972     0.38802099
cl    0.74885972     0.89870660     0.61197898
c     0.30643952     0.91007783     0.41600461
c     0.19356048     0.58992217     0.08399533
c     0.80643952     0.41007783     0.08399533
c     0.58992217     0.80643952     0.91600462
c     0.08992217     0.30643952     0.58399536
c     0.41007783     0.19356048     0.91600462
c     0.91007783     0.69356048     0.58399536
c     0.69356048     0.08992217     0.41600461
f     0.24896495     0.80746924     0.49361719
f     0.25103505     0.69253076     0.00638276
f     0.74896495     0.30746924     0.00638276
f     0.69253076     0.74896495     0.99361720
f     0.19253076     0.24896495     0.50638279
f     0.30746924     0.25103505     0.99361720
f     0.80746924     0.75103505     0.50638279
f     0.75103505     0.19253076     0.49361719
br    0.38586500     0.02667541     0.30991690
br    0.11413500     0.47332459     0.19008304
br    0.88586500     0.52667541     0.19008304
br    0.47332459     0.88586500     0.80991692
br    0.97332459     0.38586500     0.69008307
br    0.52667541     0.11413500     0.80991692
br    0.02667541     0.61413500     0.69008307
br    0.61413500     0.97332459     0.30991690
h     0.34967707     0.88304541     0.31317570
h     0.15032293     0.61695460     0.18682424
h     0.84967707     0.38304541     0.18682424
h     0.61695460     0.84967707     0.81317572
h     0.11695459     0.34967707     0.68682427
h     0.38304541     0.15032293     0.81317572
h     0.88304541     0.65032293     0.68682427
h     0.65032293     0.11695459     0.31317570

K_POINTS automatic
2 2 2 1 1 1

CELL_PARAMETERS cubic
   37.516687000000     0.000000000000     0.000000000000
    0.000000000000    37.516687000000     0.000000000000
    0.000000000000     0.000000000000     7.220138000000
