&control
 title='crystal',
 prefix='crystal',
 pseudo_dir='.',
 calculation='vc-relax',
/
&system
 ibrav=0,
 celldm(1)=1.0,
 nat=    48,
 ntyp=  5,
 ecutwfc=60.0,
 ecutrho=600.0,
 xdm=.true.,
 xdm_a1=0.4073,
 xdm_a2=2.4150,
/
&electrons
 conv_thr = 1d-8,
/
&ions
/
&cell
/
ATOMIC_SPECIES
h      1.007940 h.UPF
c     12.010700 c.UPF
f     18.998403 f.UPF
cl    35.453000 cl.UPF
br    79.904000 br.UPF

ATOMIC_POSITIONS crystal
c     0.95617286     0.41711044     0.88388216
c     0.04382718     0.58288955     0.11611785
c     0.95617286     0.08288955     0.38388216
c     0.04382718     0.91711044     0.61611785
cl    0.73097505     0.61261962     0.90546130
cl    0.26902498     0.38738036     0.09453870
cl    0.73097505     0.88738037     0.40546130
cl    0.26902498     0.11261962     0.59453870
c     0.99693762     0.26408679     0.91458912
c     0.00306242     0.73591320     0.08541089
c     0.99693762     0.23591320     0.41458912
c     0.00306242     0.76408679     0.58541089
br    0.78612072     0.26518270     0.98071694
br    0.21387932     0.73481729     0.01928306
br    0.78612072     0.23481729     0.48071694
br    0.21387932     0.76518270     0.51928306
c     0.18768658     0.10820776     0.89741399
c     0.81231346     0.89179223     0.10258601
c     0.18768658     0.39179224     0.39741399
c     0.81231346     0.60820776     0.60258601
h     0.21826616     0.98993494     0.92122735
h     0.78173388     0.01006504     0.07877266
h     0.21826616     0.51006505     0.42122735
h     0.78173388     0.48993494     0.57877266
c     0.33830372     0.10800883     0.84891272
c     0.66169632     0.89199115     0.15108729
c     0.33830372     0.39199116     0.34891272
c     0.66169632     0.60800883     0.65108729
f     0.52940549     0.95896693     0.83195885
f     0.47059455     0.04103305     0.16804115
f     0.52940549     0.54103306     0.33195885
f     0.47059455     0.45896693     0.66804115
c     0.30151816     0.25438284     0.81693406
c     0.69848187     0.74561714     0.18306594
c     0.30151816     0.24561715     0.31693406
c     0.69848187     0.75438284     0.68306594
h     0.42217419     0.24822554     0.77912115
h     0.57782585     0.75177445     0.22087886
h     0.42217419     0.25177445     0.27912115
h     0.57782585     0.74822554     0.72087886
c     0.10735266     0.40764163     0.83482776
c     0.89264737     0.59235836     0.16517225
c     0.10735266     0.09235837     0.33482776
c     0.89264737     0.90764163     0.66517225
br    0.04276120     0.60363367     0.79042649
br    0.95723883     0.39636632     0.20957352
br    0.04276120     0.89636633     0.29042649
br    0.95723883     0.10363367     0.70957352

K_POINTS automatic
2 2 2 1 1 1

CELL_PARAMETERS cubic
    7.625861000000     0.000000000000     0.097634000000
    0.000000000000    13.438411000000     0.000000000000
    6.969332000000     0.000000000000    51.687307000000
