&control
 title='crystal',
 prefix='crystal',
 pseudo_dir='.',
 calculation='vc-relax',
/
&system
 ibrav=0,
 celldm(1)=1.0,
 nat=    48,
 ntyp=  5,
 ecutwfc=60.0,
 ecutrho=600.0,
 xdm=.true.,
 xdm_a1=0.4073,
 xdm_a2=2.4150,
/
&electrons
 conv_thr = 1d-8,
/
&ions
/
&cell
/
ATOMIC_SPECIES
h      1.007940 h.UPF
c     12.010700 c.UPF
f     18.998403 f.UPF
cl    35.453000 cl.UPF
br    79.904000 br.UPF

ATOMIC_POSITIONS crystal
c     0.52917081     0.12457956     0.60393223
c     0.47082926     0.87542044     0.39606777
c     0.52917079     0.37542044     0.10393224
c     0.47082929     0.62457956     0.89606777
c     0.46330236     0.03522075     0.63790822
c     0.53669772     0.96477925     0.36209179
c     0.46330233     0.46477925     0.13790822
c     0.53669775     0.53522075     0.86209179
c     0.57037565     0.02050291     0.72747733
c     0.42962443     0.97949709     0.27252267
c     0.57037562     0.47949709     0.22747733
c     0.42962446     0.52050291     0.77252267
c     0.76155562     0.09860440     0.78555359
c     0.23844446     0.90139560     0.21444642
c     0.76155560     0.40139560     0.28555359
c     0.23844449     0.59860440     0.71444642
c     0.84424450     0.18982108     0.75513002
c     0.15575558     0.81017892     0.24486999
c     0.84424447     0.31017892     0.25513002
c     0.15575561     0.68982108     0.74486999
c     0.72020420     0.20155528     0.66350806
c     0.27979588     0.79844472     0.33649194
c     0.72020417     0.29844472     0.16350807
c     0.27979591     0.70155528     0.83649194
h     0.43320854     0.13404509     0.53310403
h     0.56679154     0.86595491     0.46689597
h     0.43320852     0.36595491     0.03310404
h     0.56679157     0.63404509     0.96689597
h     0.50921325     0.94965783     0.75109000
h     0.49078683     0.05034217     0.24891001
h     0.50921322     0.55034217     0.25109000
h     0.49078686     0.44965783     0.74891001
cl    0.09625556     0.28395231     0.82790966
cl    0.90374452     0.71604769     0.17209034
cl    0.09625554     0.21604769     0.32790967
cl    0.90374455     0.78395231     0.67209034
f     0.28625310     0.95825557     0.58096146
f     0.71374697     0.04174443     0.41903854
f     0.28625308     0.54174443     0.08096147
f     0.71374700     0.45825557     0.91903854
br    0.91140369     0.07909932     0.90860469
br    0.08859638     0.92090068     0.09139532
br    0.91140367     0.42090068     0.40860469
br    0.08859641     0.57909932     0.59139532
br    0.80818138     0.32476569     0.61753234
br    0.19181870     0.67523431     0.38246766
br    0.80818136     0.17523431     0.11753234
br    0.19181873     0.82476569     0.88246766

K_POINTS automatic
2 2 2 1 1 1

CELL_PARAMETERS cubic
    7.235610000000     0.000000000000    -0.314787000000
    0.000000000000    25.092223000000     0.000000000000
  -12.650299000000     0.000000000000    29.055223000000
