&control
 title='crystal',
 prefix='crystal',
 pseudo_dir='.',
 calculation='vc-relax',
/
&system
 ibrav=0,
 celldm(1)=1.0,
 nat=    48,
 ntyp=  5,
 ecutwfc=60.0,
 ecutrho=600.0,
 xdm=.true.,
 xdm_a1=0.4073,
 xdm_a2=2.4150,
/
&electrons
 conv_thr = 1d-8,
/
&ions
/
&cell
/
ATOMIC_SPECIES
h      1.007940 h.UPF
c     12.010700 c.UPF
f     18.998403 f.UPF
cl    35.453000 cl.UPF
br    79.904000 br.UPF

ATOMIC_POSITIONS crystal
br    0.79494462     0.34320351     0.46044961
br    0.20505542     0.65679649     0.53955039
br    0.20505081     0.84320292     0.03954822
br    0.79494923     0.15679708     0.96045179
br    0.21523458     0.08218711     0.26734115
br    0.78476545     0.91781289     0.73265886
br    0.78476743     0.58218675     0.23268233
br    0.21523261     0.41781325     0.76731768
cl    0.63450375     0.12908677     0.41308743
cl    0.36549628     0.87091323     0.58691257
cl    0.36549613     0.62908501     0.08692257
cl    0.63450390     0.37091499     0.91307744
f     0.14085116     0.44523079     0.23879110
f     0.85914887     0.55476921     0.76120890
f     0.85914181     0.94523733     0.26119853
f     0.14085823     0.05476267     0.73880148
c     0.48984147     0.22191243     0.36117257
c     0.51015857     0.77808757     0.63882744
c     0.51015771     0.72191269     0.13882495
c     0.48984233     0.27808731     0.86117506
c     0.55029214     0.31537208     0.37766962
c     0.44970790     0.68462792     0.62233039
c     0.44970359     0.81536873     0.12231727
c     0.55029644     0.18463127     0.87768274
c     0.25537963     0.37209421     0.27853867
c     0.74462040     0.62790579     0.72146133
c     0.74461412     0.87209189     0.22144247
c     0.25538591     0.12790811     0.77855754
c     0.30729641     0.20672557     0.30047532
c     0.69270363     0.79327443     0.69952469
c     0.69269996     0.70672323     0.19952005
c     0.30730008     0.29327677     0.80047996
c     0.43456381     0.39112372     0.33519699
c     0.56543622     0.60887628     0.66480302
c     0.56543933     0.89112376     0.16478663
c     0.43456070     0.10887624     0.83521338
c     0.18847467     0.28126671     0.26060782
c     0.81152537     0.71873329     0.73939219
c     0.81152431     0.78127209     0.23937950
c     0.18847572     0.21872791     0.76062051
h     0.48260112     0.46312431     0.34396962
h     0.51739892     0.53687569     0.65603039
h     0.51739218     0.96312374     0.15600438
h     0.48260785     0.03687626     0.84399563
h     0.04707619     0.26942870     0.21571507
h     0.95292385     0.73057130     0.78428493
h     0.95292342     0.76942825     0.28426553
h     0.04707661     0.23057175     0.71573448

K_POINTS automatic
2 2 2 1 1 1

CELL_PARAMETERS cubic
   14.689656000000     0.000060000000    -0.136969000000
    0.000103000000    26.835443000000     0.000027000000
   -2.925702000000     0.000010000000    13.163998000000
