&control
 title='crystal',
 prefix='crystal',
 pseudo_dir='.',
 calculation='vc-relax',
/
&system
 ibrav=0,
 celldm(1)=1.0,
 nat=    24,
 ntyp=  5,
 ecutwfc=60.0,
 ecutrho=600.0,
 xdm=.true.,
 xdm_a1=0.4073,
 xdm_a2=2.4150,
/
&electrons
 conv_thr = 1d-8,
/
&ions
/
&cell
/
ATOMIC_SPECIES
h      1.007940 h.UPF
c     12.010700 c.UPF
f     18.998403 f.UPF
cl    35.453000 cl.UPF
br    79.904000 br.UPF

ATOMIC_POSITIONS crystal
c     0.96428007     0.37689911     0.86834383
c     0.03571980     0.62310095     0.13165610
c     0.23479280     0.29966371     0.91177747
c     0.76520707     0.70033635     0.08822246
c     0.50047838     0.14866122     0.09755159
c     0.49952149     0.85133884     0.90244834
c     0.50009112     0.07593002     0.23638433
c     0.49990875     0.92407003     0.76361559
c     0.22653817     0.15750853     0.18564332
c     0.77346170     0.84249152     0.81435661
c     0.95773731     0.30653506     0.00440171
c     0.04226256     0.69346499     0.99559822
br    0.59038696     0.58480323     0.62058699
br    0.40961291     0.41519683     0.37941294
br    0.87457961     0.03729428     0.16589944
br    0.12542026     0.96270577     0.83410048
cl    0.23976248     0.38752078     0.74188558
cl    0.76023739     0.61247927     0.25811435
f     0.22129410     0.08852547     0.31890940
f     0.77870577     0.91147458     0.68109052
h     0.70511031     0.96016868     0.37984958
h     0.29488956     0.03983137     0.62015034
h     0.74943876     0.36518162     0.96989506
h     0.25056111     0.63481844     0.03010486

K_POINTS automatic
2 2 2 1 1 1

CELL_PARAMETERS cubic
   14.944230000000     0.167148000000     0.004080000000
   17.741861000000    12.782521000000    -0.009733000000
   -3.328662000000     9.579773000000    13.782620000000
