&control
 title='crystal',
 prefix='crystal',
 pseudo_dir='.',
 calculation='vc-relax',
/
&system
 ibrav=0,
 celldm(1)=1.0,
 nat=    48,
 ntyp=  5,
 ecutwfc=60.0,
 ecutrho=600.0,
 xdm=.true.,
 xdm_a1=0.4073,
 xdm_a2=2.4150,
/
&electrons
 conv_thr = 1d-8,
/
&ions
/
&cell
/
ATOMIC_SPECIES
h      1.007940 h.UPF
c     12.010700 c.UPF
f     18.998403 f.UPF
cl    35.453000 cl.UPF
br    79.904000 br.UPF

ATOMIC_POSITIONS crystal
br    0.42700713     0.44700579     0.21128543
br    0.57299292     0.55299421     0.78871459
br    0.42700715     0.05299421     0.71128544
br    0.57299291     0.94700579     0.28871458
br    0.67739265     0.19970757     0.01714328
br    0.32260741     0.80029243     0.98285673
br    0.67739267     0.30029243     0.51714329
br    0.32260739     0.69970757     0.48285672
cl    0.12784153     0.14773725     0.10384654
cl    0.87215852     0.85226276     0.89615347
cl    0.12784155     0.35226276     0.60384655
cl    0.87215851     0.64773725     0.39615346
f     0.84039475     0.81415749     0.13927291
f     0.15960531     0.18584251     0.86072710
f     0.84039477     0.68584251     0.63927292
f     0.15960529     0.31415749     0.36072709
c     0.04395957     0.34299469     0.11578108
c     0.95604048     0.65700532     0.88421894
c     0.04395959     0.15700532     0.61578108
c     0.95604046     0.84299469     0.38421893
c     0.16498240     0.47703578     0.16064018
c     0.83501765     0.52296423     0.83935983
c     0.16498242     0.02296423     0.66064019
c     0.83501763     0.97703578     0.33935982
c     0.09870339     0.63609315     0.16985449
c     0.90129666     0.36390686     0.83014552
c     0.09870341     0.86390686     0.66985450
c     0.90129664     0.13609315     0.33014551
c     0.90765801     0.65950508     0.13308130
c     0.09234204     0.34049493     0.86691871
c     0.90765803     0.84049493     0.63308131
c     0.09234202     0.15950508     0.36691871
c     0.78194231     0.53117903     0.08925699
c     0.21805775     0.46882098     0.91074302
c     0.78194232     0.96882098     0.58925700
c     0.21805773     0.03117903     0.41074301
c     0.85167794     0.37338617     0.08061130
c     0.14832212     0.62661384     0.91938872
c     0.85167796     0.12661384     0.58061130
c     0.14832210     0.87338617     0.41938871
h     0.19348880     0.73874221     0.20489662
h     0.80651126     0.26125779     0.79510339
h     0.19348882     0.76125779     0.70489663
h     0.80651124     0.23874221     0.29510338
h     0.63373481     0.55669674     0.06176403
h     0.36626524     0.44330327     0.93823598
h     0.63373483     0.94330327     0.56176404
h     0.36626522     0.05669674     0.43823597

K_POINTS automatic
2 2 2 1 1 1

CELL_PARAMETERS cubic
   14.585998000000     0.000000000000    -0.304758000000
    0.000000000000    15.076276000000     0.000000000000
   -8.891261000000     0.000000000000    24.033326000000
