&control
 title='crystal',
 prefix='crystal',
 pseudo_dir='.',
 calculation='vc-relax',
/
&system
 ibrav=0,
 celldm(1)=1.0,
 nat=    48,
 ntyp=  5,
 ecutwfc=60.0,
 ecutrho=600.0,
 xdm=.true.,
 xdm_a1=0.4073,
 xdm_a2=2.4150,
/
&electrons
 conv_thr = 1d-8,
/
&ions
/
&cell
/
ATOMIC_SPECIES
h      1.007940 h.UPF
c     12.010700 c.UPF
f     18.998403 f.UPF
cl    35.453000 cl.UPF
br    79.904000 br.UPF

ATOMIC_POSITIONS crystal
c     0.10429739     0.32428239     0.65846928
c     0.89570258     0.67571762     0.34153069
c     0.18536103     0.52313478     0.79826256
c     0.81463894     0.47686523     0.20173741
c     0.28741140     0.64618254     0.86078337
c     0.71258857     0.35381747     0.13921659
c     0.31158975     0.57356936     0.78866662
c     0.68841022     0.42643065     0.21133335
c     0.22873223     0.37100861     0.64969681
c     0.77126775     0.62899140     0.35030316
c     0.12280935     0.24437807     0.58142510
c     0.87719062     0.75562194     0.41857487
h     0.16998977     0.57934084     0.85739749
h     0.83001021     0.42065917     0.14260248
h     0.05820307     0.08792810     0.47318579
h     0.94179690     0.91207191     0.52681418
cl    0.43767195     0.72849712     0.86752515
cl    0.56232802     0.27150289     0.13247482
f     0.00252666     0.20327321     0.59475059
f     0.99747332     0.79672680     0.40524938
br    0.25844163     0.25971660     0.54849443
br    0.74155835     0.74028341     0.45150554
br    0.39107818     0.91818780     0.04554682
br    0.60892179     0.08181221     0.95445315
c     0.39569972     0.78403059     0.44985123
c     0.60430025     0.21596942     0.55014874
c     0.37716746     0.67281620     0.33577618
c     0.62283251     0.32718381     0.66422379
c     0.27125619     0.47090329     0.19221283
c     0.72874378     0.52909672     0.80778714
c     0.18840281     0.38056447     0.16548321
c     0.81159716     0.61943554     0.83451676
c     0.21259415     0.50054943     0.28596455
c     0.78740582     0.49945058     0.71403542
c     0.31464698     0.70265038     0.42754669
c     0.68535299     0.29734963     0.57245328
h     0.44177208     0.74199641     0.35673478
h     0.55822789     0.25800360     0.64326519
h     0.33001756     0.79545713     0.51741651
h     0.66998241     0.20454288     0.48258346
cl    0.06230990     0.13119820     0.99217312
cl    0.93769007     0.86880181     0.00782685
f     0.49747057     0.98114274     0.58967660
f     0.50252940     0.01885727     0.41032337
br    0.10893549     0.39074960     0.26341141
br    0.89106448     0.60925041     0.73658856
br    0.24152356     0.32035232     0.03157011
br    0.75847642     0.67964769     0.96842986

K_POINTS automatic
2 2 2 1 1 1

CELL_PARAMETERS cubic
   31.292676000000     0.195562000000     1.247396000000
    5.608471000000    16.057632000000     0.730241000000
  -29.819659000000    -8.040507000000     8.941578000000
