&control
 title='crystal',
 prefix='crystal',
 pseudo_dir='.',
 calculation='vc-relax',
/
&system
 ibrav=0,
 celldm(1)=1.0,
 nat=    48,
 ntyp=  5,
 ecutwfc=60.0,
 ecutrho=600.0,
 xdm=.true.,
 xdm_a1=0.4073,
 xdm_a2=2.4150,
/
&electrons
 conv_thr = 1d-8,
/
&ions
/
&cell
/
ATOMIC_SPECIES
h      1.007940 h.UPF
c     12.010700 c.UPF
f     18.998403 f.UPF
cl    35.453000 cl.UPF
br    79.904000 br.UPF

ATOMIC_POSITIONS crystal
c     0.06217026     0.23109163     0.74167790
c     0.93782970     0.76890836     0.25832213
c     0.56217021     0.26890837     0.24167790
c     0.43782974     0.73109162     0.75832213
c     0.86859531     0.37687103     0.87485495
c     0.13140464     0.62312895     0.12514507
c     0.36859527     0.12312896     0.37485496
c     0.63140468     0.87687103     0.62514507
c     0.08580784     0.21447691     0.83483731
c     0.91419211     0.78552307     0.16516271
c     0.58580780     0.28552308     0.33483731
c     0.41419215     0.71447690     0.66516271
c     0.99155427     0.28690168     0.90214883
c     0.00844568     0.71309831     0.09785119
c     0.49155423     0.21309831     0.40214883
c     0.50844572     0.78690167     0.59785119
c     0.93600437     0.32350346     0.71800094
c     0.06399558     0.67649653     0.28199908
c     0.43600433     0.17649653     0.21800095
c     0.56399562     0.82350345     0.78199908
c     0.83695541     0.39700848     0.78400680
c     0.16304455     0.60299150     0.21599323
c     0.33695536     0.10299151     0.28400680
c     0.66304459     0.89700847     0.71599323
f     0.77337812     0.44785688     0.93971807
f     0.22662184     0.55214310     0.06028195
f     0.27337807     0.05214311     0.43971807
f     0.72662188     0.94785687     0.56028195
cl    0.18336271     0.14103169     0.65916368
cl    0.81663725     0.85896830     0.34083634
cl    0.68336266     0.35896831     0.15916369
cl    0.31663729     0.64103168     0.84083634
h     0.00941535     0.27383942     0.97422514
h     0.99058460     0.72616057     0.02577488
h     0.50941531     0.22616058     0.47422514
h     0.49058464     0.77383941     0.52577488
h     0.73704165     0.46821177     0.76567056
h     0.26295830     0.53178821     0.23432946
h     0.23704160     0.03178822     0.26567056
h     0.76295835     0.96821177     0.73432946
br    0.24287687     0.08972049     0.87286945
br    0.75712308     0.91027949     0.12713057
br    0.74287683     0.41027950     0.37286945
br    0.25712312     0.58972048     0.62713057
br    0.89251800     0.35246881     0.59337604
br    0.10748195     0.64753118     0.40662398
br    0.39251795     0.14753119     0.09337604
br    0.60748200     0.85246880     0.90662398

K_POINTS automatic
2 2 2 1 1 1

CELL_PARAMETERS cubic
    7.249452000000     0.000000000000    -0.432532000000
    0.000000000000    25.488419000000     0.000000000000
    6.524387000000     0.000000000000    26.941325000000
