&control
 title='crystal',
 prefix='crystal',
 pseudo_dir='.',
 calculation='vc-relax',
/
&system
 ibrav=0,
 celldm(1)=1.0,
 nat=    24,
 ntyp=  5,
 ecutwfc=60.0,
 ecutrho=600.0,
 xdm=.true.,
 xdm_a1=0.4073,
 xdm_a2=2.4150,
/
&electrons
 conv_thr = 1d-8,
/
&ions
/
&cell
/
ATOMIC_SPECIES
h      1.007940 h.UPF
c     12.010700 c.UPF
f     18.998403 f.UPF
cl    35.453000 cl.UPF
br    79.904000 br.UPF

ATOMIC_POSITIONS crystal
c     0.50687877     0.35424777     0.72871542
c     0.49312118     0.64575222     0.27128464
cl    0.31785366     0.56416520     0.90128851
cl    0.68214629     0.43583479     0.09871155
c     0.48879583     0.08294070     0.84306692
c     0.51120412     0.91705929     0.15693314
br    0.25481336     0.94111771     0.19191342
br    0.74518659     0.05888229     0.80808664
c     0.63862535     0.90567350     0.70791774
c     0.36137460     0.09432649     0.29208232
h     0.62638712     0.69572978     0.79423877
h     0.37361283     0.30427022     0.20576129
c     0.80720382     0.00150899     0.45580379
c     0.19279613     0.99849100     0.54419627
f     0.95045740     0.82081380     0.32645476
f     0.04954255     0.17918619     0.67354530
c     0.83377598     0.26956058     0.33254817
c     0.16622397     0.73043941     0.66745189
h     0.96837397     0.33689561     0.13445677
h     0.03162598     0.66310438     0.86554329
c     0.68190439     0.44384186     0.47178517
c     0.31809556     0.55615813     0.52821489
br    0.71290446     0.80593626     0.30858719
br    0.28709549     0.19406373     0.69141287

K_POINTS automatic
2 2 2 1 1 1

CELL_PARAMETERS cubic
   35.422833000000    -0.797344000000    -1.884270000000
    2.603079000000     7.461566000000     0.268371000000
   28.247594000000     3.466173000000     8.522087000000
