&control
 title='crystal',
 prefix='crystal',
 pseudo_dir='.',
 calculation='vc-relax',
/
&system
 ibrav=0,
 celldm(1)=1.0,
 nat=    48,
 ntyp=  5,
 ecutwfc=60.0,
 ecutrho=600.0,
 xdm=.true.,
 xdm_a1=0.4073,
 xdm_a2=2.4150,
/
&electrons
 conv_thr = 1d-8,
/
&ions
/
&cell
/
ATOMIC_SPECIES
h      1.007940 h.UPF
c     12.010700 c.UPF
f     18.998403 f.UPF
cl    35.453000 cl.UPF
br    79.904000 br.UPF

ATOMIC_POSITIONS crystal
c     0.13321678     0.14585368     0.95507382
c     0.86678325     0.85414633     0.04492620
c     0.13321678     0.35414633     0.45507382
c     0.86678327     0.64585369     0.54492620
c     0.98318586     0.25683703     0.93971395
c     0.01681417     0.74316298     0.06028606
c     0.98318586     0.24316297     0.43971395
c     0.01681418     0.75683704     0.56028607
c     0.00357816     0.29800592     0.86690664
c     0.99642187     0.70199409     0.13309338
c     0.00357816     0.20199408     0.36690664
c     0.99642188     0.79800593     0.63309338
c     0.16778617     0.22180266     0.80943223
c     0.83221386     0.77819735     0.19056779
c     0.16778617     0.27819734     0.30943223
c     0.83221387     0.72180267     0.69056779
c     0.31693765     0.10982091     0.82341449
c     0.68306238     0.89017910     0.17658552
c     0.31693765     0.39017909     0.32341449
c     0.68306239     0.60982092     0.67658552
c     0.29836720     0.07558476     0.89642356
c     0.70163283     0.92441525     0.10357646
c     0.29836720     0.42441524     0.39642356
c     0.70163284     0.57558477     0.60357646
br    0.74968807     0.35008594     0.02064265
br    0.25031196     0.64991407     0.97935736
br    0.74968807     0.14991407     0.52064265
br    0.25031197     0.85008595     0.47935737
br    0.19616386     0.26947366     0.70946363
br    0.80383617     0.73052635     0.29053639
br    0.19616386     0.23052634     0.20946363
br    0.80383618     0.76947367     0.79053639
cl    0.84129349     0.43978968     0.84856146
cl    0.15870654     0.56021033     0.15143856
cl    0.84129349     0.06021032     0.34856146
cl    0.15870655     0.93978969     0.65143856
f     0.44876256     0.96774533     0.91145563
f     0.55123747     0.03225468     0.08854438
f     0.44876256     0.53225467     0.41145563
f     0.55123748     0.46774534     0.58854438
h     0.12465483     0.11572631     0.01142019
h     0.87534520     0.88427370     0.98857982
h     0.12465483     0.38427369     0.51142019
h     0.87534522     0.61572632     0.48857982
h     0.44733580     0.05144066     0.77905612
h     0.55266423     0.94855935     0.22094390
h     0.44733580     0.44855935     0.27905612
h     0.55266425     0.55144067     0.72094390

K_POINTS automatic
2 2 2 1 1 1

CELL_PARAMETERS cubic
    7.394086000000     0.000000000000     0.189307000000
    0.000000000000    20.514041000000     0.000000000000
    5.433068000000     0.000000000000    34.412940000000
