&control
 title='crystal',
 prefix='crystal',
 pseudo_dir='.',
 calculation='vc-relax',
/
&system
 ibrav=0,
 celldm(1)=1.0,
 nat=    48,
 ntyp=  5,
 ecutwfc=60.0,
 ecutrho=600.0,
 xdm=.true.,
 xdm_a1=0.4073,
 xdm_a2=2.4150,
/
&electrons
 conv_thr = 1d-8,
/
&ions
/
&cell
/
ATOMIC_SPECIES
h      1.007940 h.UPF
c     12.010700 c.UPF
f     18.998403 f.UPF
cl    35.453000 cl.UPF
br    79.904000 br.UPF

ATOMIC_POSITIONS crystal
c     0.18749359     0.24719584     0.83370259
c     0.81250640     0.75280415     0.16629742
c     0.18749359     0.25280416     0.33370259
c     0.81250640     0.74719584     0.66629743
c     0.33850854     0.10182080     0.84887329
c     0.66149145     0.89817919     0.15112673
c     0.33850854     0.39817920     0.34887328
c     0.66149146     0.60182080     0.65112673
c     0.31525576     0.04871592     0.89730964
c     0.68474424     0.95128407     0.10269037
c     0.31525575     0.45128408     0.39730964
c     0.68474424     0.54871592     0.60269038
c     0.14968413     0.13791226     0.93080156
c     0.85031586     0.86208772     0.06919845
c     0.14968413     0.36208774     0.43080156
c     0.85031586     0.63791226     0.56919846
c     0.00115644     0.28357681     0.91481470
c     0.99884356     0.71642317     0.08518531
c     0.00115643     0.21642319     0.41481469
c     0.99884356     0.78357681     0.58518532
c     0.01580189     0.33749574     0.86618174
c     0.98419810     0.66250425     0.13381827
c     0.01580189     0.16250426     0.36618174
c     0.98419810     0.83749574     0.63381827
h     0.47042986     0.03127779     0.82355253
h     0.52957013     0.96872220     0.17644748
h     0.47042986     0.46872221     0.32355253
h     0.52957014     0.53127779     0.67644748
h     0.13886144     0.09544941     0.96837854
h     0.86113856     0.90455057     0.03162147
h     0.13886143     0.40455059     0.46837854
h     0.86113856     0.59544941     0.53162147
cl    0.82796878     0.50649750     0.84711147
cl    0.17203121     0.49350249     0.15288854
cl    0.82796878     0.99350250     0.34711147
cl    0.17203122     0.00649750     0.65288855
f     0.45953513     0.90434572     0.91277812
f     0.54046486     0.09565427     0.08722190
f     0.45953513     0.59565428     0.41277811
f     0.54046486     0.40434572     0.58722190
br    0.77593055     0.40956750     0.96112363
br    0.22406944     0.59043249     0.03887639
br    0.77593055     0.09043250     0.46112362
br    0.22406945     0.90956750     0.53887639
br    0.21690268     0.32324087     0.76761348
br    0.78309732     0.67675912     0.23238654
br    0.21690267     0.17675913     0.26761347
br    0.78309732     0.82324087     0.73238654

K_POINTS automatic
2 2 2 1 1 1

CELL_PARAMETERS cubic
   13.665332000000     0.000000000000    -0.056888000000
    0.000000000000     7.321800000000     0.000000000000
   13.737850000000     0.000000000000    53.008564000000
