&control
 title='crystal',
 prefix='crystal',
 pseudo_dir='.',
 calculation='vc-relax',
/
&system
 ibrav=0,
 celldm(1)=1.0,
 nat=    48,
 ntyp=  5,
 ecutwfc=60.0,
 ecutrho=600.0,
 xdm=.true.,
 xdm_a1=0.4073,
 xdm_a2=2.4150,
/
&electrons
 conv_thr = 1d-8,
/
&ions
/
&cell
/
ATOMIC_SPECIES
h      1.007940 h.UPF
c     12.010700 c.UPF
f     18.998403 f.UPF
cl    35.453000 cl.UPF
br    79.904000 br.UPF

ATOMIC_POSITIONS crystal
c     0.20994938     0.19344437     0.63630227
c     0.79005059     0.80655562     0.36369767
c     0.70994939     0.30655562     0.13630227
c     0.29005058     0.69344437     0.86369766
c     0.09559797     0.18110872     0.70243397
c     0.90440200     0.81889127     0.29756597
c     0.59559798     0.31889128     0.20243397
c     0.40440199     0.68110871     0.79756596
c     0.06286208     0.10888987     0.75097185
c     0.93713789     0.89111012     0.24902809
c     0.56286209     0.39111013     0.25097185
c     0.43713788     0.60888986     0.74902808
c     0.13708601     0.04904829     0.72857777
c     0.86291396     0.95095171     0.27142218
c     0.63708602     0.45095171     0.22857777
c     0.36291395     0.54904828     0.77142216
c     0.25012263     0.06260334     0.65648611
c     0.74987735     0.93739665     0.34351384
c     0.75012263     0.43739666     0.15648611
c     0.24987733     0.56260333     0.84351382
c     0.28951792     0.13483060     0.61601908
c     0.71048206     0.86516939     0.38398087
c     0.78951792     0.36516939     0.11601908
c     0.21048204     0.63483060     0.88398086
f     0.95245374     0.09594405     0.82297083
f     0.04754623     0.90405594     0.17702912
f     0.45245375     0.40405594     0.32297083
f     0.54754622     0.59594405     0.67702910
br    0.34894840     0.98047698     0.61013915
br    0.65105157     0.01952301     0.38986080
br    0.84894841     0.51952302     0.11013914
br    0.15105156     0.48047697     0.88986079
cl    0.43338809     0.15135235     0.55407904
cl    0.56661188     0.84864764     0.44592091
cl    0.93338810     0.34864765     0.05407904
cl    0.06661187     0.65135235     0.94592089
br    0.25616028     0.29231380     0.57445137
br    0.74383969     0.70768619     0.42554858
br    0.75616029     0.20768620     0.07445136
br    0.24383968     0.79231379     0.92554857
h     0.10830983     0.99334788     0.76982930
h     0.89169014     0.00665212     0.23017065
h     0.60830984     0.50665212     0.26982930
h     0.39169013     0.49334787     0.73017063
h     0.03372580     0.22623048     0.71793676
h     0.96627417     0.77376951     0.28206319
h     0.53372581     0.27376952     0.21793676
h     0.46627416     0.72623047     0.78206318

K_POINTS automatic
2 2 2 1 1 1

CELL_PARAMETERS cubic
   21.224367000000     0.000000000000     0.694815000000
    0.000000000000    34.248443000000     0.000000000000
   -2.153825000000     0.000000000000     6.969672000000
