&control
 title='crystal',
 prefix='crystal',
 pseudo_dir='.',
 calculation='vc-relax',
/
&system
 ibrav=0,
 celldm(1)=1.0,
 nat=    48,
 ntyp=  5,
 ecutwfc=60.0,
 ecutrho=600.0,
 xdm=.true.,
 xdm_a1=0.4073,
 xdm_a2=2.4150,
/
&electrons
 conv_thr = 1d-8,
/
&ions
/
&cell
/
ATOMIC_SPECIES
h      1.007940 h.UPF
c     12.010700 c.UPF
f     18.998403 f.UPF
cl    35.453000 cl.UPF
br    79.904000 br.UPF

ATOMIC_POSITIONS crystal
c     0.97769667     0.30413307     0.86362811
c     0.02230345     0.69586695     0.13637190
c     0.97769664     0.19586694     0.36362811
c     0.02230347     0.80413307     0.63637190
c     0.70725127     0.08289474     0.89787524
c     0.29274885     0.91710528     0.10212477
c     0.70725124     0.41710527     0.39787524
c     0.29274887     0.58289474     0.60212477
c     0.66521071     0.11825972     0.82383494
c     0.33478940     0.88174029     0.17616507
c     0.66521069     0.38174028     0.32383494
c     0.33478943     0.61825973     0.67616507
c     0.80259993     0.22939289     0.80744511
c     0.19740018     0.77060713     0.19255490
c     0.80259991     0.27060712     0.30744511
c     0.19740021     0.72939289     0.69255490
c     0.88255781     0.15211230     0.95522552
c     0.11744231     0.84788772     0.04477449
c     0.88255778     0.34788771     0.45522552
c     0.11744234     0.65211230     0.54477449
c     0.01931775     0.26256044     0.93748462
c     0.98068236     0.73743958     0.06251539
c     0.01931773     0.23743957     0.43748462
c     0.98068239     0.76256044     0.56251539
h     0.90899392     0.12194671     0.01258770
h     0.09100619     0.87805330     0.98741231
h     0.90899389     0.37805330     0.51258770
h     0.09100622     0.62194671     0.48741231
h     0.52641383     0.06141483     0.78033538
h     0.47358628     0.93858518     0.21966462
h     0.52641381     0.43858518     0.28033538
h     0.47358631     0.56141483     0.71966462
cl    0.13309812     0.44343426     0.84260855
cl    0.86690199     0.55656576     0.15739146
cl    0.13309809     0.05656575     0.34260855
cl    0.86690202     0.94343426     0.65739146
f     0.56955334     0.97550782     0.91523201
f     0.43044678     0.02449220     0.08476800
f     0.56955331     0.52449219     0.41523201
f     0.43044681     0.47550782     0.58476800
br    0.74415391     0.27683368     0.70581059
br    0.25584621     0.72316634     0.29418942
br    0.74415388     0.22316633     0.20581059
br    0.25584623     0.77683368     0.79418942
br    0.26299714     0.35473469     0.01692574
br    0.73700298     0.64526533     0.98307427
br    0.26299711     0.14526532     0.51692574
br    0.73700301     0.85473469     0.48307427

K_POINTS automatic
2 2 2 1 1 1

CELL_PARAMETERS cubic
    7.374207000000     0.000000000000     0.064475000000
    0.000000000000    20.917049000000     0.000000000000
   -5.703627000000     0.000000000000    33.845062000000
