&control
 title='crystal',
 prefix='crystal',
 pseudo_dir='.',
 calculation='vc-relax',
/
&system
 ibrav=0,
 celldm(1)=1.0,
 nat=    48,
 ntyp=  5,
 ecutwfc=60.0,
 ecutrho=600.0,
 xdm=.true.,
 xdm_a1=0.4073,
 xdm_a2=2.4150,
/
&electrons
 conv_thr = 1d-8,
/
&ions
/
&cell
/
ATOMIC_SPECIES
h      1.007940 h.UPF
c     12.010700 c.UPF
f     18.998403 f.UPF
cl    35.453000 cl.UPF
br    79.904000 br.UPF

ATOMIC_POSITIONS crystal
c     0.58702803     0.04958844     0.35425105
c     0.41297196     0.95041156     0.64574892
c     0.58702805     0.45041156     0.85425104
c     0.41297193     0.54958845     0.14574894
c     0.40662653     0.06356206     0.24376633
c     0.59337346     0.93643794     0.75623365
c     0.40662655     0.43643794     0.74376632
c     0.59337343     0.56356206     0.25623366
c     0.33260413     0.13645738     0.20505069
c     0.66739586     0.86354262     0.79494929
c     0.33260415     0.36354262     0.70505067
c     0.66739583     0.63645738     0.29494930
c     0.43337052     0.19531886     0.28286573
c     0.56662946     0.80468114     0.71713425
c     0.43337055     0.30468114     0.78286571
c     0.56662944     0.69531887     0.21713426
c     0.61179965     0.18261909     0.39422211
c     0.38820033     0.81738092     0.60577787
c     0.61179968     0.31738091     0.89422209
c     0.38820031     0.68261909     0.10577788
c     0.68790871     0.10970447     0.42627161
c     0.31209127     0.89029554     0.57372837
c     0.68790874     0.39029553     0.92627159
c     0.31209125     0.60970447     0.07372838
br    0.25859592     0.98092310     0.14786864
br    0.74140406     0.01907691     0.85213134
br    0.25859595     0.51907690     0.64786862
br    0.74140404     0.48092310     0.35213135
br    0.32423953     0.29508452     0.23973839
br    0.67576046     0.70491548     0.76026159
br    0.32423955     0.20491548     0.73973838
br    0.67576043     0.79508452     0.26026160
cl    0.12991330     0.15329089     0.06465116
cl    0.87008669     0.84670912     0.93534882
cl    0.12991332     0.34670911     0.56465115
cl    0.87008666     0.65329089     0.43534883
f     0.86689823     0.09631597     0.53386488
f     0.13310176     0.90368404     0.46613510
f     0.86689825     0.40368403     0.03386486
f     0.13310173     0.59631597     0.96613511
h     0.64783267     0.99325831     0.38335944
h     0.35216731     0.00674170     0.61664054
h     0.64783270     0.50674169     0.88335942
h     0.35216729     0.49325831     0.11664055
h     0.68816428     0.22797857     0.45489584
h     0.31183570     0.77202143     0.54510413
h     0.68816431     0.27202143     0.95489583
h     0.31183567     0.72797858     0.04510415

K_POINTS automatic
2 2 2 1 1 1

CELL_PARAMETERS cubic
    7.300015000000     0.000000000000    -0.225047000000
    0.000000000000    33.991342000000     0.000000000000
   -0.488372000000     0.000000000000    20.802980000000
