&control
 title='crystal',
 prefix='crystal',
 pseudo_dir='.',
 calculation='vc-relax',
/
&system
 ibrav=0,
 celldm(1)=1.0,
 nat=    48,
 ntyp=  5,
 ecutwfc=60.0,
 ecutrho=600.0,
 xdm=.true.,
 xdm_a1=0.4073,
 xdm_a2=2.4150,
/
&electrons
 conv_thr = 1d-8,
/
&ions
/
&cell
/
ATOMIC_SPECIES
h      1.007940 h.UPF
c     12.010700 c.UPF
f     18.998403 f.UPF
cl    35.453000 cl.UPF
br    79.904000 br.UPF

ATOMIC_POSITIONS crystal
c     0.71620417     0.89251770     0.88387858
c     0.28379580     0.10748227     0.11612141
c     0.28379582     0.39251827     0.61612162
c     0.71620414     0.60748170     0.38387837
c     0.01820986     0.57016197     0.85453789
c     0.98179011     0.42983801     0.14546210
c     0.98178944     0.07015949     0.64546196
c     0.01821052     0.92984048     0.35453803
c     0.96610535     0.58763145     0.90303703
c     0.03389461     0.41236853     0.09696296
c     0.03389440     0.08763128     0.59696313
c     0.96610557     0.91236870     0.40303686
c     0.81463536     0.74994790     0.91728625
c     0.18536460     0.25005208     0.08271374
c     0.18536442     0.24994792     0.58271355
c     0.81463554     0.75005206     0.41728644
c     0.92055915     0.70550053     0.81993966
c     0.07944082     0.29449944     0.18006033
c     0.07943934     0.20549870     0.68006024
c     0.92056062     0.79450128     0.31993975
c     0.76676664     0.86545515     0.83502163
c     0.23323333     0.13454483     0.16497836
c     0.23323249     0.36545428     0.66497840
c     0.76676748     0.63454569     0.33502158
h     0.96378132     0.68531512     0.78225090
h     0.03621865     0.31468486     0.21774909
h     0.03621868     0.18531509     0.71774905
h     0.96378128     0.81468489     0.28225094
h     0.04220024     0.47816167     0.92913328
h     0.95779973     0.52183830     0.07086670
h     0.95779974     0.97816152     0.57086660
h     0.04220022     0.02183845     0.42913339
cl    0.53952772     0.09526654     0.90184736
cl    0.46047225     0.90473344     0.09815262
cl    0.46047171     0.59526640     0.59815289
cl    0.53952826     0.40473357     0.40184709
f     0.16948067     0.41453858     0.84016826
f     0.83051929     0.58546139     0.15983172
f     0.83052302     0.91453094     0.65983062
f     0.16947694     0.08546904     0.34016937
br    0.73433876     0.77410456     0.98325178
br    0.26566120     0.22589542     0.01674821
br    0.26566076     0.27410434     0.51674815
br    0.73433921     0.72589564     0.48325184
br    0.61749127     0.04649323     0.78715966
br    0.38250870     0.95350674     0.21284033
br    0.38250863     0.54649255     0.71284069
br    0.61749134     0.45350743     0.28715930

K_POINTS automatic
2 2 2 1 1 1

CELL_PARAMETERS cubic
    7.561108000000    -0.000005000000    -0.089565000000
   -0.000010000000    13.571825000000    -0.000006000000
   -5.595811000000    -0.000019000000    51.946681000000
