&control
 title='crystal',
 prefix='crystal',
 pseudo_dir='.',
 calculation='vc-relax',
/
&system
 ibrav=0,
 celldm(1)=1.0,
 nat=    96,
 ntyp=  5,
 ecutwfc=60.0,
 ecutrho=600.0,
 xdm=.true.,
 xdm_a1=0.4073,
 xdm_a2=2.4150,
/
&electrons
 conv_thr = 1d-8,
/
&ions
/
&cell
/
ATOMIC_SPECIES
h      1.007940 h.UPF
c     12.010700 c.UPF
f     18.998403 f.UPF
cl    35.453000 cl.UPF
br    79.904000 br.UPF

ATOMIC_POSITIONS crystal
c     0.97675542     0.19257961     0.21833792
c     0.47675547     0.69257850     0.71833791
c     0.02324458     0.80742039     0.21833792
c     0.52324463     0.30741929     0.71833791
c     0.19257961     0.02324458     0.78166211
c     0.69257966     0.52324347     0.28166209
c     0.80742039     0.97675542     0.78166211
c     0.30742044     0.47675432     0.28166209
c     0.01297543     0.24998907     0.12483810
c     0.51297548     0.74998796     0.62483809
c     0.98702457     0.75001093     0.12483810
c     0.48702462     0.25000983     0.62483809
c     0.24998907     0.98702457     0.87516193
c     0.74998912     0.48702347     0.37516191
c     0.75001093     0.01297543     0.87516193
c     0.25001098     0.51297432     0.37516191
c     0.97674159     0.30741568     0.03176802
c     0.47674164     0.80741457     0.53176800
c     0.02325841     0.69258432     0.03176802
c     0.52325846     0.19258322     0.53176800
c     0.30741568     0.02325841     0.96823201
c     0.80741573     0.52325730     0.46823200
c     0.69258432     0.97674159     0.96823201
c     0.19258437     0.47674049     0.46823200
c     0.90718266     0.30817998     0.03095150
c     0.40718271     0.80817887     0.53095149
c     0.09281734     0.69182002     0.03095150
c     0.59281739     0.19181892     0.53095149
c     0.30817998     0.09281734     0.96904854
c     0.80818003     0.59281624     0.46904852
c     0.69182002     0.90718266     0.96904854
c     0.19182008     0.40718155     0.46904852
c     0.87399813     0.25002176     0.12567612
c     0.37399818     0.75002065     0.62567611
c     0.12600187     0.74997824     0.12567612
c     0.62600192     0.24997714     0.62567611
c     0.25002176     0.12600187     0.87432391
c     0.75002181     0.62600077     0.37432389
c     0.74997824     0.87399813     0.87432391
c     0.24997829     0.37399703     0.37432389
c     0.90719638     0.19185400     0.22008081
c     0.40719643     0.69185290     0.72008080
c     0.09280362     0.80814600     0.22008081
c     0.59280367     0.30814489     0.72008080
c     0.19185400     0.09280362     0.77991922
c     0.69185405     0.59280252     0.27991920
c     0.80814600     0.90719638     0.77991922
c     0.30814605     0.40719528     0.27991920
br    0.02256662     0.11274346     0.34803288
br    0.52256667     0.61274235     0.84803286
br    0.97743338     0.88725654     0.34803288
br    0.47743343     0.38725544     0.84803286
br    0.11274346     0.97743338     0.65196716
br    0.61274351     0.47743227     0.15196715
br    0.88725654     0.02256662     0.65196716
br    0.38725659     0.52256552     0.15196715
br    0.02253878     0.38721076     0.90122784
br    0.52253883     0.88720965     0.40122783
br    0.97746122     0.61278924     0.90122784
br    0.47746127     0.11278814     0.40122783
br    0.38721076     0.97746122     0.09877219
br    0.88721081     0.47746012     0.59877217
br    0.61278924     0.02253878     0.09877219
br    0.11278929     0.52253768     0.59877217
cl    0.09901529     0.24997436     0.12439892
cl    0.59901534     0.74997326     0.62439891
cl    0.90098471     0.75002564     0.12439892
cl    0.40098476     0.25002453     0.62439891
cl    0.24997436     0.90098471     0.87560112
cl    0.74997441     0.40098361     0.37560110
cl    0.75002564     0.09901529     0.87560112
cl    0.25002569     0.59901419     0.37560110
f     0.80628226     0.25002941     0.12597754
f     0.30628231     0.75002830     0.62597753
f     0.19371774     0.74997059     0.12597754
f     0.69371779     0.24996949     0.62597753
f     0.25002941     0.19371774     0.87402250
f     0.75002946     0.69371664     0.37402248
f     0.74997059     0.80628226     0.87402250
f     0.24997064     0.30628115     0.37402248
h     0.87921557     0.35271332     0.95942824
h     0.37921562     0.85271222     0.45942822
h     0.12078443     0.64728668     0.95942824
h     0.62078448     0.14728557     0.45942822
h     0.35271332     0.12078443     0.04057179
h     0.85271337     0.62078332     0.54057178
h     0.64728668     0.87921557     0.04057179
h     0.14728673     0.37921447     0.54057178
h     0.87924076     0.14734486     0.29215207
h     0.37924082     0.64734376     0.79215206
h     0.12075924     0.85265514     0.29215207
h     0.62075929     0.35265403     0.79215206
h     0.14734486     0.12075924     0.70784795
h     0.64734491     0.62075813     0.20784794
h     0.85265514     0.87924076     0.70784795
h     0.35265519     0.37923966     0.20784794

K_POINTS automatic
2 2 2 1 1 1

CELL_PARAMETERS cubic
   37.784003000000     0.000000000000     0.000000000000
    0.000000000000    37.784003000000     0.000000000000
    0.000000000000     0.000000000000     7.196219000000
