&control
 title='crystal',
 prefix='crystal',
 pseudo_dir='.',
 calculation='vc-relax',
/
&system
 ibrav=0,
 celldm(1)=1.0,
 nat=    48,
 ntyp=  5,
 ecutwfc=60.0,
 ecutrho=600.0,
 xdm=.true.,
 xdm_a1=0.4073,
 xdm_a2=2.4150,
/
&electrons
 conv_thr = 1d-8,
/
&ions
/
&cell
/
ATOMIC_SPECIES
h      1.007940 h.UPF
c     12.010700 c.UPF
f     18.998403 f.UPF
cl    35.453000 cl.UPF
br    79.904000 br.UPF

ATOMIC_POSITIONS crystal
c     0.14039662     0.05462848     0.15976883
c     0.64039662     0.44537151     0.15976883
c     0.35960338     0.55462848     0.65976884
c     0.85960338     0.94537151     0.65976884
c     0.25128404     0.06643926     0.99626827
c     0.75128404     0.43356073     0.99626827
c     0.24871596     0.56643926     0.49626828
c     0.74871596     0.93356073     0.49626828
c     0.29121074     0.13810835     0.91501073
c     0.79121074     0.36189164     0.91501073
c     0.20878926     0.63810835     0.41501074
c     0.70878925     0.86189163     0.41501074
c     0.21459507     0.19791041     0.99248671
c     0.71459507     0.30208958     0.99248671
c     0.28540493     0.69791041     0.49248673
c     0.78540492     0.80208957     0.49248673
c     0.10299309     0.18736580     0.15402030
c     0.60299309     0.31263419     0.15402030
c     0.39700691     0.68736580     0.65402031
c     0.89700690     0.81263419     0.65402031
c     0.06906558     0.11562473     0.23456142
c     0.56906558     0.38437527     0.23456142
c     0.43093442     0.61562472     0.73456143
c     0.93093441     0.88437526     0.73456143
br    0.34576891     0.98253391     0.87787489
br    0.84576891     0.51746609     0.87787489
br    0.15423109     0.48253391     0.37787490
br    0.65423108     0.01746608     0.37787490
br    0.25901972     0.29595076     0.87037832
br    0.75901972     0.20404923     0.87037832
br    0.24098028     0.79595076     0.37037833
br    0.74098027     0.70404923     0.37037833
cl    0.43178142     0.15211963     0.73231990
cl    0.93178142     0.34788036     0.73231990
cl    0.06821858     0.65211963     0.23231991
cl    0.56821858     0.84788036     0.23231991
f     0.96036584     0.10438118     0.39273637
f     0.46036584     0.39561882     0.39273637
f     0.53963416     0.60438117     0.89273639
f     0.03963415     0.89561881     0.89273639
h     0.11058159     0.99929851     0.22706298
h     0.61058159     0.50070148     0.22706298
h     0.38941841     0.49929851     0.72706299
h     0.88941840     0.00070147     0.72706299
h     0.04381379     0.23350330     0.21549751
h     0.54381379     0.26649669     0.21549751
h     0.45618621     0.73350330     0.71549752
h     0.95618620     0.76649669     0.71549752

K_POINTS automatic
2 2 2 1 1 1

CELL_PARAMETERS cubic
   20.832199000000     0.000000000000     0.000000000000
    0.000000000000    34.159641000000     0.000000000000
    0.000000000000     0.000000000000     7.293451000000
