&control
 title='crystal',
 prefix='crystal',
 pseudo_dir='.',
 calculation='vc-relax',
/
&system
 ibrav=0,
 celldm(1)=1.0,
 nat=    48,
 ntyp=  5,
 ecutwfc=60.0,
 ecutrho=600.0,
 xdm=.true.,
 xdm_a1=0.4073,
 xdm_a2=2.4150,
/
&electrons
 conv_thr = 1d-8,
/
&ions
/
&cell
/
ATOMIC_SPECIES
h      1.007940 h.UPF
c     12.010700 c.UPF
f     18.998403 f.UPF
cl    35.453000 cl.UPF
br    79.904000 br.UPF

ATOMIC_POSITIONS crystal
br    0.26617429     0.51823738     0.15020347
br    0.73382575     0.48176262     0.84979654
br    0.26617430     0.98176261     0.65020346
br    0.73382575     0.01823738     0.34979655
br    0.31415209     0.20588552     0.24757336
br    0.68584796     0.79411447     0.75242665
br    0.31415210     0.29411447     0.74757335
br    0.68584796     0.70588552     0.25242666
cl    0.11004900     0.34692017     0.06961296
cl    0.88995104     0.65307982     0.93038704
cl    0.11004901     0.15307982     0.56961295
cl    0.88995105     0.84692017     0.43038705
f     0.87786653     0.40371471     0.54718848
f     0.12213352     0.59628528     0.45281153
f     0.87786654     0.09628527     0.04718847
f     0.12213352     0.90371472     0.95281153
c     0.32491278     0.36365527     0.21195400
c     0.67508726     0.63634472     0.78804601
c     0.32491279     0.13634471     0.71195399
c     0.67508726     0.86365528     0.28804602
c     0.40911006     0.43612882     0.24999631
c     0.59088998     0.56387118     0.75000369
c     0.40911008     0.06387117     0.74999630
c     0.59088998     0.93612882     0.25000370
c     0.59749955     0.45001874     0.36237335
c     0.40250050     0.54998125     0.63762666
c     0.59749956     0.04998124     0.86237334
c     0.40250050     0.95001875     0.13762667
c     0.69501419     0.39026260     0.43698051
c     0.30498586     0.60973739     0.56301950
c     0.69501420     0.10973739     0.93698050
c     0.30498586     0.89026260     0.06301951
c     0.61342467     0.31776286     0.40495829
c     0.38657538     0.68223713     0.59504171
c     0.61342468     0.18223712     0.90495828
c     0.38657538     0.81776287     0.09504172
c     0.42775657     0.30509948     0.29155186
c     0.57224347     0.69490052     0.70844814
c     0.42775658     0.19490051     0.79155185
c     0.57224347     0.80509948     0.20844815
h     0.66856317     0.50591646     0.39058757
h     0.33143687     0.49408353     0.60941244
h     0.66856319     0.99408353     0.89058756
h     0.33143687     0.00591646     0.10941245
h     0.69313974     0.27269094     0.46685970
h     0.30686031     0.72730905     0.53314030
h     0.69313975     0.22730904     0.96685969
h     0.30686031     0.77269095     0.03314031

K_POINTS automatic
2 2 2 1 1 1

CELL_PARAMETERS cubic
    7.303818000000     0.000000000000    -0.306931000000
    0.000000000000    34.159716000000     0.000000000000
   -1.030803000000     0.000000000000    20.622636000000
