&control
 title='crystal',
 prefix='crystal',
 pseudo_dir='.',
 calculation='vc-relax',
/
&system
 ibrav=0,
 celldm(1)=1.0,
 nat=    24,
 ntyp=  5,
 ecutwfc=60.0,
 ecutrho=600.0,
 xdm=.true.,
 xdm_a1=0.4073,
 xdm_a2=2.4150,
/
&electrons
 conv_thr = 1d-8,
/
&ions
/
&cell
/
ATOMIC_SPECIES
h      1.007940 h.UPF
c     12.010700 c.UPF
f     18.998403 f.UPF
cl    35.453000 cl.UPF
br    79.904000 br.UPF

ATOMIC_POSITIONS crystal
c     0.95545349     0.62285956     0.76936241
c     0.04454650     0.12285957     0.23063761
cl    0.73043346     0.42880316     0.81471480
cl    0.26956653     0.92880316     0.18528521
c     0.10635743     0.62843493     0.67083610
c     0.89364257     0.12843494     0.32916391
br    0.03935836     0.42913578     0.58307040
br    0.96064163     0.92913579     0.41692962
c     0.30247833     0.78002401     0.63389825
c     0.69752166     0.28002401     0.36610177
h     0.42315086     0.78350017     0.55803525
h     0.57684913     0.28350018     0.44196477
c     0.34199814     0.92857615     0.69706009
c     0.65800186     0.42857616     0.30293993
f     0.53664849     0.07553110     0.66238648
f     0.46335150     0.57553111     0.33761354
c     0.19055011     0.93271879     0.79406291
c     0.80944988     0.43271879     0.20593711
h     0.22236016     0.05281113     0.84102813
h     0.77763983     0.55281114     0.15897189
c     0.99744290     0.77867742     0.82957616
c     0.00255709     0.27867743     0.17042385
br    0.78371138     0.78950176     0.96169881
br    0.21628861     0.28950176     0.03830121

K_POINTS automatic
2 2 2 1 1 1

CELL_PARAMETERS cubic
    7.675674000000     0.000000000000     0.051872000000
    0.000000000000    13.394678000000     0.000000000000
    3.411637000000     0.000000000000    25.668343000000
