&control
 title='crystal',
 prefix='crystal',
 pseudo_dir='.',
 calculation='vc-relax',
/
&system
 ibrav=0,
 celldm(1)=1.0,
 nat=    24,
 ntyp=  5,
 ecutwfc=60.0,
 ecutrho=600.0,
 xdm=.true.,
 xdm_a1=0.4073,
 xdm_a2=2.4150,
/
&electrons
 conv_thr = 1d-8,
/
&ions
/
&cell
/
ATOMIC_SPECIES
h      1.007940 h.UPF
c     12.010700 c.UPF
f     18.998403 f.UPF
cl    35.453000 cl.UPF
br    79.904000 br.UPF

ATOMIC_POSITIONS crystal
c     0.47051855     0.09296938     0.23913723
c     0.52948148     0.59296938     0.76086273
c     0.54562670     0.98660347     0.23502449
c     0.45437333     0.48660348     0.76497547
c     0.70274410     0.98774368     0.24175744
c     0.29725593     0.48774368     0.75824252
c     0.78377424     0.09340018     0.25208627
c     0.21622579     0.59340018     0.74791368
c     0.70218297     0.19885159     0.25706772
c     0.29781706     0.69885159     0.74293223
c     0.54501304     0.19954942     0.25058875
c     0.45498699     0.69954942     0.74941121
cl    0.97767810     0.09372967     0.25724165
cl    0.02232193     0.59372967     0.74275831
br    0.80415970     0.34478196     0.27402271
br    0.19584033     0.84478197     0.72597725
br    0.80550457     0.84204497     0.23599918
br    0.19449546     0.34204497     0.76400078
f     0.31770393     0.09276552     0.23229764
f     0.68229610     0.59276553     0.76770232
h     0.48066142     0.28032082     0.25484121
h     0.51933861     0.78032082     0.74515875
h     0.48168690     0.90561943     0.22694352
h     0.51831313     0.40561944     0.77305644

K_POINTS automatic
2 2 2 1 1 1

CELL_PARAMETERS cubic
   16.747932000000     0.000000000000     0.108785000000
    0.000000000000    21.588944000000     0.000000000000
   -0.093384000000     0.000000000000     7.286133000000
