&control
 title='crystal',
 prefix='crystal',
 pseudo_dir='.',
 calculation='vc-relax',
/
&system
 ibrav=0,
 celldm(1)=1.0,
 nat=    48,
 ntyp=  5,
 ecutwfc=60.0,
 ecutrho=600.0,
 xdm=.true.,
 xdm_a1=0.4073,
 xdm_a2=2.4150,
/
&electrons
 conv_thr = 1d-8,
/
&ions
/
&cell
/
ATOMIC_SPECIES
h      1.007940 h.UPF
c     12.010700 c.UPF
f     18.998403 f.UPF
cl    35.453000 cl.UPF
br    79.904000 br.UPF

ATOMIC_POSITIONS crystal
c     0.58870977     0.76018745     0.06056038
c     0.41129013     0.23981256     0.93943962
c     0.08870980     0.73981256     0.56056039
c     0.91129012     0.26018745     0.43943961
c     0.42522248     0.64897562     0.04491060
c     0.57477743     0.35102439     0.95508940
c     0.92522251     0.85102439     0.54491061
c     0.07477741     0.14897562     0.45508939
c     0.31522185     0.58002943     0.10326514
c     0.68477805     0.41997058     0.89673486
c     0.81522188     0.91997059     0.60326515
c     0.18477804     0.08002942     0.39673485
c     0.36414276     0.61591810     0.17629983
c     0.63585715     0.38408191     0.82370017
c     0.86414279     0.88408192     0.67629984
c     0.13585713     0.11591809     0.32370016
c     0.52569027     0.72802691     0.19059477
c     0.47430963     0.27197310     0.80940523
c     0.02569030     0.77197311     0.69059478
c     0.97430962     0.22802690     0.30940522
c     0.63667028     0.80274053     0.13335740
c     0.36332963     0.19725948     0.86664260
c     0.13667031     0.69725948     0.63335741
c     0.86332961     0.30274053     0.36664259
f     0.15308800     0.47163648     0.08796029
f     0.84691191     0.52836353     0.91203971
f     0.65308803     0.02836353     0.58796030
f     0.34691189     0.97163648     0.41203970
br    0.59092876     0.77770160     0.29060938
br    0.40907114     0.22229841     0.70939062
br    0.09092879     0.72229841     0.79060940
br    0.90907113     0.27770160     0.20939061
cl    0.81927940     0.94398180     0.15198101
cl    0.18072051     0.05601821     0.84801899
cl    0.31927943     0.55601821     0.65198102
cl    0.68072049     0.44398180     0.34801898
br    0.74363114     0.85209893     0.98003356
br    0.25636877     0.14790108     0.01996644
br    0.24363117     0.64790109     0.48003357
br    0.75636875     0.35209892     0.51996643
h     0.27734270     0.55814494     0.22043071
h     0.72265720     0.44185507     0.77956929
h     0.77734273     0.94185507     0.72043072
h     0.22265719     0.05814494     0.27956929
h     0.38279616     0.61744047     0.98853412
h     0.61720374     0.38255954     0.01146588
h     0.88279619     0.88255954     0.48853413
h     0.11720373     0.11744047     0.51146587

K_POINTS automatic
2 2 2 1 1 1

CELL_PARAMETERS cubic
    7.398961000000     0.000000000000    -0.035542000000
    0.000000000000    20.567195000000     0.000000000000
   -1.549826000000     0.000000000000    34.249106000000
