&control
 title='crystal',
 prefix='crystal',
 pseudo_dir='.',
 calculation='vc-relax',
/
&system
 ibrav=0,
 celldm(1)=1.0,
 nat=    48,
 ntyp=  5,
 ecutwfc=60.0,
 ecutrho=600.0,
 xdm=.true.,
 xdm_a1=0.4073,
 xdm_a2=2.4150,
/
&electrons
 conv_thr = 1d-8,
/
&ions
/
&cell
/
ATOMIC_SPECIES
h      1.007940 h.UPF
c     12.010700 c.UPF
f     18.998403 f.UPF
cl    35.453000 cl.UPF
br    79.904000 br.UPF

ATOMIC_POSITIONS crystal
br    0.77398179     0.34693782     0.97484234
br    0.22601813     0.65306217     0.02515764
br    0.77398180     0.15306217     0.47484234
br    0.22601811     0.84693782     0.52515764
br    0.08627528     0.26334420     0.28919711
br    0.91372464     0.73665580     0.71080287
br    0.08627528     0.23665580     0.78919712
br    0.91372462     0.76334419     0.21080286
cl    0.79269624     0.43456480     0.14614434
cl    0.20730368     0.56543520     0.85385563
cl    0.79269625     0.06543520     0.64614435
cl    0.20730366     0.93456479     0.35385563
f     0.43363207     0.96577101     0.09251246
f     0.56636784     0.03422898     0.90748752
f     0.43363208     0.53422898     0.59251247
f     0.56636783     0.46577101     0.40748751
c     0.96757801     0.29431080     0.13049681
c     0.03242191     0.70568920     0.86950317
c     0.96757801     0.20568920     0.63049682
c     0.03242189     0.79431079     0.36950316
c     0.97933207     0.25403892     0.05803727
c     0.02066784     0.74596107     0.94196271
c     0.97933208     0.24596107     0.55803728
c     0.02066783     0.75403892     0.44196270
c     0.13852772     0.14407220     0.04480811
c     0.86147219     0.85592780     0.95519187
c     0.13852773     0.35592780     0.54480811
c     0.86147218     0.64407219     0.45519186
c     0.27807548     0.07345779     0.10517448
c     0.72192444     0.92654221     0.89482550
c     0.27807549     0.42654221     0.60517449
c     0.72192442     0.57345778     0.39482549
c     0.26477831     0.10712275     0.17772396
c     0.73522161     0.89287725     0.82227602
c     0.26477831     0.39287725     0.67772396
c     0.73522160     0.60712274     0.32227602
c     0.10898358     0.21840254     0.18971022
c     0.89101634     0.78159746     0.81028975
c     0.10898359     0.28159746     0.68971023
c     0.89101632     0.71840253     0.31028975
h     0.15733483     0.11483687     0.98893848
h     0.84266508     0.88516313     0.01106150
h     0.15733484     0.38516313     0.48893848
h     0.84266507     0.61483687     0.51106150
h     0.37206094     0.04787556     0.22335079
h     0.62793898     0.95212443     0.77664919
h     0.37206095     0.45212443     0.72335079
h     0.62793896     0.54787556     0.27664919

K_POINTS automatic
2 2 2 1 1 1

CELL_PARAMETERS cubic
    7.353577000000     0.000000000000    -0.111688000000
    0.000000000000    20.668517000000     0.000000000000
   -5.034720000000     0.000000000000    34.170750000000
