&control
 title='crystal',
 prefix='crystal',
 pseudo_dir='.',
 calculation='vc-relax',
/
&system
 ibrav=0,
 celldm(1)=1.0,
 nat=    48,
 ntyp=  5,
 ecutwfc=60.0,
 ecutrho=600.0,
 xdm=.true.,
 xdm_a1=0.4073,
 xdm_a2=2.4150,
/
&electrons
 conv_thr = 1d-8,
/
&ions
/
&cell
/
ATOMIC_SPECIES
h      1.007940 h.UPF
c     12.010700 c.UPF
f     18.998403 f.UPF
cl    35.453000 cl.UPF
br    79.904000 br.UPF

ATOMIC_POSITIONS crystal
c     0.48692418     0.25055111     0.50853093
c     0.98692417     0.24944889     0.49146909
c     0.51307582     0.75055112     0.99146911
c     0.01307582     0.74944889     0.00853092
c     0.52414064     0.14410278     0.49891039
c     0.02414063     0.35589723     0.50108964
c     0.47585936     0.64410278     0.00108966
c     0.97585936     0.85589723     0.99891037
c     0.60247621     0.14486434     0.47908236
c     0.10247620     0.35513567     0.52091767
c     0.39752379     0.64486434     0.02091768
c     0.89752379     0.85513567     0.97908235
c     0.64311446     0.25023370     0.46940059
c     0.14311446     0.24976631     0.53059944
c     0.35688554     0.75023370     0.03059946
c     0.85688554     0.74976631     0.96940057
c     0.60266098     0.35575930     0.47932360
c     0.10266098     0.14424070     0.52067643
c     0.39733901     0.85575931     0.02067644
c     0.89733902     0.64424071     0.97932358
c     0.52432760     0.35686412     0.49919132
c     0.02432759     0.14313588     0.50080871
c     0.47567240     0.85686413     0.00080872
c     0.97567240     0.64313589     0.99919130
cl    0.73982555     0.25001427     0.44663753
cl    0.23982555     0.24998573     0.55336250
cl    0.26017444     0.75001428     0.05336251
cl    0.76017445     0.74998573     0.94663751
br    0.65367568     0.50137550     0.46470810
br    0.15367567     0.99862450     0.53529193
br    0.34632432     0.00137551     0.03529194
br    0.84632432     0.49862451     0.96470808
br    0.65326613     0.99906219     0.46417993
br    0.15326613     0.50093781     0.53582009
br    0.34673387     0.49906220     0.03582011
br    0.84673387     0.00093782     0.96417992
f     0.41074626     0.25069640     0.52748482
f     0.91074626     0.24930360     0.47251521
f     0.58925373     0.75069641     0.97251522
f     0.08925374     0.74930360     0.02748481
h     0.49254511     0.43789493     0.50643683
h     0.99254510     0.06210508     0.49356320
h     0.50745489     0.93789493     0.99356322
h     0.00745489     0.56210508     0.00643681
h     0.49219601     0.06321187     0.50592073
h     0.99219600     0.43678813     0.49407929
h     0.50780399     0.56321188     0.99407931
h     0.00780399     0.93678814     0.00592072

K_POINTS automatic
2 2 2 1 1 1

CELL_PARAMETERS cubic
   33.546140000000     0.000000000000     0.000000000000
    0.000000000000    21.615373000000     0.000000000000
    0.000000000000     0.000000000000     7.273306000000
