&control
 title='crystal',
 prefix='crystal',
 pseudo_dir='.',
 calculation='vc-relax',
/
&system
 ibrav=0,
 celldm(1)=1.0,
 nat=    48,
 ntyp=  5,
 ecutwfc=60.0,
 ecutrho=600.0,
 xdm=.true.,
 xdm_a1=0.4073,
 xdm_a2=2.4150,
/
&electrons
 conv_thr = 1d-8,
/
&ions
/
&cell
/
ATOMIC_SPECIES
h      1.007940 h.UPF
c     12.010700 c.UPF
f     18.998403 f.UPF
cl    35.453000 cl.UPF
br    79.904000 br.UPF

ATOMIC_POSITIONS crystal
c     0.06375756     0.23084922     0.25850034
c     0.93624244     0.76915077     0.74149967
c     0.56375761     0.26915078     0.75850034
c     0.43624240     0.73084921     0.24149966
c     0.87020062     0.37667514     0.12523932
c     0.12979939     0.62332485     0.87476069
c     0.37020066     0.12332486     0.62523932
c     0.62979934     0.87667513     0.37476068
c     0.08860371     0.21439696     0.16537312
c     0.91139630     0.78560304     0.83462688
c     0.58860375     0.28560304     0.66537313
c     0.41139625     0.71439695     0.33462688
c     0.99457423     0.28686227     0.09804176
c     0.00542578     0.71313772     0.90195825
c     0.49457427     0.21313773     0.59804176
c     0.50542573     0.78686226     0.40195825
c     0.93658191     0.32314561     0.28210054
c     0.06341810     0.67685438     0.71789947
c     0.43658195     0.17685439     0.78210054
c     0.56341805     0.82314560     0.21789947
c     0.83725468     0.39663669     0.21604730
c     0.16274532     0.60336330     0.78395271
c     0.33725473     0.10336330     0.71604730
c     0.66274528     0.89663669     0.28395271
f     0.77513771     0.44768398     0.06033696
f     0.22486230     0.55231601     0.93966305
f     0.27513775     0.05231602     0.56033696
f     0.72486226     0.94768397     0.43966304
cl    0.18477429     0.14077594     0.34106862
cl    0.81522572     0.85922405     0.65893139
cl    0.68477433     0.35922405     0.84106862
cl    0.31522567     0.64077594     0.15893139
h     0.01394757     0.27394686     0.02602293
h     0.98605244     0.72605313     0.97397708
h     0.51394761     0.22605313     0.52602293
h     0.48605239     0.77394686     0.47397708
h     0.73637669     0.46771320     0.23435648
h     0.26362332     0.53228679     0.76564353
h     0.23637673     0.03228679     0.73435648
h     0.76362327     0.96771320     0.26564353
br    0.24706900     0.08980102     0.12739964
br    0.75293101     0.91019897     0.87260037
br    0.74706904     0.41019898     0.62739964
br    0.25293097     0.58980101     0.37260036
br    0.89269898     0.35208770     0.40672978
br    0.10730102     0.64791229     0.59327022
br    0.39269903     0.14791229     0.90672979
br    0.60730098     0.85208770     0.09327022

K_POINTS automatic
2 2 2 1 1 1

CELL_PARAMETERS cubic
    7.245740000000     0.000000000000     0.535976000000
    0.000000000000    25.488609000000     0.000000000000
   -6.936186000000     0.000000000000    26.829119000000
