%nprocs=4
%mem=2GB
#P pbepbe aug-cc-pvtz SCF=(Conver=5) int=(grid=ultrafine) output=wfx
 
title
 
0 1
     8      0.000000     0.000000     0.484677
     6      0.000000     0.000000    -0.646237

co.wfx


