%nprocs=4
%mem=2GB
#P pbepbe aug-cc-pvtz SCF=(Conver=5) int=(grid=ultrafine) output=wfx
 
title
 
0 1
    24            0.000000    0.000000    0.000000
     6            0.000000    0.000000    1.913231
     6            0.000000   -1.913231    0.000000
     6            1.913231    0.000000    0.000000
     6            0.000000    1.913231    0.000000
     6            0.000000    0.000000   -1.913231
     6           -1.913231    0.000000    0.000000
     8            0.000000    0.000000    3.056019
     8            3.056019    0.000000    0.000000
     8            0.000000    0.000000   -3.056019
     8           -3.056019    0.000000    0.000000
     8            0.000000   -3.056019    0.000000
     8            0.000000    3.056019    0.000000

CrCO6.wfx


