%nprocs=4
%mem=2GB
#P pbepbe aug-cc-pvtz SCF=(Conver=5) int=(grid=ultrafine) output=wfx
 
title
 
0 1
    26           -0.001257    0.000216    0.000000
     1           -1.538885   -0.000156    0.000000
     1            1.536305    0.001467    0.000000
     6            0.310669    1.768425    0.000000
     6           -0.313639   -0.000592    1.768198
     6            0.314405   -1.767373    0.000000
     6           -0.313639   -0.000592   -1.768198
     8           -0.604087   -0.001830   -2.870328
     8            0.608486   -2.868600    0.000000
     8           -0.604087   -0.001830    2.870328
     8            0.601296    2.870559    0.000000

FeCO4H2.wfx


