%nprocs=4
%mem=2GB
#P pbepbe aug-cc-pvtz SCF=(Conver=5) int=(grid=ultrafine) output=wfx
 
title
 
0 1
    26            0.000000    0.000000    0.000000
     6            0.000000    1.799671    0.000000
     6           -1.558561   -0.899836    0.000000
     6            0.000000    0.000000    1.810998
     6            1.558561   -0.899836    0.000000
     6            0.000000    0.000000   -1.810998
     8           -2.549960   -1.472220    0.000000
     8            0.000000    0.000000    2.951712
     8            0.000000    2.944440    0.000000
     8            2.549960   -1.472220    0.000000
     8            0.000000    0.000000   -2.951712

FeCO5.wfx


