%nprocs=4
%mem=2GB
#P pbepbe aug-cc-pvtz SCF=(Conver=5) int=(grid=ultrafine) output=wfx
 
title
 
0 1
     6           -0.233486    1.190809    1.658589
     6           -1.204678    0.145922    1.658589
     6           -0.511046   -1.100624    1.658589
     6            0.888834   -0.826145    1.658589
     6            1.060376    0.590038    1.658589
     1           -0.441120    2.250837    1.648858
     1           -2.276987    0.276017    1.648858
     1           -0.966135   -2.080250    1.648858
     1            1.679883   -1.561681    1.648858
     1            2.004360    1.115077    1.648858
    26            0.000000    0.000000    0.000000
     6           -1.060376    0.590038   -1.658589
     6            0.233486    1.190809   -1.658589
     6           -0.888834   -0.826145   -1.658589
     1           -2.004360    1.115077   -1.648858
     6            1.204678    0.145922   -1.658589
     1            0.441120    2.250837   -1.648858
     6            0.511046   -1.100624   -1.658589
     1           -1.679883   -1.561681   -1.648858
     1            2.276987    0.276017   -1.648858
     1            0.966135   -2.080250   -1.648858

FeCP2.wfx


