%nprocs=4
%mem=2GB
#P pbepbe aug-cc-pvtz SCF=(Conver=5) GFPrint int=(grid=ultrafine) output=wfx guess=alter
 
title
 
0 6
Mn


10 15

Mn.wfx


