%nprocs=4
%mem=2GB
#P pbepbe aug-cc-pvtz SCF=(Conver=5) int=(grid=ultrafine) output=wfx
 
title
 
0 1
     6            1.323903   -1.323944   -0.787967
     6            1.323903    1.323944   -0.787967
     6           -1.323903    1.323944   -0.787967
     6           -1.323903   -1.323944   -0.787967
     6            0.000000    0.000000   -2.738247
     8            2.122995    2.122900   -0.672877
     8            2.122995   -2.122900   -0.672877
     8            0.000000    0.000000   -3.882491
     8           -2.122995   -2.122900   -0.672877
     8           -2.122995    2.122900   -0.672877
    25            0.000000    0.000000   -0.923927
    17            0.000000    0.000000    1.461397

MnClCO5.wfx


