%nprocs=4
%mem=2GB
#P pbepbe aug-cc-pvtz SCF=(Conver=5) int=(grid=ultrafine) output=wfx
 
title
 
0 1
     6            1.297306   -1.296897   -0.773643
     6            1.297306    1.296897   -0.773643
     6           -1.297306    1.296897   -0.773643
     6           -1.297306   -1.296897   -0.773643
     6            0.000000    0.000000   -2.828526
     8            2.092815    2.090236   -0.577409
     8            2.092815   -2.090236   -0.577409
     8            0.000000    0.000000   -3.972651
     8           -2.092815   -2.090236   -0.577409
     8           -2.092815    2.090236   -0.577409
    25            0.000000    0.000000   -0.993410
     1            0.000000    0.000000    0.584117

MnHCO5.wfx


