%nprocs=4
%mem=2GB
#P pbepbe aug-cc-pvtz SCF=(Conver=5) int=(grid=ultrafine) output=wfx
 
title
 
0 1
     1     -0.534249    -1.206763     2.082516
     6     -0.009264    -0.790764     1.215675
     6     -0.009264    -0.790764    -1.215675
     6      0.642446     1.326989     0.000000
     6     -0.009264     0.746870    -1.264443
     6     -0.009264     0.746870     1.264443
     7     -0.605286    -1.351452     0.000000
     1      1.027354    -1.153044    -1.272002
     1      1.712494     1.075193     0.000000
     1     -1.046571     1.102931    -1.339366
     1     -1.046571     1.102931     1.339366
     1     -1.602368    -1.152380     0.000000
     1      1.027354    -1.153044     1.272002
     1     -0.534249    -1.206763    -2.082516
     1      0.580952     2.420885     0.000000
     1      0.510253     1.097509    -2.164586
     1      0.510253     1.097509     2.164586

piperidine.wfx


