%nprocs=4
%mem=2GB
#P pbepbe aug-cc-pvtz SCF=(Conver=5) GFPrint int=(grid=ultrafine) output=wfx guess=alter
 
title
 
0 3
Ti

11 14
12 15


Ti.wfx

