%nprocs=4
%mem=2GB
#P pbepbe aug-cc-pvtz SCF=(Conver=5) int=(grid=ultrafine) output=wfx
 
title
 
0 1
    22            0.000000    0.094997    0.231930
     8            0.000000    1.651808   -0.057339
    17            2.004936   -0.870005    0.412346
    17           -2.004936   -0.870005    0.412346

TiCl2O.wfx


