%nprocs=4
%mem=2GB
#P pbepbe aug-cc-pvtz SCF=(Conver=5) int=(grid=ultrafine) output=wfx
 
title
 
0 1
    22            0.000000    0.000000    0.000000
    17           -0.937201    1.132961    1.602249
    17            1.237459    1.327194   -1.198499
    17            1.237459   -1.572353    0.851791
    17           -1.537717   -0.887801   -1.255541

TiCl4.wfx


