%nprocs=4
%mem=2GB
#P pbepbe aug-cc-pvtz SCF=(Conver=5) int=(grid=ultrafine) output=wfx
 
title
 
0 1
     6            1.552952    1.494994   -0.950179
     6            1.447558    1.812935    0.433017
     6            1.966533    0.730115    1.167925
     6            2.414247   -0.253434    0.245405
     6            2.182783    0.232350   -1.055095
     1            1.252172    2.122300   -1.775575
     1            1.044826    2.725029    0.844855
     1            1.991313    0.642533    2.242854
     1            2.817145   -1.220632    0.500625
     1            2.389989   -0.293621   -1.972139
    22           -0.000144   -0.054350   -0.000950
    17            0.052927   -1.609542    1.749576
    17           -0.054881   -1.626112   -1.736002
     6           -2.415832   -0.262702   -0.201553
     6           -2.164794    0.275266    1.075529
     6           -1.985598    0.684109   -1.168942
     1           -2.821215   -1.239728   -0.411782
     6           -1.539467    1.532693    0.910405
     1           -2.357282   -0.213636    2.016031
     6           -1.453301    1.794390   -0.486556
     1           -2.026992    0.553895   -2.238871
     1           -1.227801    2.192757    1.705502
     1           -1.056261    2.688632   -0.941109

TiCP2Cl2.wfx


