%nprocs=4
%mem=2GB
#P pbepbe aug-cc-pvtz SCF=(Conver=5) GFPrint int=(grid=ultrafine) output=wfx
 
title
 
0 1
Zn

Zn.wfx


