&control
 title='crystal',
 prefix='crystal',
 pseudo_dir='.',
 calculation='vc-relax',
/
&system
 ibrav=0,
 celldm(1)=1.0,
 nat=    76,
 ntyp=  4,
 ecutwfc=60.0,
 ecutrho=600.0,
 xdm=.true.,
 xdm_a1=0.4073,
 xdm_a2=2.4150,
/
&electrons
 conv_thr = 1d-8,
/
&ions
/
&cell
/
ATOMIC_SPECIES
h      1.007940 h.UPF
c     12.010700 c.UPF
n     14.006700 n.UPF
o     15.999400 o.UPF

ATOMIC_POSITIONS crystal
o     0.74772662     0.49726804     0.19284033
o     0.25227334     0.50273197     0.69284034
o     0.75226288     0.49723530     0.69282716
o     0.24773708     0.50276471     0.19282716
o     0.56032089     0.34917092     0.26716658
o     0.43967907     0.65082908     0.76716659
o     0.93972151     0.34914357     0.76714483
o     0.06027845     0.65085644     0.26714483
o     0.36758220     0.19864737     0.25270609
o     0.63241776     0.80135264     0.75270610
o     0.13251549     0.19863178     0.75268063
o     0.86748448     0.80136823     0.25268063
n     0.58892178     0.40089060     0.98455270
n     0.41107818     0.59910941     0.48455271
n     0.91112890     0.40089177     0.48454468
n     0.08887106     0.59910823     0.98454469
h     0.64176841     0.44045263     0.87567322
h     0.35823155     0.55954738     0.37567323
h     0.85826487     0.44045950     0.37566336
h     0.14173509     0.55954051     0.87566337
c     0.64320351     0.42455319     0.14454535
c     0.35679646     0.57544681     0.64454535
c     0.85681894     0.42452903     0.64452556
c     0.14318102     0.57547097     0.14452557
c     0.45218061     0.27343578     0.17731989
c     0.54781935     0.72656423     0.67731989
c     0.04789549     0.27342103     0.67729646
c     0.95210447     0.72657898     0.17729647
c     0.46791917     0.30159928     0.98356892
c     0.53208079     0.69840072     0.48356893
c     0.03214070     0.30158523     0.48354719
c     0.96785926     0.69841478     0.98354720
h     0.36060555     0.34513408     0.93661054
h     0.63939442     0.65486592     0.43661055
h     0.13944540     0.34509977     0.43656725
h     0.86055456     0.65490024     0.93656726
c     0.50345418     0.17406318     0.87739196
c     0.49654579     0.82593682     0.37739197
c     0.99659582     0.17404932     0.37738817
c     0.00340414     0.82595069     0.87738818
h     0.40723145     0.10710590     0.90491599
h     0.59276851     0.89289410     0.40491600
h     0.09282639     0.10707759     0.40488497
h     0.90717357     0.89292241     0.90488497
c     0.65130187     0.10741374     0.93657742
c     0.34869809     0.89258627     0.43657743
c     0.84876311     0.10742833     0.43662352
c     0.15123686     0.89257168     0.93662353
h     0.65091162     0.08377429     0.07691967
h     0.34908835     0.91622572     0.57691967
h     0.84920117     0.08378948     0.57696564
h     0.15079879     0.91621052     0.07696565
h     0.74981114     0.17152151     0.91044219
h     0.25018883     0.82847850     0.41044219
h     0.75024174     0.17154957     0.41053076
h     0.24975822     0.82845044     0.91053077
h     0.66736868     0.01350602     0.86589271
h     0.33263128     0.98649399     0.36589272
h     0.83268208     0.01351930     0.36595104
h     0.16731788     0.98648071     0.86595105
c     0.50410042     0.20545664     0.68166376
c     0.49589955     0.79454337     0.18166377
c     0.99590882     0.20544394     0.18166119
c     0.00409114     0.79455606     0.68166120
h     0.39533719     0.24739834     0.63909741
h     0.60466278     0.75260166     0.13909741
h     0.10466650     0.24735595     0.13906202
h     0.89533346     0.75264405     0.63906203
h     0.52416047     0.11447736     0.60580767
h     0.47583950     0.88552264     0.10580767
h     0.97582687     0.11447409     0.10580538
h     0.02417309     0.88552592     0.60580539
h     0.59427336     0.27636602     0.64720986
h     0.40572660     0.72363398     0.14720987
h     0.90573803     0.27637774     0.14722839
h     0.09426193     0.72362227     0.64722840

K_POINTS automatic
2 2 2 1 1 1

CELL_PARAMETERS cubic
   16.610248000000     0.001074000000     0.000000000000
    0.001255000000    18.948627000000     0.000000000000
    0.000000000000     0.000000000000    14.443336000000
