&control
 title='crystal',
 prefix='crystal',
 pseudo_dir='../..',
 forc_conv_thr=1.0D-4,
 etot_conv_thr=1.0D-5,
/
&system
 ibrav=0,
 nat=    24,
 ntyp=  3,
 ecutwfc=80.0,
 ecutrho=800.0,
 vdw_corr='xdm',
 nosym=.true.,
/
&electrons
 conv_thr = 1d-10,
/
&ions
/
&cell
 press_conv_thr=0.01,
/
ATOMIC_SPECIES
C    12.010700 c.UPF
S    32.065000 s.UPF
H     1.007940 h.UPF

ATOMIC_POSITIONS crystal
C             0.1790201434        0.1703240928        0.8553321424
C             0.6790200592        0.8296755320        0.3553320628
C             0.8200853537        0.1703064144        0.8553544678
C             0.3200854839        0.8296931805        0.3553542878
C             0.9995445963        0.4619879043        0.1065099094
C             0.4995444932        0.5380117533        0.6065101744
S             0.2008262480        0.3259482947        0.1370245337
S             0.7008261969        0.6740512076        0.6370245857
S             0.7982741752        0.3259343571        0.1370349213
S             0.2982742029        0.6740653079        0.6370349092
S             0.9995604336        0.9997107193        0.8660018085
S             0.4995605071        0.0002889274        0.3660015541
H             0.2995111871        0.0846932037        0.8457217274
H             0.7995111625        0.9153063964        0.3457217111
H             0.1689390551        0.2578103355        0.6776849017
H             0.6689388461        0.7421891607        0.1776849867
H             0.6996016913        0.0846640979        0.8457780420
H             0.1996018082        0.9153354932        0.3457779262
H             0.8301206738        0.2577924570        0.6777034337
H             0.3301207685        0.7422071854        0.1777032575
H             0.9995644636        0.5654347095        0.2677979567
H             0.4995644291        0.4345649183        0.7677982953
H             0.9995380383        0.5409096317        0.9214294012
H             0.4995379429        0.4590899391        0.4214297935

K_POINTS automatic
3 4 5  1 1 1

CELL_PARAMETERS bohr
  14.445862293  -0.000000439  -0.000145448
  -0.000000397  13.085584457   0.000000752
  -0.000097653   0.000000558   9.711646085
