&control
 title='crystal',
 prefix='crystal',
 pseudo_dir='.',
 calculation='vc-relax',
/
&system
 ibrav=0,
 celldm(1)=1.0,
 nat=    52,
 ntyp=  4,
 ecutwfc=60.0,
 ecutrho=600.0,
 xdm=.true.,
 xdm_a1=0.4073,
 xdm_a2=2.4150,
/
&electrons
 conv_thr = 1d-8,
/
&ions
/
&cell
/
ATOMIC_SPECIES
h      1.007940 h.UPF
c     12.010700 c.UPF
n     14.006700 n.UPF
o     15.999400 o.UPF

ATOMIC_POSITIONS crystal
c     0.38074406     0.90089598     0.93895656
c     0.61925590     0.09910401     0.43895655
c     0.88073303     0.59910908     0.93894250
c     0.11926693     0.40089091     0.43894248
c     0.30518413     0.86689782     0.74870059
c     0.69481584     0.13310216     0.24870058
c     0.80517791     0.63310821     0.74870036
c     0.19482206     0.36689178     0.24870034
c     0.27134874     0.75530827     0.70027223
c     0.72865122     0.24469172     0.20027222
c     0.77134541     0.74470363     0.70027670
c     0.22865455     0.25529636     0.20027668
c     0.31791835     0.67701310     0.84640711
c     0.68208162     0.32298688     0.34640709
c     0.81792349     0.82298637     0.84641168
c     0.18207647     0.17701362     0.34641167
c     0.39734965     0.70994502     0.04520746
c     0.60265031     0.29005497     0.54520744
c     0.89736247     0.79005152     0.04520974
c     0.10263749     0.20994847     0.54520973
c     0.43457315     0.82552451     0.10519662
c     0.56542681     0.17447548     0.60519660
c     0.93457784     0.67447199     0.10519234
c     0.06542213     0.32552800     0.60519233
o     0.50675897     0.85158427     0.27976135
o     0.49324100     0.14841572     0.77976133
o     0.00675855     0.64842277     0.27976692
o     0.99324141     0.35157722     0.77976690
n     0.44272490     0.63733592     0.19208537
n     0.55727506     0.36266407     0.69208536
n     0.94271011     0.86265758     0.19210661
n     0.05728985     0.13734241     0.69210659
n     0.48711938     0.58589512     0.33418813
n     0.51288059     0.41410487     0.83418811
n     0.98712262     0.91411941     0.33416478
n     0.01287734     0.08588058     0.83416476
h     0.40844805     0.98709513     0.96694973
h     0.59155191     0.01290486     0.46694971
h     0.90845158     0.51290866     0.96695277
h     0.09154838     0.48709133     0.46695276
h     0.27207497     0.92758536     0.62752715
h     0.72792499     0.07241463     0.12752713
h     0.77207694     0.57241476     0.62752322
h     0.22792302     0.42758523     0.12752320
h     0.20620778     0.73251032     0.54959141
h     0.79379218     0.26748967     0.04959139
h     0.70620337     0.76749236     0.54958123
h     0.29379659     0.23250763     0.04958122
h     0.29437320     0.59081278     0.81618591
h     0.70562677     0.40918721     0.31618590
h     0.79437093     0.90918991     0.81618199
h     0.20562903     0.09081008     0.31618197

K_POINTS automatic
2 2 2 1 1 1

CELL_PARAMETERS cubic
   13.424211000000     0.000069000000     0.000000000000
    0.000163000000    23.162349000000     0.000000000000
    0.000000000000     0.000000000000    11.825486000000
