&control
 title='crystal',
 prefix='crystal',
 pseudo_dir='.',
 calculation='vc-relax',
/
&system
 ibrav=0,
 celldm(1)=1.0,
 nat=    52,
 ntyp=  4,
 ecutwfc=60.0,
 ecutrho=600.0,
 xdm=.true.,
 xdm_a1=0.4073,
 xdm_a2=2.4150,
/
&electrons
 conv_thr = 1d-8,
/
&ions
/
&cell
/
ATOMIC_SPECIES
h      1.007940 h.UPF
c     12.010700 c.UPF
n     14.006700 n.UPF
o     15.999400 o.UPF

ATOMIC_POSITIONS crystal
h     0.89535021     0.28253997     0.24269951
h     0.10464982     0.71746002     0.75730050
h     0.89535022     0.21746002     0.74269952
h     0.10464980     0.78253997     0.25730050
h     0.78968444     0.57375417     0.13408287
h     0.21031559     0.42624582     0.86591715
h     0.78968445     0.92624582     0.63408288
h     0.21031557     0.07375417     0.36591714
h     0.62662287     0.92837515     0.20798142
h     0.37337716     0.07162484     0.79201860
h     0.62662288     0.57162484     0.70798142
h     0.37337714     0.42837515     0.29201860
h     0.55316777     0.00506886     0.39029534
h     0.44683225     0.99493113     0.60970467
h     0.55316779     0.49493113     0.89029535
h     0.44683223     0.50506886     0.10970467
c     0.68536003     0.69483818     0.42685542
c     0.31464000     0.30516181     0.57314460
c     0.68536004     0.80516181     0.92685542
c     0.31463998     0.19483818     0.07314460
c     0.78758913     0.48630654     0.37645273
c     0.21241090     0.51369345     0.62354728
c     0.78758914     0.01369345     0.87645274
c     0.21241088     0.98630654     0.12354728
c     0.82460088     0.44214789     0.27245042
c     0.17539915     0.55785210     0.72754960
c     0.82460089     0.05785210     0.77245042
c     0.17539913     0.94214789     0.22754960
c     0.76767673     0.60236066     0.21356454
c     0.23232330     0.39763933     0.78643548
c     0.76767674     0.89763933     0.71356454
c     0.23232328     0.10236066     0.28643548
c     0.67181806     0.80620714     0.25717070
c     0.32818197     0.19379285     0.74282932
c     0.67181807     0.69379285     0.75717071
c     0.32818195     0.30620714     0.24282931
c     0.63216959     0.85136731     0.35759173
c     0.36783044     0.14863268     0.64240828
c     0.63216960     0.64863268     0.85759174
c     0.36783042     0.35136731     0.14240828
n     0.83528615     0.34064701     0.43955099
n     0.16471388     0.65935298     0.56044903
n     0.83528616     0.15935298     0.93955100
n     0.16471386     0.84064701     0.06044902
n     0.85852935     0.25172546     0.50841411
n     0.14147068     0.74827453     0.49158591
n     0.85852936     0.24827453     0.00841412
n     0.14147066     0.75172546     0.99158590
o     0.65148150     0.72441090     0.51889274
o     0.34851853     0.27558909     0.48110727
o     0.65148151     0.77558909     0.01889275
o     0.34851850     0.22441090     0.98110727

K_POINTS automatic
2 2 2 1 1 1

CELL_PARAMETERS cubic
   13.326771000000     0.000000000000    -0.069653000000
    0.000000000000    11.028645000000     0.000000000000
    6.904259000000     0.000000000000    25.247719000000
