&control
 title='crystal',
 prefix='crystal',
 pseudo_dir='.',
 calculation='vc-relax',
/
&system
 ibrav=0,
 celldm(1)=1.0,
 nat=    26,
 ntyp=  4,
 ecutwfc=60.0,
 ecutrho=600.0,
 xdm=.true.,
 xdm_a1=0.4073,
 xdm_a2=2.4150,
/
&electrons
 conv_thr = 1d-8,
/
&ions
/
&cell
/
ATOMIC_SPECIES
h      1.007940 h.UPF
c     12.010700 c.UPF
n     14.006700 n.UPF
o     15.999400 o.UPF

ATOMIC_POSITIONS crystal
c     0.97286706     0.09051955     0.11152835
c     0.02713290     0.59051954     0.88847164
c     0.80987463     0.94739421     0.13395898
c     0.19012533     0.44739420     0.86604101
c     0.91782776     0.91257009     0.30459699
c     0.08217220     0.41257008     0.69540300
c     0.13330933     0.00624834     0.42889454
c     0.86669063     0.50624833     0.57110545
c     0.27230907     0.14349754     0.39897915
c     0.72769089     0.64349752     0.60102084
c     0.19409610     0.18596513     0.24114516
c     0.80590386     0.68596512     0.75885483
h     0.81016641     0.80893282     0.33047392
h     0.18983355     0.30893281     0.66952607
h     0.19888635     0.97437694     0.55547575
h     0.80111361     0.47437693     0.44452423
h     0.44747258     0.21314122     0.50110824
h     0.55252738     0.71314121     0.49889175
h     0.29917384     0.28772512     0.20971900
h     0.70082612     0.78772511     0.79028099
o     0.60323984     0.86874347     0.01581522
o     0.39676012     0.36874346     0.98418477
n     0.89205757     0.12062840     0.95544181
n     0.10794239     0.62062838     0.04455818
n     0.78518819     0.11586704     0.81696001
n     0.21481177     0.61586703     0.18303998

K_POINTS automatic
2 2 2 1 1 1

CELL_PARAMETERS cubic
    7.129444000000     0.000000000000    -0.013333000000
    0.000000000000    17.182417000000     0.000000000000
   -6.754412000000     0.000000000000    15.398676000000
