&control
 title='crystal',
 prefix='crystal',
 pseudo_dir='.',
 calculation='vc-relax',
/
&system
 ibrav=0,
 celldm(1)=1.0,
 nat=    26,
 ntyp=  4,
 ecutwfc=60.0,
 ecutrho=600.0,
 xdm=.true.,
 xdm_a1=0.4073,
 xdm_a2=2.4150,
/
&electrons
 conv_thr = 1d-8,
/
&ions
/
&cell
/
ATOMIC_SPECIES
h      1.007940 h.UPF
c     12.010700 c.UPF
n     14.006700 n.UPF
o     15.999400 o.UPF

ATOMIC_POSITIONS crystal
c     0.17624204     0.92094627     0.86662688
c     0.82375800     0.42094628     0.13337311
c     0.11323380     0.88643049     0.69595159
c     0.88676624     0.38643050     0.30404840
c     0.20296623     0.98031203     0.57143615
c     0.79703381     0.48031205     0.42856385
c     0.37082218     0.11750506     0.60112363
c     0.62917786     0.61750507     0.39887636
c     0.45084733     0.15964983     0.75891415
c     0.54915272     0.65964984     0.24108584
c     0.36063247     0.06400054     0.88877372
c     0.63936757     0.56400055     0.11122627
o     0.08863936     0.84210962     0.98497493
o     0.91136069     0.34210963     0.01502507
n     0.43636265     0.09398768     0.04476335
n     0.56363739     0.59398769     0.95523664
n     0.46915597     0.08946764     0.18324815
n     0.53084407     0.58946765     0.81675184
h     0.98071185     0.78278812     0.67029795
h     0.01928819     0.28278813     0.32970204
h     0.14171766     0.94864107     0.44488013
h     0.85828238     0.44864108     0.55511986
h     0.44258393     0.18740717     0.49882980
h     0.55741611     0.68740718     0.50117019
h     0.58673570     0.26130971     0.79015891
h     0.41326434     0.76130973     0.20984108

K_POINTS automatic
2 2 2 1 1 1

CELL_PARAMETERS cubic
    7.126325000000     0.000000000000     0.041418000000
    0.000000000000    17.216792000000     0.000000000000
   -0.347775000000     0.000000000000    15.372081000000
