&control
 title='crystal',
 prefix='crystal',
 pseudo_dir='.',
 calculation='vc-relax',
/
&system
 ibrav=0,
 celldm(1)=1.0,
 nat=    52,
 ntyp=  4,
 ecutwfc=60.0,
 ecutrho=600.0,
 xdm=.true.,
 xdm_a1=0.4073,
 xdm_a2=2.4150,
/
&electrons
 conv_thr = 1d-8,
/
&ions
/
&cell
/
ATOMIC_SPECIES
h      1.007940 h.UPF
c     12.010700 c.UPF
n     14.006700 n.UPF
o     15.999400 o.UPF

ATOMIC_POSITIONS crystal
c     0.40815217     0.49894578     0.64299690
c     0.90815217     0.00105422     0.35700311
c     0.59184782     0.99894578     0.85700311
c     0.09184783     0.50105421     0.14299690
c     0.32024711     0.49737485     0.71236968
c     0.82024711     0.00262515     0.28763033
c     0.67975288     0.99737485     0.78763033
c     0.17975289     0.50262514     0.21236968
c     0.16606853     0.49720670     0.70778913
c     0.66606852     0.00279330     0.29221088
c     0.83393146     0.99720670     0.79221088
c     0.33393147     0.50279329     0.20778913
c     0.09601957     0.49875182     0.63329578
c     0.59601956     0.00124818     0.36670423
c     0.90398043     0.99875182     0.86670423
c     0.40398043     0.50124817     0.13329578
c     0.18253013     0.50086689     0.55861194
c     0.68253012     0.99913311     0.44138807
c     0.81746986     0.00086689     0.94138807
c     0.31746987     0.49913310     0.05861194
c     0.34420324     0.50056275     0.57108424
c     0.84420323     0.99943725     0.42891577
c     0.65579676     0.00056275     0.92891578
c     0.15579676     0.49943724     0.07108423
n     0.94678537     0.49808854     0.62725565
n     0.44678536     0.00191146     0.37274436
n     0.05321463     0.99808854     0.87274436
n     0.55321463     0.50191145     0.12725565
n     0.82037953     0.49759914     0.61468906
n     0.32037952     0.00240086     0.38531095
n     0.17962047     0.99759914     0.88531095
n     0.67962047     0.50240085     0.11468906
o     0.11946336     0.50263793     0.49448444
o     0.61946335     0.99736207     0.50551557
o     0.88053663     0.00263793     0.00551557
o     0.38053664     0.49736206     0.99448444
h     0.53112847     0.49886182     0.64666036
h     0.03112846     0.00113818     0.35333964
h     0.46887153     0.99886182     0.85333965
h     0.96887153     0.50113817     0.14666036
h     0.37548952     0.49628382     0.76863213
h     0.87548952     0.00371618     0.23136788
h     0.62451047     0.99628382     0.73136788
h     0.12451048     0.50371616     0.26863213
h     0.09474610     0.49594379     0.75903862
h     0.59474609     0.00405621     0.24096139
h     0.90525390     0.99594379     0.74096139
h     0.40525390     0.50405620     0.25903862
h     0.41559569     0.50201012     0.51995368
h     0.91559569     0.99798988     0.48004633
h     0.58440430     0.00201012     0.98004633
h     0.08440431     0.49798986     0.01995368

K_POINTS automatic
2 2 2 1 1 1

CELL_PARAMETERS cubic
   16.689672000000     0.000000000000     0.000000000000
    0.000000000000     7.224576000000     0.000000000000
    0.000000000000     0.000000000000    32.640870000000
