&control
 title='crystal',
 prefix='crystal',
 pseudo_dir='.',
 calculation='vc-relax',
/
&system
 ibrav=0,
 celldm(1)=1.0,
 nat=    52,
 ntyp=  4,
 ecutwfc=60.0,
 ecutrho=600.0,
 xdm=.true.,
 xdm_a1=0.4073,
 xdm_a2=2.4150,
/
&electrons
 conv_thr = 1d-8,
/
&ions
/
&cell
/
ATOMIC_SPECIES
h      1.007940 h.UPF
c     12.010700 c.UPF
n     14.006700 n.UPF
o     15.999400 o.UPF

ATOMIC_POSITIONS crystal
h     0.23982285     0.72628783     0.27689759
h     0.76017712     0.27371216     0.72310240
h     0.23982285     0.77371214     0.77689758
h     0.76017712     0.22628784     0.22310241
h     0.01362156     0.67296454     0.00103499
h     0.98637841     0.32703545     0.99896500
h     0.01362155     0.82703544     0.50103499
h     0.98637842     0.17296455     0.49896501
h     0.59950384     0.82754044     0.72685193
h     0.40049613     0.17245955     0.27314806
h     0.59950383     0.67245954     0.22685193
h     0.40049614     0.32754045     0.77314807
h     0.42734531     0.04444386     0.72513662
h     0.57265466     0.95555613     0.27486338
h     0.42734531     0.45555612     0.22513661
h     0.57265466     0.54444386     0.77486339
c     0.72520240     0.01887881     0.99874077
c     0.27479757     0.98112118     0.00125922
c     0.72520240     0.48112117     0.49874076
c     0.27479757     0.51887881     0.50125923
c     0.95984433     0.91623717     0.15376214
c     0.04015564     0.08376282     0.84623785
c     0.95984433     0.58376281     0.65376213
c     0.04015564     0.41623717     0.34623786
c     0.06351293     0.79315737     0.15515763
c     0.93648704     0.20684262     0.84484236
c     0.06351292     0.70684261     0.65515763
c     0.93648705     0.29315737     0.34484237
c     0.93544093     0.76450509     0.00302163
c     0.06455904     0.23549490     0.99697836
c     0.93544092     0.73549489     0.50302163
c     0.06455905     0.26450509     0.49697837
c     0.70164157     0.85576753     0.84741758
c     0.29835840     0.14423246     0.15258242
c     0.70164157     0.64423245     0.34741757
c     0.29835840     0.35576754     0.65258242
c     0.60173014     0.97523742     0.84462712
c     0.39826983     0.02476257     0.15537287
c     0.60173014     0.52476256     0.34462711
c     0.39826983     0.47523743     0.65537288
n     0.07848325     0.94374919     0.29906301
n     0.92151672     0.05625079     0.70093698
n     0.07848325     0.55625078     0.79906300
n     0.92151672     0.44374920     0.20093699
n     0.16727341     0.97652982     0.41726441
n     0.83272656     0.02347017     0.58273558
n     0.16727341     0.52347016     0.91726441
n     0.83272656     0.47652982     0.08273559
o     0.64867209     0.12925925     0.00452136
o     0.35132788     0.87074074     0.99547863
o     0.64867208     0.37074073     0.50452136
o     0.35132789     0.62925925     0.49547864

K_POINTS automatic
2 2 2 1 1 1

CELL_PARAMETERS cubic
   15.349625000000     0.000000000000     0.119954000000
    0.000000000000    17.814097000000     0.000000000000
  -22.369178000000     0.000000000000    13.569485000000
