&control
 title='crystal',
 prefix='crystal',
 pseudo_dir='.',
 calculation='vc-relax',
/
&system
 ibrav=0,
 celldm(1)=1.0,
 nat=    52,
 ntyp=  4,
 ecutwfc=60.0,
 ecutrho=600.0,
 xdm=.true.,
 xdm_a1=0.4073,
 xdm_a2=2.4150,
/
&electrons
 conv_thr = 1d-8,
/
&ions
/
&cell
/
ATOMIC_SPECIES
h      1.007940 h.UPF
c     12.010700 c.UPF
n     14.006700 n.UPF
o     15.999400 o.UPF

ATOMIC_POSITIONS crystal
c     0.38050135     0.32902608     0.22557517
c     0.61949860     0.67097392     0.77442489
c     0.38050133     0.17097392     0.72557520
c     0.61949861     0.82902608     0.27442488
o     0.26008694     0.28072211     0.24965844
o     0.73991301     0.71927789     0.75034162
o     0.26008692     0.21927789     0.74965847
o     0.73991302     0.78072212     0.25034161
c     0.60274480     0.30609513     0.14438892
c     0.39725515     0.69390488     0.85561114
c     0.60274478     0.19390487     0.64438895
c     0.39725516     0.80609513     0.35561112
n     0.67612303     0.23089827     0.08075558
n     0.32387693     0.76910174     0.91924448
n     0.67612300     0.26910173     0.58075561
n     0.32387693     0.73089827     0.41924447
n     0.71393776     0.16628477     0.02887023
n     0.28606220     0.83371523     0.97112983
n     0.71393774     0.33371523     0.52887026
n     0.28606220     0.66628477     0.47112981
c     0.73129097     0.35832851     0.13144188
c     0.26870898     0.64167149     0.86855818
c     0.73129095     0.14167149     0.63144191
c     0.26870899     0.85832851     0.36855817
h     0.89473141     0.33517291     0.06576548
h     0.10526854     0.66482709     0.93423458
h     0.89473139     0.16482709     0.56576551
h     0.10526855     0.83517291     0.43423457
c     0.64944229     0.43542137     0.19406105
c     0.35055766     0.56457864     0.80593901
c     0.64944227     0.06457863     0.69406108
c     0.35055767     0.93542137     0.30593899
h     0.74233136     0.47711784     0.18751153
h     0.25766859     0.52288217     0.81248853
h     0.74233134     0.02288216     0.68751156
h     0.25766860     0.97711784     0.31248851
c     0.44723743     0.46136901     0.26173995
c     0.55276253     0.53863099     0.73826010
c     0.44723741     0.03863099     0.76173998
c     0.55276253     0.96136901     0.23826009
h     0.38973853     0.52318987     0.30609676
h     0.61026142     0.47681013     0.69390330
h     0.38973851     0.97681013     0.80609678
h     0.61026143     0.02318988     0.19390329
c     0.32317305     0.41179649     0.27270196
c     0.67682690     0.58820351     0.72729810
c     0.32317303     0.08820351     0.77270199
c     0.67682691     0.91179649     0.22729809
h     0.16879905     0.43304899     0.32522653
h     0.83120090     0.56695102     0.67477353
h     0.16879903     0.06695101     0.82522655
h     0.83120091     0.93304899     0.17477352

K_POINTS automatic
2 2 2 1 1 1

CELL_PARAMETERS cubic
   17.723972000000     0.000000000000    -0.088626000000
    0.000000000000    32.517317000000     0.000000000000
   15.896372000000     0.000000000000     6.723030000000
