&control
 title='crystal',
 prefix='crystal',
 pseudo_dir='.',
 calculation='vc-relax',
/
&system
 ibrav=0,
 celldm(1)=1.0,
 nat=    26,
 ntyp=  4,
 ecutwfc=60.0,
 ecutrho=600.0,
 xdm=.true.,
 xdm_a1=0.4073,
 xdm_a2=2.4150,
/
&electrons
 conv_thr = 1d-8,
/
&ions
/
&cell
/
ATOMIC_SPECIES
h      1.007940 h.UPF
c     12.010700 c.UPF
n     14.006700 n.UPF
o     15.999400 o.UPF

ATOMIC_POSITIONS crystal
c     0.10921087     0.38661624     0.53156032
c     0.89078919     0.61338374     0.46843958
c     0.91497931     0.51340047     0.92005735
c     0.08502075     0.48659952     0.07994255
c     0.84858996     0.72941625     0.05285117
c     0.15141010     0.27058374     0.94714873
c     0.96633140     0.84602789     0.81730264
c     0.03366866     0.15397210     0.18269726
c     0.15308559     0.74176952     0.44378097
c     0.84691447     0.25823047     0.55621894
c     0.22449833     0.51773349     0.30094294
c     0.77550173     0.48226650     0.69905696
o     0.17581106     0.19041070     0.39841097
o     0.82418900     0.80958928     0.60158893
h     0.82226948     0.42766158     0.10552734
h     0.17773057     0.57233841     0.89447256
h     0.70034946     0.81594031     0.34940894
h     0.29965060     0.18405967     0.65059096
h     0.90979540     0.01711306     0.93036864
h     0.09020466     0.98288693     0.06963127
h     0.24546406     0.82756610     0.25912728
h     0.75453600     0.17243389     0.74087262
n     0.40345657     0.41035191     0.94311436
n     0.59654349     0.58964808     0.05688554
n     0.55167136     0.29604306     0.64669044
n     0.44832870     0.70395692     0.35330946

K_POINTS automatic
2 2 2 1 1 1

CELL_PARAMETERS cubic
   47.702007000000    -0.423138000000     0.919281000000
   -2.427953000000    12.676937000000     0.068589000000
   18.366819000000    -4.067864000000     3.575426000000
