&control
 title='crystal',
 prefix='crystal',
 pseudo_dir='.',
 calculation='vc-relax',
/
&system
 ibrav=0,
 celldm(1)=1.0,
 nat=    52,
 ntyp=  4,
 ecutwfc=60.0,
 ecutrho=600.0,
 xdm=.true.,
 xdm_a1=0.4073,
 xdm_a2=2.4150,
/
&electrons
 conv_thr = 1d-8,
/
&ions
/
&cell
/
ATOMIC_SPECIES
h      1.007940 h.UPF
c     12.010700 c.UPF
n     14.006700 n.UPF
o     15.999400 o.UPF

ATOMIC_POSITIONS crystal
c     0.86495075     0.25115733     0.81865330
c     0.13504923     0.74884270     0.18134671
c     0.86495075     0.24884269     0.31865330
c     0.13504923     0.75115735     0.68134671
c     0.08300346     0.20245611     0.84331886
c     0.91699652     0.79754392     0.15668115
c     0.08300346     0.29754391     0.34331886
c     0.91699652     0.70245613     0.65668115
c     0.19850405     0.99578573     0.89061119
c     0.80149593     0.00421430     0.10938881
c     0.19850405     0.50421429     0.39061119
c     0.80149593     0.49578575     0.60938882
c     0.08936228     0.83454946     0.91066482
c     0.91063770     0.16545057     0.08933519
c     0.08936228     0.66545056     0.41066481
c     0.91063770     0.33454948     0.58933520
c     0.86215412     0.88003990     0.88489183
c     0.13784586     0.11996013     0.11510818
c     0.86215412     0.61996012     0.38489183
c     0.13784586     0.38003992     0.61510818
c     0.73582745     0.09695609     0.83911043
c     0.26417253     0.90304394     0.16088957
c     0.73582745     0.40304393     0.33911043
c     0.26417253     0.59695611     0.66088958
o     0.54106117     0.13726052     0.82136715
o     0.45893881     0.86273950     0.17863286
o     0.54106117     0.36273949     0.32136714
o     0.45893881     0.63726054     0.67863286
n     0.74654556     0.73009552     0.90149157
n     0.25345442     0.26990451     0.09850844
n     0.74654556     0.76990450     0.40149157
n     0.25345442     0.23009554     0.59850844
n     0.62217182     0.62604006     0.91007239
n     0.37782816     0.37395996     0.08992761
n     0.62217182     0.87395996     0.41007239
n     0.37782816     0.12604008     0.58992762
h     0.77645235     0.40762693     0.78034513
h     0.22354763     0.59237309     0.21965488
h     0.77645235     0.09237308     0.28034513
h     0.22354763     0.90762695     0.71965488
h     0.17223898     0.32441704     0.82570624
h     0.82776100     0.67558299     0.17429377
h     0.17223898     0.17558298     0.32570624
h     0.82776100     0.82441706     0.67429377
h     0.37100394     0.96712379     0.90822279
h     0.62899604     0.03287624     0.09177722
h     0.37100394     0.53287623     0.40822279
h     0.62899604     0.46712381     0.59177722
h     0.17133123     0.67347819     0.94539246
h     0.82866875     0.32652184     0.05460755
h     0.17133123     0.82652183     0.44539245
h     0.82866875     0.17347820     0.55460755

K_POINTS automatic
2 2 2 1 1 1

CELL_PARAMETERS cubic
   13.214482000000     0.000000000000     0.076571000000
    0.000000000000    11.093921000000     0.000000000000
  -17.497670000000     0.000000000000    25.584281000000
