&control
 title='crystal',
 prefix='crystal',
 pseudo_dir='.',
 calculation='vc-relax',
/
&system
 ibrav=0,
 celldm(1)=1.0,
 nat=    26,
 ntyp=  4,
 ecutwfc=60.0,
 ecutrho=600.0,
 xdm=.true.,
 xdm_a1=0.4073,
 xdm_a2=2.4150,
/
&electrons
 conv_thr = 1d-8,
/
&ions
/
&cell
/
ATOMIC_SPECIES
h      1.007940 h.UPF
c     12.010700 c.UPF
n     14.006700 n.UPF
o     15.999400 o.UPF

ATOMIC_POSITIONS crystal
c     0.67246384     0.68255533     0.34036871
c     0.32753615     0.31744463     0.65963122
c     0.77555316     0.61357913     0.27277876
c     0.22444683     0.38642083     0.72722117
c     0.80818471     0.36686853     0.20644293
c     0.19181528     0.63313143     0.79355700
c     0.74805416     0.21860389     0.22294289
c     0.25194583     0.78139607     0.77705704
c     0.65184560     0.30468750     0.29559882
c     0.34815439     0.69531246     0.70440110
c     0.61490347     0.53678400     0.35216003
c     0.38509652     0.46321596     0.64783989
o     0.83176544     0.74126988     0.26634952
o     0.16823456     0.25873008     0.73365041
n     0.89899828     0.28582424     0.11275416
n     0.10100171     0.71417572     0.88724577
n     0.97592066     0.24329150     0.03018894
n     0.02407933     0.75670846     0.96981099
h     0.60446822     0.19655891     0.31477803
h     0.39553177     0.80344105     0.68522190
h     0.53789148     0.60152896     0.40622881
h     0.46210851     0.39847100     0.59377112
h     0.64269307     0.86017439     0.38751906
h     0.35730692     0.13982557     0.61248087
h     0.77960777     0.04339026     0.18520391
h     0.22039222     0.95660970     0.81479601

K_POINTS automatic
2 2 2 1 1 1

CELL_PARAMETERS cubic
   23.950328000000     8.374373000000    -2.221059000000
   -1.988825000000    12.152167000000    -1.732739000000
   -0.692120000000    -3.724094000000     6.903484000000
