&control
 title='crystal',
 prefix='crystal',
 pseudo_dir='.',
 calculation='vc-relax',
/
&system
 ibrav=0,
 celldm(1)=1.0,
 nat=    26,
 ntyp=  4,
 ecutwfc=60.0,
 ecutrho=600.0,
 xdm=.true.,
 xdm_a1=0.4073,
 xdm_a2=2.4150,
/
&electrons
 conv_thr = 1d-8,
/
&ions
/
&cell
/
ATOMIC_SPECIES
h      1.007940 h.UPF
c     12.010700 c.UPF
n     14.006700 n.UPF
o     15.999400 o.UPF

ATOMIC_POSITIONS crystal
c     0.33082640     0.07087033     0.82318645
c     0.66917354     0.57087032     0.17681357
c     0.46186714     0.90758547     0.84339507
c     0.53813281     0.40758546     0.15660495
c     0.17555648     0.01472933     0.73857667
c     0.82444346     0.51472932     0.26142335
c     0.45038719     0.72601812     0.78218331
c     0.54961275     0.22601811     0.21781671
c     0.16597043     0.82481308     0.67709187
c     0.83402952     0.32481307     0.32290815
c     0.30452583     0.68258755     0.69759955
c     0.69547411     0.18258755     0.30240047
o     0.34395100     0.23994818     0.86790819
o     0.65604894     0.73994817     0.13209183
n     0.05189001     0.15790273     0.71520337
n     0.94810993     0.65790272     0.28479664
n     0.96144181     0.29657120     0.70454939
n     0.03855813     0.79657119     0.29545063
h     0.56912089     0.93212135     0.91323073
h     0.43087905     0.43212135     0.08676929
h     0.55371734     0.60865086     0.80098644
h     0.44628260     0.10865085     0.19901358
h     0.30170508     0.53577691     0.65340354
h     0.69829486     0.03577691     0.34659648
h     0.04884993     0.79832475     0.61577848
h     0.95115001     0.29832474     0.38422154

K_POINTS automatic
2 2 2 1 1 1

CELL_PARAMETERS cubic
   11.414249000000     0.000000000000     0.593050000000
    0.000000000000    13.129556000000     0.000000000000
    8.011308000000     0.000000000000    12.970044000000
