&control
 title='crystal',
 prefix='crystal',
 pseudo_dir='.',
 calculation='vc-relax',
/
&system
 ibrav=0,
 celldm(1)=1.0,
 nat=   104,
 ntyp=  4,
 ecutwfc=60.0,
 ecutrho=600.0,
 xdm=.true.,
 xdm_a1=0.4073,
 xdm_a2=2.4150,
/
&electrons
 conv_thr = 1d-8,
/
&ions
/
&cell
/
ATOMIC_SPECIES
h      1.007940 h.UPF
c     12.010700 c.UPF
n     14.006700 n.UPF
o     15.999400 o.UPF

ATOMIC_POSITIONS crystal
c     0.30772834     0.08989233     0.56078060
c     0.69227167     0.91010769     0.43921938
c     0.80772834     0.08989233     0.93921938
c     0.19227167     0.91010769     0.06078061
c     0.69227298     0.58987813     0.93922032
c     0.30772703     0.41012188     0.06077966
c     0.19227298     0.58987813     0.56077965
c     0.80772703     0.41012188     0.43922033
c     0.44260084     0.19064510     0.55190871
c     0.55739917     0.80935491     0.44809128
c     0.94260084     0.19064510     0.94809127
c     0.05739917     0.80935491     0.05190872
c     0.55740177     0.69064434     0.94809271
c     0.44259824     0.30935568     0.05190727
c     0.05740177     0.69064434     0.55190726
c     0.94259824     0.30935568     0.44809272
c     0.53479346     0.23201465     0.61835120
c     0.46520655     0.76798537     0.38164878
c     0.03479346     0.23201465     0.88164878
c     0.96520655     0.76798537     0.11835121
c     0.46520981     0.73202183     0.88165156
c     0.53479021     0.26797818     0.11834842
c     0.96520981     0.73202183     0.61834841
c     0.03479021     0.26797818     0.38165157
h     0.63213537     0.30361500     0.60412791
h     0.36786464     0.69638502     0.39587208
h     0.13213537     0.30361500     0.89587207
h     0.86786464     0.69638502     0.10412792
h     0.36786406     0.80361622     0.89587093
h     0.63213595     0.19638379     0.10412906
h     0.86786406     0.80361622     0.60412905
h     0.13213595     0.19638379     0.39587094
c     0.49596486     0.18130760     0.69681060
c     0.50403515     0.81869241     0.30318939
c     0.99596486     0.18130760     0.80318938
c     0.00403515     0.81869241     0.19681060
c     0.50402954     0.68130188     0.80319210
c     0.49597047     0.31869814     0.19680789
c     0.00402954     0.68130188     0.69680788
c     0.99597047     0.31869814     0.30319211
h     0.56352543     0.21227927     0.74918584
h     0.43647458     0.78772075     0.25081414
h     0.06352543     0.21227927     0.75081414
h     0.93647458     0.78772075     0.24918585
h     0.43647757     0.71228168     0.75081516
h     0.56352244     0.28771833     0.24918482
h     0.93647757     0.71228168     0.74918481
h     0.06352244     0.28771833     0.25081517
c     0.36588677     0.08994337     0.70970870
c     0.63411324     0.91005664     0.29029129
c     0.86588677     0.08994337     0.79029128
c     0.13411324     0.91005664     0.20970871
c     0.63411369     0.58995633     0.79028962
c     0.36588632     0.41004369     0.20971036
c     0.13411369     0.58995633     0.70971035
c     0.86588632     0.41004369     0.29028963
h     0.33607326     0.05395241     0.77279567
h     0.66392675     0.94604761     0.22720431
h     0.83607326     0.05395241     0.72720431
h     0.16392675     0.94604761     0.27279568
h     0.66392725     0.55394630     0.72720390
h     0.33607276     0.44605371     0.27279608
h     0.16392725     0.55394630     0.77279607
h     0.83607276     0.44605371     0.22720391
c     0.27681066     0.04557777     0.64586359
c     0.72318935     0.95442224     0.35413639
c     0.77681066     0.04557777     0.85413639
c     0.22318935     0.95442224     0.14586360
c     0.72319145     0.54557591     0.85413386
c     0.27680856     0.45442411     0.14586612
c     0.22319145     0.54557591     0.64586612
c     0.77680856     0.45442411     0.35413387
h     0.17871533     0.97326422     0.65726569
h     0.82128469     0.02673579     0.34273430
h     0.67871533     0.97326422     0.84273429
h     0.32128469     0.02673579     0.15726570
h     0.82128792     0.47326080     0.84273546
h     0.17871209     0.52673922     0.15726453
h     0.32128792     0.47326080     0.65726452
h     0.67871209     0.52673922     0.34273547
o     0.23193385     0.04918151     0.50030062
o     0.76806616     0.95081851     0.49969936
o     0.73193385     0.04918151     0.99969936
o     0.26806616     0.95081851     0.00030063
o     0.76806935     0.54918515     0.99969991
o     0.23193067     0.45081486     0.00030007
o     0.26806935     0.54918515     0.50030006
o     0.73193067     0.45081486     0.49969992
n     0.46957106     0.24283709     0.47485303
n     0.53042895     0.75716292     0.52514695
n     0.96957106     0.24283709     0.02514695
n     0.03042895     0.75716292     0.97485304
n     0.53042012     0.74285026     0.02514503
n     0.46957990     0.25714976     0.97485495
n     0.03042012     0.74285026     0.47485494
n     0.96957990     0.25714976     0.52514504
n     0.46898296     0.27194126     0.40610849
n     0.53101705     0.72805876     0.59389149
n     0.96898296     0.27194126     0.09389148
n     0.03101705     0.72805876     0.90610850
n     0.53102032     0.77193631     0.09389080
n     0.46897969     0.22806370     0.90610919
n     0.03102032     0.77193631     0.40610918
n     0.96897969     0.22806370     0.59389081

K_POINTS automatic
2 2 2 1 1 1

CELL_PARAMETERS cubic
   17.948822000000    -0.000021000000     0.000000000000
   -0.000050000000    13.853997000000     0.000000000000
    0.000000000000     0.000000000000    30.512996000000
