&control
 title='crystal',
 prefix='crystal',
 pseudo_dir='.',
 calculation='vc-relax',
/
&system
 ibrav=0,
 celldm(1)=1.0,
 nat=   104,
 ntyp=  4,
 ecutwfc=60.0,
 ecutrho=600.0,
 xdm=.true.,
 xdm_a1=0.4073,
 xdm_a2=2.4150,
/
&electrons
 conv_thr = 1d-8,
/
&ions
/
&cell
/
ATOMIC_SPECIES
h      1.007940 h.UPF
c     12.010700 c.UPF
n     14.006700 n.UPF
o     15.999400 o.UPF

ATOMIC_POSITIONS crystal
c     0.09057882     0.43858580     0.69060186
c     0.90942119     0.56141419     0.30939811
c     0.09057881     0.06141419     0.19060187
c     0.59057779     0.43858411     0.80939852
c     0.59057778     0.06141588     0.30939853
c     0.40942223     0.93858411     0.69060144
c     0.40942222     0.56141588     0.19060146
c     0.90942119     0.93858579     0.80939810
c     0.04816258     0.35349649     0.72197324
c     0.95183742     0.64650349     0.27802673
c     0.04816258     0.14650350     0.22197326
c     0.54816155     0.35349481     0.77802713
c     0.54816155     0.14650519     0.27802715
c     0.45183847     0.85349480     0.72197282
c     0.45183846     0.64650518     0.22197284
c     0.95183743     0.85349649     0.77802672
c     0.09476159     0.28980646     0.63300937
c     0.90523842     0.71019353     0.36699060
c     0.09476158     0.21019354     0.13300938
c     0.59476056     0.28980477     0.86699101
c     0.59476055     0.21019522     0.36699102
c     0.40523947     0.78980476     0.63300895
c     0.40523946     0.71019522     0.13300897
c     0.90523843     0.78980645     0.86699059
c     0.18683095     0.30284581     0.50266625
c     0.81316906     0.69715417     0.49733372
c     0.18683094     0.19715418     0.00266626
c     0.68682992     0.30284412     0.99733413
c     0.68682991     0.19715587     0.49733414
c     0.31317010     0.80284412     0.50266583
c     0.31317009     0.69715587     0.00266585
c     0.81316906     0.80284581     0.99733371
c     0.23607547     0.38133540     0.46350665
c     0.76392454     0.61866458     0.53649332
c     0.23607546     0.11866459     0.96350667
c     0.73607444     0.38133372     0.03649372
c     0.73607443     0.11866628     0.53649374
c     0.26392558     0.88133371     0.46350623
c     0.26392557     0.61866627     0.96350625
c     0.76392454     0.88133540     0.03649331
c     0.19237132     0.44764063     0.55559351
c     0.80762869     0.55235936     0.44440647
c     0.19237131     0.05235937     0.05559352
c     0.69237029     0.44763894     0.94440687
c     0.69237028     0.05236105     0.44440689
c     0.30762974     0.94763893     0.55559309
c     0.30762973     0.55236105     0.05559310
c     0.80762870     0.94764062     0.94440645
o     0.04766011     0.49892654     0.76614592
o     0.95233990     0.50107345     0.23385405
o     0.04766010     0.00107346     0.26614593
o     0.54765908     0.49892485     0.73385446
o     0.54765907     0.00107515     0.23385447
o     0.45234095     0.99892484     0.76614550
o     0.45234094     0.50107514     0.26614552
o     0.95233991     0.99892653     0.73385404
n     0.24336186     0.52473262     0.52865825
n     0.75663815     0.47526737     0.47134172
n     0.24336185     0.97526737     0.02865826
n     0.74336083     0.52473093     0.97134212
n     0.74336082     0.97526906     0.47134214
n     0.25663919     0.02473093     0.52865783
n     0.25663919     0.47526906     0.02865785
n     0.75663816     0.02473261     0.97134171
n     0.27112445     0.59348193     0.52967579
n     0.72887556     0.40651805     0.47032418
n     0.27112444     0.90651806     0.02967580
n     0.77112342     0.59348024     0.97032458
n     0.77112341     0.90651975     0.47032460
n     0.22887660     0.09348024     0.52967537
n     0.22887660     0.40651975     0.02967539
n     0.72887557     0.09348193     0.97032417
h     0.97550612     0.34193194     0.82030888
h     0.02449389     0.65806805     0.17969110
h     0.97550611     0.15806805     0.32030889
h     0.47550509     0.34193025     0.67969150
h     0.47550508     0.15806974     0.17969152
h     0.52449494     0.84193024     0.82030846
h     0.52449493     0.65806974     0.32030847
h     0.02449390     0.84193193     0.67969109
h     0.06014007     0.22671129     0.66318436
h     0.93985993     0.77328870     0.33681562
h     0.06014007     0.27328871     0.16318437
h     0.56013904     0.22670960     0.83681602
h     0.56013904     0.27329040     0.33681604
h     0.43986098     0.72670959     0.66318394
h     0.43986097     0.77329039     0.16318395
h     0.93985994     0.72671128     0.83681561
h     0.21953587     0.25052304     0.43531001
h     0.78046414     0.74947695     0.56468996
h     0.21953586     0.24947696     0.93531002
h     0.71953484     0.25052135     0.06469036
h     0.71953483     0.24947864     0.56469038
h     0.28046518     0.75052134     0.43530959
h     0.28046518     0.74947864     0.93530961
h     0.78046415     0.75052303     0.06468995
h     0.30824809     0.39570957     0.36603217
h     0.69175192     0.60429041     0.63396780
h     0.30824808     0.10429042     0.86603218
h     0.80824706     0.39570788     0.13396820
h     0.80824705     0.10429211     0.63396822
h     0.19175296     0.89570788     0.36603175
h     0.19175296     0.60429211     0.86603177
h     0.69175193     0.89570957     0.13396779

K_POINTS automatic
2 2 2 1 1 1

CELL_PARAMETERS cubic
   13.895886000000     0.000000000000     0.000005000000
    0.000000000000    30.561711000000     0.000000000000
    0.000006000000     0.000000000000    17.848355000000
