&control
 title='crystal',
 prefix='crystal',
 pseudo_dir='.',
 calculation='vc-relax',
/
&system
 ibrav=0,
 celldm(1)=1.0,
 nat=    52,
 ntyp=  4,
 ecutwfc=60.0,
 ecutrho=600.0,
 xdm=.true.,
 xdm_a1=0.4073,
 xdm_a2=2.4150,
/
&electrons
 conv_thr = 1d-8,
/
&ions
/
&cell
/
ATOMIC_SPECIES
h      1.007940 h.UPF
c     12.010700 c.UPF
n     14.006700 n.UPF
o     15.999400 o.UPF

ATOMIC_POSITIONS crystal
c     0.28763414     0.30446907     0.49461114
c     0.71236584     0.69553087     0.50538889
c     0.71238218     0.80445795     0.00537621
c     0.28761781     0.19554200     0.99462381
c     0.41738765     0.41148796     0.37971686
c     0.58261233     0.58851198     0.62028317
c     0.58258702     0.91150398     0.12029560
c     0.41741296     0.08849597     0.87970442
c     0.36439579     0.46692451     0.28626484
c     0.63560419     0.53307543     0.71373518
c     0.63563594     0.96691061     0.21372508
c     0.36436405     0.03308933     0.78627495
c     0.18094006     0.40908765     0.30803820
c     0.81905992     0.59091229     0.69196182
c     0.81902967     0.90909338     0.19196226
c     0.18097031     0.09090656     0.80803776
c     0.04768645     0.29393382     0.42420637
c     0.95231353     0.70606613     0.57579365
c     0.95231264     0.79393216     0.07579634
c     0.04768734     0.20606779     0.92420368
c     0.08939801     0.23644963     0.52884619
c     0.91060198     0.76355031     0.47115383
c     0.91061576     0.73643781     0.97114333
c     0.08938422     0.26356213     0.02885669
o     0.96600704     0.14051059     0.63327892
o     0.03399294     0.85948935     0.36672111
o     0.03398080     0.64051965     0.86672857
o     0.96601918     0.35948030     0.13327145
n     0.87200126     0.23421529     0.44473253
n     0.12799872     0.76578466     0.55526750
n     0.12800072     0.73422392     0.05526859
n     0.87199926     0.26577602     0.94473143
n     0.71850285     0.17551881     0.47259795
n     0.28149713     0.82448114     0.52740207
n     0.28149997     0.67551437     0.02740419
n     0.71850001     0.32448558     0.97259583
h     0.33198045     0.26409816     0.56437948
h     0.66801953     0.73590179     0.43562054
h     0.66801749     0.76410166     0.93562375
h     0.33198249     0.23589828     0.06437627
h     0.56774177     0.45437781     0.35750552
h     0.43225821     0.54562214     0.64249450
h     0.43226300     0.95437694     0.14249605
h     0.56773698     0.04562301     0.85750397
h     0.46805729     0.55560149     0.19875800
h     0.53194269     0.44439845     0.80124202
h     0.53193544     0.05560838     0.30124731
h     0.46806454     0.94439156     0.69875271
h     0.13169446     0.44592627     0.24020071
h     0.86830552     0.55407368     0.75979932
h     0.86831227     0.94592497     0.25979769
h     0.13168771     0.05407497     0.74020233

K_POINTS automatic
2 2 2 1 1 1

CELL_PARAMETERS cubic
   14.669416000000     0.000029000000    -0.132692000000
    0.000033000000    14.504653000000    -0.000008000000
   12.848901000000     0.000016000000    17.540176000000
