&control
 title='crystal',
 prefix='crystal',
 pseudo_dir='.',
 calculation='vc-relax',
/
&system
 ibrav=0,
 celldm(1)=1.0,
 nat=    52,
 ntyp=  4,
 ecutwfc=60.0,
 ecutrho=600.0,
 xdm=.true.,
 xdm_a1=0.4073,
 xdm_a2=2.4150,
/
&electrons
 conv_thr = 1d-8,
/
&ions
/
&cell
/
ATOMIC_SPECIES
h      1.007940 h.UPF
c     12.010700 c.UPF
n     14.006700 n.UPF
o     15.999400 o.UPF

ATOMIC_POSITIONS crystal
c     0.68334884     0.69478203     0.92409190
c     0.31665117     0.30521798     0.07590810
c     0.31664778     0.19477663     0.57591133
c     0.68335222     0.80522338     0.42408867
c     0.78492696     0.48468012     0.87515327
c     0.21507305     0.51531989     0.12484673
c     0.21507316     0.98467042     0.62484732
c     0.78492685     0.01532959     0.37515268
c     0.82500951     0.43756392     0.77095812
c     0.17499050     0.56243609     0.22904188
c     0.17498856     0.93755922     0.72904040
c     0.82501145     0.06244079     0.27095960
c     0.76990303     0.59513992     0.71059485
c     0.23009697     0.40486009     0.28940515
c     0.23009699     0.09514476     0.78940597
c     0.76990302     0.90485525     0.21059403
c     0.67226718     0.79881421     0.75286539
c     0.32773283     0.20118580     0.24713461
c     0.32773272     0.29881701     0.74712603
c     0.67226729     0.70118300     0.25287397
c     0.63083231     0.84720944     0.85337099
c     0.36916770     0.15279057     0.14662901
c     0.36916033     0.34720610     0.64663138
c     0.63083967     0.65279391     0.35336862
n     0.83131936     0.34232328     0.93961389
n     0.16868065     0.65767672     0.06038611
n     0.16867882     0.84232484     0.56038406
n     0.83132119     0.15767517     0.43961594
n     0.85395103     0.25733512     0.00944636
n     0.14604898     0.74266489     0.99055364
n     0.14605915     0.75734352     0.49054652
n     0.85394086     0.24265649     0.50945348
o     0.64948087     0.72872897     0.01610589
o     0.35051913     0.27127103     0.98389411
o     0.35051840     0.22873157     0.48389038
o     0.64948161     0.77126844     0.51610962
h     0.89732327     0.27836321     0.74220043
h     0.10267674     0.72163680     0.25779957
h     0.10267315     0.77836176     0.75780023
h     0.89732686     0.22163825     0.24219977
h     0.79463552     0.56433372     0.63091397
h     0.20536449     0.43566629     0.36908603
h     0.20536896     0.06433264     0.86908273
h     0.79463105     0.93566737     0.13091727
h     0.62728935     0.91786095     0.70255946
h     0.37271066     0.08213906     0.29744054
h     0.37271520     0.41786271     0.79743889
h     0.62728481     0.58213730     0.20256111
h     0.55166857     0.00119823     0.88516576
h     0.44833144     0.99880178     0.11483424
h     0.44833402     0.50120098     0.61483195
h     0.55166599     0.49879903     0.38516805

K_POINTS automatic
2 2 2 1 1 1

CELL_PARAMETERS cubic
   13.279218000000    -0.000051000000     0.035998000000
   -0.000040000000    11.078703000000     0.000051000000
    6.838934000000     0.000121000000    25.210244000000
