&control
 title='crystal',
 prefix='crystal',
 pseudo_dir='.',
 calculation='vc-relax',
/
&system
 ibrav=0,
 celldm(1)=1.0,
 nat=   104,
 ntyp=  4,
 ecutwfc=60.0,
 ecutrho=600.0,
 xdm=.true.,
 xdm_a1=0.4073,
 xdm_a2=2.4150,
/
&electrons
 conv_thr = 1d-8,
/
&ions
/
&cell
/
ATOMIC_SPECIES
h      1.007940 h.UPF
c     12.010700 c.UPF
n     14.006700 n.UPF
o     15.999400 o.UPF

ATOMIC_POSITIONS crystal
o     0.41032749     0.14744296     0.54344476
o     0.58967250     0.85255705     0.45655525
o     0.91032749     0.14744296     0.95655526
o     0.41032749     0.35255704     0.04344476
o     0.91032749     0.35255704     0.45655525
o     0.08967250     0.64744297     0.54344476
o     0.58967250     0.64744297     0.95655526
o     0.08967250     0.85255705     0.04344476
n     0.38620620     0.41441571     0.56219676
n     0.61379379     0.58558430     0.43780326
n     0.88620620     0.41441571     0.93780327
n     0.38620620     0.08558430     0.06219675
n     0.88620620     0.08558430     0.43780326
n     0.11379379     0.91441572     0.56219676
n     0.61379379     0.91441572     0.93780327
n     0.11379379     0.58558430     0.06219675
n     0.38961007     0.36397680     0.49619115
n     0.61038992     0.63602322     0.50380887
n     0.88961007     0.36397680     0.00380888
n     0.38961007     0.13602321     0.99619114
n     0.88961007     0.13602321     0.50380887
n     0.11038992     0.86397680     0.49619115
n     0.61038992     0.86397680     0.00380888
n     0.11038992     0.63602322     0.99619114
c     0.40910066     0.13172025     0.29353322
c     0.59089933     0.86827976     0.70646680
c     0.90910066     0.13172025     0.20646681
c     0.40910066     0.36827975     0.79353321
c     0.90910066     0.36827975     0.70646680
c     0.09089933     0.63172026     0.29353322
c     0.59089933     0.63172026     0.20646681
c     0.09089933     0.86827976     0.79353321
c     0.39388420     0.24499821     0.26749850
c     0.60611579     0.75500181     0.73250152
c     0.89388420     0.24499821     0.23250153
c     0.39388420     0.25500180     0.76749849
c     0.89388420     0.25500180     0.73250152
c     0.10611579     0.74499821     0.26749850
c     0.60611579     0.74499821     0.23250153
c     0.10611579     0.75500181     0.76749849
c     0.41645608     0.09729035     0.38371494
c     0.58354392     0.90270966     0.61628507
c     0.91645608     0.09729035     0.11628508
c     0.41645608     0.40270965     0.88371493
c     0.91645608     0.40270965     0.61628507
c     0.08354392     0.59729036     0.38371494
c     0.58354392     0.59729036     0.11628508
c     0.08354392     0.90270966     0.88371493
c     0.38750880     0.32425707     0.33452506
c     0.61249119     0.67574294     0.66547495
c     0.88750880     0.32425707     0.16547496
c     0.38750880     0.17574294     0.83452506
c     0.88750880     0.17574294     0.66547495
c     0.11249119     0.82425708     0.33452506
c     0.61249119     0.82425708     0.16547496
c     0.11249119     0.67574294     0.83452506
c     0.40726177     0.17389302     0.46000671
c     0.59273822     0.82610699     0.53999330
c     0.90726177     0.17389302     0.03999331
c     0.40726177     0.32610698     0.96000670
c     0.90726177     0.32610698     0.53999330
c     0.09273822     0.67389303     0.46000671
c     0.59273822     0.67389303     0.03999331
c     0.09273822     0.82610699     0.96000670
c     0.39500242     0.29078083     0.42866595
c     0.60499757     0.70921918     0.57133406
c     0.89500242     0.29078083     0.07133407
c     0.39500242     0.20921918     0.92866595
c     0.89500242     0.20921918     0.57133406
c     0.10499757     0.79078084     0.42866595
c     0.60499757     0.79078084     0.07133407
c     0.10499757     0.70921918     0.92866595
h     0.38843194     0.26844375     0.19500072
h     0.61156805     0.73155626     0.80499929
h     0.88843194     0.26844375     0.30499930
h     0.38843194     0.23155625     0.69500071
h     0.88843194     0.23155625     0.80499929
h     0.11156805     0.76844376     0.19500072
h     0.61156805     0.76844376     0.30499930
h     0.11156805     0.73155626     0.69500071
h     0.41525858     0.06998570     0.23884641
h     0.58474141     0.93001432     0.76115360
h     0.91525858     0.06998570     0.26115361
h     0.41525858     0.43001431     0.73884641
h     0.91525858     0.43001431     0.76115360
h     0.08474141     0.56998570     0.23884641
h     0.58474141     0.56998570     0.26115361
h     0.08474141     0.93001432     0.73884641
h     0.43672106     0.01047328     0.40188096
h     0.56327893     0.98952673     0.59811905
h     0.93672106     0.01047328     0.09811906
h     0.43672106     0.48952672     0.90188096
h     0.93672106     0.48952672     0.59811905
h     0.06327893     0.51047329     0.40188096
h     0.56327893     0.51047329     0.09811906
h     0.06327893     0.98952673     0.90188096
h     0.37597897     0.41181478     0.31848111
h     0.62402102     0.58818524     0.68151891
h     0.87597897     0.41181478     0.18151892
h     0.37597897     0.08818523     0.81848110
h     0.87597897     0.08818523     0.68151891
h     0.12402102     0.91181479     0.31848111
h     0.62402102     0.91181479     0.18151892
h     0.12402102     0.58818524     0.81848110

K_POINTS automatic
2 2 2 1 1 1

CELL_PARAMETERS cubic
   12.443769000000     0.000000000000     0.000000000000
    0.000000000000    22.855429000000     0.000000000000
    0.000000000000     0.000000000000    27.363106000000
