&control
 title='crystal',
 prefix='crystal',
 pseudo_dir='.',
 calculation='vc-relax',
/
&system
 ibrav=0,
 celldm(1)=1.0,
 nat=    26,
 ntyp=  4,
 ecutwfc=60.0,
 ecutrho=600.0,
 xdm=.true.,
 xdm_a1=0.4073,
 xdm_a2=2.4150,
/
&electrons
 conv_thr = 1d-8,
/
&ions
/
&cell
/
ATOMIC_SPECIES
h      1.007940 h.UPF
c     12.010700 c.UPF
n     14.006700 n.UPF
o     15.999400 o.UPF

ATOMIC_POSITIONS crystal
c     0.59948860     0.33150602     0.18995583
c     0.40051152     0.83150601     0.81004419
c     0.26685970     0.48180457     0.14271338
c     0.73314042     0.98180456     0.85728664
c     0.22898841     0.42487372     0.18224663
c     0.77101171     0.92487371     0.81775340
c     0.51150002     0.21270670     0.27203271
c     0.48850010     0.71270669     0.72796731
c     0.82406446     0.05506590     0.31923867
c     0.17593566     0.55506589     0.68076135
c     0.87271707     0.11074259     0.28052049
c     0.12728305     0.61074258     0.71947953
o     0.65583027     0.37673845     0.15927383
o     0.34416985     0.87673844     0.84072619
h     0.02974995     0.64242684     0.06905854
h     0.97025017     0.14242683     0.93094148
h     0.96981777     0.54460443     0.14295429
h     0.03018234     0.04460442     0.85704573
h     0.45638909     0.17721700     0.29729156
h     0.54361103     0.67721699     0.70270846
h     0.03288868     0.88920982     0.38438322
h     0.96711144     0.38920981     0.61561681
n     0.15726761     0.96407771     0.31957334
n     0.84273250     0.46407770     0.68042668
n     0.37133815     0.86666610     0.34003495
n     0.62866196     0.36666609     0.65996507

K_POINTS automatic
2 2 2 1 1 1

CELL_PARAMETERS cubic
   13.309374000000     0.000000000000     0.252863000000
    0.000000000000    11.014582000000     0.000000000000
  -49.820917000000     0.000000000000    11.631232000000
