&control
 title='crystal',
 prefix='crystal',
 pseudo_dir='.',
 calculation='vc-relax',
/
&system
 ibrav=0,
 celldm(1)=1.0,
 nat=    52,
 ntyp=  4,
 ecutwfc=60.0,
 ecutrho=600.0,
 xdm=.true.,
 xdm_a1=0.4073,
 xdm_a2=2.4150,
/
&electrons
 conv_thr = 1d-8,
/
&ions
/
&cell
/
ATOMIC_SPECIES
h      1.007940 h.UPF
c     12.010700 c.UPF
n     14.006700 n.UPF
o     15.999400 o.UPF

ATOMIC_POSITIONS crystal
c     0.86504036     0.85255282     0.63713602
c     0.13495968     0.14744719     0.36286402
c     0.86504033     0.64744719     0.13713600
c     0.13495969     0.35255281     0.86286402
c     0.82373846     0.72433847     0.60630085
c     0.17626158     0.27566154     0.39369918
c     0.82373843     0.77566154     0.10630083
c     0.17626159     0.22433847     0.89369919
c     0.70633788     0.69158074     0.45525939
c     0.29366216     0.30841927     0.54474064
c     0.70633786     0.80841927     0.95525938
c     0.29366217     0.19158073     0.04474065
c     0.63773295     0.77143454     0.35240350
c     0.36226709     0.22856547     0.64759653
c     0.63773292     0.72856547     0.85240348
c     0.36226710     0.27143454     0.14759654
c     0.68513649     0.89314222     0.39015798
c     0.31486355     0.10685779     0.60984206
c     0.68513646     0.60685779     0.89015796
c     0.31486356     0.39314222     0.10984207
c     0.79937969     0.93430552     0.53187836
c     0.20062035     0.06569449     0.46812167
c     0.79937966     0.56569449     0.03187835
c     0.20062036     0.43430552     0.96812168
h     0.67275024     0.59891010     0.42584563
h     0.32724980     0.40108991     0.57415441
h     0.67275021     0.90108991     0.92584561
h     0.32724981     0.09891010     0.07415442
h     0.54407626     0.74142115     0.23755281
h     0.45592378     0.25857886     0.76244723
h     0.54407623     0.75857886     0.73755279
h     0.45592379     0.24142115     0.26244724
h     0.63275214     0.95296230     0.30704718
h     0.36724790     0.04703771     0.69295285
h     0.63275212     0.54703771     0.80704716
h     0.36724790     0.45296230     0.19295286
h     0.84651519     0.02609251     0.57012541
h     0.15348486     0.97390750     0.42987462
h     0.84651516     0.47390750     0.07012540
h     0.15348486     0.52609250     0.92987463
o     0.88291732     0.65488196     0.70108103
o     0.11708272     0.34511805     0.29891900
o     0.88291729     0.84511805     0.20108102
o     0.11708273     0.15488196     0.79891901
n     0.96863288     0.88686906     0.77284003
n     0.03136716     0.11313095     0.22716000
n     0.96863285     0.61313095     0.27284002
n     0.03136717     0.38686906     0.72716001
n     0.05189110     0.89929144     0.88979370
n     0.94810894     0.10070857     0.11020633
n     0.05189108     0.60070857     0.38979369
n     0.94810895     0.39929144     0.61020634

K_POINTS automatic
2 2 2 1 1 1

CELL_PARAMETERS cubic
   15.050729000000     0.000000000000    -0.072168000000
    0.000000000000    21.707193000000     0.000000000000
  -24.380866000000     0.000000000000    11.991373000000
