&control
 title='crystal',
 prefix='crystal',
 pseudo_dir='.',
 calculation='vc-relax',
/
&system
 ibrav=0,
 celldm(1)=1.0,
 nat=   104,
 ntyp=  4,
 ecutwfc=60.0,
 ecutrho=600.0,
 xdm=.true.,
 xdm_a1=0.4073,
 xdm_a2=2.4150,
/
&electrons
 conv_thr = 1d-8,
/
&ions
/
&cell
/
ATOMIC_SPECIES
h      1.007940 h.UPF
c     12.010700 c.UPF
n     14.006700 n.UPF
o     15.999400 o.UPF

ATOMIC_POSITIONS crystal
c     0.06834615     0.97906789     0.27118587
c     0.93165384     0.02093210     0.72881413
c     0.56834615     0.97906789     0.22881413
c     0.06834615     0.52093210     0.77118587
c     0.56834615     0.52093210     0.72881413
c     0.43165385     0.47906789     0.27118587
c     0.93165384     0.47906789     0.22881413
c     0.43165385     0.02093210     0.77118587
c     0.15363425     0.94985241     0.28692559
c     0.84636575     0.05014758     0.71307441
c     0.65363424     0.94985241     0.21307441
c     0.15363425     0.55014758     0.78692559
c     0.65363424     0.55014758     0.71307441
c     0.34636575     0.44985241     0.28692559
c     0.84636575     0.44985241     0.21307441
c     0.34636575     0.05014758     0.78692559
c     0.21401103     0.03260688     0.25286832
c     0.78598896     0.96739311     0.74713168
c     0.71401103     0.03260688     0.24713168
c     0.21401103     0.46739311     0.75286832
c     0.71401103     0.46739311     0.74713168
c     0.28598897     0.53260688     0.25286832
c     0.78598896     0.53260688     0.24713168
c     0.28598897     0.96739311     0.75286832
c     0.19707510     0.15409728     0.20123659
c     0.80292489     0.84590271     0.79876341
c     0.69707510     0.15409728     0.29876341
c     0.19707510     0.34590271     0.70123659
c     0.69707510     0.34590271     0.79876341
c     0.30292490     0.65409728     0.20123659
c     0.80292489     0.65409728     0.29876341
c     0.30292490     0.84590271     0.70123659
c     0.11808244     0.19245454     0.18722874
c     0.88191756     0.80754545     0.81277126
c     0.61808243     0.19245454     0.31277126
c     0.11808244     0.30754546     0.68722874
c     0.61808243     0.30754546     0.81277126
c     0.38191756     0.69245454     0.18722874
c     0.88191756     0.69245454     0.31277126
c     0.38191756     0.80754545     0.68722874
c     0.05491063     0.10780912     0.22179108
c     0.94508937     0.89219087     0.77820892
c     0.55491063     0.10780912     0.27820892
c     0.05491063     0.39219087     0.72179108
c     0.55491063     0.39219087     0.77820892
c     0.44508937     0.60780912     0.22179108
c     0.94508937     0.60780912     0.27820892
c     0.44508937     0.89219087     0.72179108
o     0.01125665     0.90632819     0.29447038
o     0.98874334     0.09367181     0.70552962
o     0.51125665     0.90632819     0.20552962
o     0.01125665     0.59367181     0.79447038
o     0.51125665     0.59367181     0.70552962
o     0.48874335     0.40632819     0.29447038
o     0.98874334     0.40632819     0.20552962
o     0.48874335     0.09367181     0.79447038
h     0.16813776     0.85756014     0.32762211
h     0.83186223     0.14243985     0.67237789
h     0.66813776     0.85756014     0.17237789
h     0.16813776     0.64243985     0.82762211
h     0.66813776     0.64243985     0.67237789
h     0.33186224     0.35756014     0.32762211
h     0.83186223     0.35756014     0.17237789
h     0.33186224     0.14243985     0.82762211
h     0.27730047     0.00448572     0.26629192
h     0.72269953     0.99551427     0.73370808
h     0.77730046     0.00448572     0.23370808
h     0.27730047     0.49551428     0.76629192
h     0.77730046     0.49551428     0.73370808
h     0.22269953     0.50448572     0.26629192
h     0.72269953     0.50448572     0.23370808
h     0.22269953     0.99551427     0.76629192
h     0.24677614     0.21652801     0.17435497
h     0.75322386     0.78347198     0.82564503
h     0.74677614     0.21652801     0.32564503
h     0.24677614     0.28347198     0.67435497
h     0.74677614     0.28347198     0.82564503
h     0.25322386     0.71652801     0.17435497
h     0.75322386     0.71652801     0.32564503
h     0.25322386     0.78347198     0.67435497
h     0.10141194     0.28479239     0.15409779
h     0.89858806     0.71520760     0.84590221
h     0.60141193     0.28479239     0.34590221
h     0.10141194     0.21520761     0.65409779
h     0.60141193     0.21520761     0.84590221
h     0.39858806     0.78479239     0.15409779
h     0.89858806     0.78479239     0.34590221
h     0.39858806     0.71520760     0.65409779
n     0.97730025     0.13906331     0.21267089
n     0.02269974     0.86093668     0.78732911
n     0.47730025     0.13906331     0.28732911
n     0.97730025     0.36093669     0.71267089
n     0.47730025     0.36093669     0.78732911
n     0.52269975     0.63906331     0.21267089
n     0.02269974     0.63906331     0.28732911
n     0.52269975     0.86093668     0.71267089
n     0.90870556     0.14780936     0.21150435
n     0.09129443     0.85219063     0.78849565
n     0.40870556     0.14780936     0.28849565
n     0.90870556     0.35219064     0.71150435
n     0.40870556     0.35219064     0.78849565
n     0.59129444     0.64780936     0.21150435
n     0.09129443     0.64780936     0.28849565
n     0.59129444     0.85219063     0.71150435

K_POINTS automatic
2 2 2 1 1 1

CELL_PARAMETERS cubic
   31.029348000000     0.000000000000     0.000000000000
    0.000000000000    21.095369000000     0.000000000000
    0.000000000000     0.000000000000    11.785764000000
