&control
 title='crystal',
 prefix='crystal',
 pseudo_dir='.',
 calculation='vc-relax',
/
&system
 ibrav=0,
 celldm(1)=1.0,
 nat=    26,
 ntyp=  4,
 ecutwfc=60.0,
 ecutrho=600.0,
 xdm=.true.,
 xdm_a1=0.4073,
 xdm_a2=2.4150,
/
&electrons
 conv_thr = 1d-8,
/
&ions
/
&cell
/
ATOMIC_SPECIES
h      1.007940 h.UPF
c     12.010700 c.UPF
n     14.006700 n.UPF
o     15.999400 o.UPF

ATOMIC_POSITIONS crystal
c     0.04129877     0.42270797     0.61392296
c     0.95870127     0.57729202     0.38607703
c     0.63153962     0.15116725     0.65202003
c     0.36846043     0.84883274     0.34797995
c     0.18196265     0.96813933     0.74852299
c     0.81803739     0.03186067     0.25147700
c     0.14007707     0.05805120     0.80775723
c     0.85992297     0.94194880     0.19224275
c     0.55764377     0.33925462     0.77352735
c     0.44235627     0.66074538     0.22647263
c     0.00582198     0.51206370     0.67025367
c     0.99417807     0.48793630     0.32974631
n     0.69287628     0.88667479     0.89912186
n     0.30712376     0.11332521     0.10087812
n     0.33870427     0.76820896     0.97646451
n     0.66129577     0.23179103     0.02353547
o     0.51405059     0.41152039     0.82902245
o     0.48594945     0.58847961     0.17097754
h     0.39463493     0.56444458     0.53686966
h     0.60536511     0.43555542     0.46313032
h     0.67996579     0.08915494     0.60530823
h     0.32003425     0.91084505     0.39469176
h     0.86706444     0.75957617     0.78038343
h     0.13293560     0.24042383     0.21961655
h     0.32456498     0.72075187     0.63974666
h     0.67543506     0.27924813     0.36025332

K_POINTS automatic
2 2 2 1 1 1

CELL_PARAMETERS cubic
    7.678686000000    -1.190230000000    -1.065146000000
  -12.894087000000    12.120198000000     4.072643000000
    4.944968000000     4.983442000000    25.628357000000
