&control
 title='crystal',
 prefix='crystal',
 pseudo_dir='.',
 calculation='vc-relax',
/
&system
 ibrav=0,
 celldm(1)=1.0,
 nat=   104,
 ntyp=  4,
 ecutwfc=60.0,
 ecutrho=600.0,
 xdm=.true.,
 xdm_a1=0.4073,
 xdm_a2=2.4150,
/
&electrons
 conv_thr = 1d-8,
/
&ions
/
&cell
/
ATOMIC_SPECIES
h      1.007940 h.UPF
c     12.010700 c.UPF
n     14.006700 n.UPF
o     15.999400 o.UPF

ATOMIC_POSITIONS crystal
c     0.69165954     0.09051271     0.06104263
c     0.30834044     0.90948733     0.93895735
c     0.19165955     0.09051270     0.43895736
c     0.80834043     0.90948735     0.56104262
c     0.19166718     0.40949061     0.93896521
c     0.80833280     0.59050943     0.06103478
c     0.69166718     0.40949060     0.56103479
c     0.30833280     0.59050944     0.43896520
o     0.76713885     0.04942884     0.00045382
o     0.23286113     0.95057121     0.99954616
o     0.26713886     0.04942882     0.49954617
o     0.73286112     0.95057122     0.50045381
o     0.26713273     0.45057076     0.99954234
o     0.73286725     0.54942929     0.00045765
o     0.76713273     0.45057074     0.50045766
o     0.23286724     0.54942930     0.49954233
c     0.55663270     0.19139886     0.05235747
c     0.44336727     0.80860118     0.94764251
c     0.05663271     0.19139885     0.44764252
c     0.94336727     0.80860120     0.55235747
c     0.05663534     0.30860168     0.94764166
c     0.94336464     0.69139837     0.05235832
c     0.55663535     0.30860166     0.55235833
c     0.44336463     0.69139838     0.44764165
n     0.52942829     0.24348199     0.97531508
n     0.47057169     0.75651805     0.02468491
n     0.02942829     0.24348198     0.52468491
n     0.97057168     0.75651806     0.47531507
n     0.02942960     0.25652283     0.02467558
n     0.97057038     0.74347721     0.97532441
n     0.52942960     0.25652281     0.47532441
n     0.47057037     0.74347723     0.52467557
n     0.53025831     0.27230325     0.90655909
n     0.46974167     0.72769679     0.09344090
n     0.03025832     0.27230323     0.59344091
n     0.96974166     0.72769681     0.40655908
n     0.03025613     0.22769332     0.09344754
n     0.96974385     0.77230672     0.90655245
n     0.53025614     0.22769331     0.40655246
n     0.46974384     0.77230674     0.59344753
c     0.46475230     0.23309166     0.11893577
c     0.53524768     0.76690838     0.88106421
c     0.96475231     0.23309165     0.38106422
c     0.03524767     0.76690839     0.61893577
c     0.96475185     0.26690539     0.88106641
c     0.03524813     0.73309465     0.11893358
c     0.46475185     0.26690538     0.61893359
c     0.53524813     0.73309466     0.38106640
h     0.36720113     0.30459455     0.10483587
h     0.63279885     0.69540549     0.89516412
h     0.86720113     0.30459454     0.39516413
h     0.13279885     0.69540551     0.60483586
h     0.86720532     0.19540725     0.89516282
h     0.13279465     0.80459280     0.10483717
h     0.36720533     0.19540723     0.60483717
h     0.63279465     0.80459281     0.39516281
c     0.50410616     0.18274709     0.19735214
c     0.49589382     0.81725295     0.80264784
c     0.00410617     0.18274708     0.30264785
c     0.99589381     0.81725297     0.69735213
c     0.00411210     0.31725506     0.80264481
c     0.99588788     0.68274499     0.19735517
c     0.50411210     0.31725504     0.69735518
c     0.49588787     0.68274500     0.30264480
h     0.43691074     0.21404276     0.24986714
h     0.56308924     0.78595729     0.75013285
h     0.93691074     0.21404274     0.25013285
h     0.06308923     0.78595730     0.74986713
h     0.93691524     0.28595928     0.75013265
h     0.06308474     0.71404076     0.24986734
h     0.43691524     0.28595927     0.74986735
h     0.56308473     0.71404077     0.25013264
c     0.63434728     0.09131568     0.21005614
c     0.36565270     0.90868436     0.78994385
c     0.13434729     0.09131567     0.28994385
c     0.86565269     0.90868438     0.71005613
c     0.13435154     0.40868283     0.78994478
c     0.86564844     0.59131722     0.21005521
c     0.63435155     0.40868281     0.71005522
c     0.36564843     0.59131723     0.28994477
h     0.66457241     0.05555810     0.27310044
h     0.33542757     0.94444194     0.72689955
h     0.16457241     0.05555809     0.22689956
h     0.83542757     0.94444195     0.77310043
h     0.16457869     0.44443998     0.72690005
h     0.83542129     0.55556007     0.27309993
h     0.66457869     0.44443996     0.77309994
h     0.33542129     0.55556008     0.22690004
c     0.72310362     0.04657396     0.14608665
c     0.27689636     0.95342609     0.85391334
c     0.22310362     0.04657394     0.35391335
c     0.77689635     0.95342610     0.64608664
c     0.22310774     0.45342628     0.85391272
c     0.77689224     0.54657376     0.14608726
c     0.72310775     0.45342626     0.64608727
c     0.27689223     0.54657378     0.35391271
h     0.82134103     0.97426445     0.15737680
h     0.17865895     0.02573560     0.84262319
h     0.32134104     0.97426443     0.34262320
h     0.67865894     0.02573561     0.65737679
h     0.32134423     0.52573514     0.84262514
h     0.67865575     0.47426490     0.15737485
h     0.82134423     0.52573513     0.65737485
h     0.17865575     0.47426492     0.34262513

K_POINTS automatic
2 2 2 1 1 1

CELL_PARAMETERS cubic
   17.934759000000    -0.000040000000     0.000000000000
   -0.000022000000    13.841262000000     0.000000000000
    0.000000000000     0.000000000000    30.517547000000
