&control
 title='crystal',
 prefix='crystal',
 pseudo_dir='.',
 calculation='vc-relax',
/
&system
 ibrav=0,
 celldm(1)=1.0,
 nat=   104,
 ntyp=  4,
 ecutwfc=60.0,
 ecutrho=600.0,
 xdm=.true.,
 xdm_a1=0.4073,
 xdm_a2=2.4150,
/
&electrons
 conv_thr = 1d-8,
/
&ions
/
&cell
/
ATOMIC_SPECIES
h      1.007940 h.UPF
c     12.010700 c.UPF
n     14.006700 n.UPF
o     15.999400 o.UPF

ATOMIC_POSITIONS crystal
c     0.41859679     0.10077222     0.58064256
c     0.58140321     0.89922779     0.41935744
c     0.91859679     0.10077224     0.91935743
c     0.08140321     0.89922777     0.08064256
c     0.91859836     0.39922709     0.41935353
c     0.08140164     0.60077292     0.58064646
c     0.41859836     0.39922710     0.08064646
c     0.58140164     0.60077290     0.91935353
o     0.46816002     0.20022466     0.52464421
o     0.53183998     0.79977536     0.47535578
o     0.96816002     0.20022467     0.97535577
o     0.03183998     0.79977534     0.02464421
o     0.96816224     0.29977416     0.47535838
o     0.03183776     0.70022585     0.52464161
o     0.46816224     0.29977418     0.02464160
o     0.53183776     0.70022583     0.97535838
c     0.43159246     0.99535662     0.72587834
c     0.56840754     0.00464340     0.27412165
c     0.93159246     0.99535663     0.77412164
c     0.06840754     0.00464338     0.22587834
c     0.93158934     0.50463851     0.27411903
c     0.06841066     0.49536150     0.72588096
c     0.43158934     0.50463853     0.22588095
c     0.56841066     0.49536148     0.77411903
n     0.50133831     0.00849256     0.78948883
n     0.49866169     0.99150746     0.21051116
n     0.00133830     0.00849257     0.71051115
n     0.99866170     0.99150744     0.28948883
n     0.00133659     0.49150918     0.21052718
n     0.99866341     0.50849084     0.78947282
n     0.50133659     0.49150919     0.28947281
n     0.49866341     0.50849082     0.71052718
n     0.56268630     0.03031838     0.82938190
n     0.43731370     0.96968163     0.17061809
n     0.06268630     0.03031840     0.67061808
n     0.93731370     0.96968161     0.32938190
n     0.06268622     0.46968186     0.17060304
n     0.93731378     0.53031815     0.82939695
n     0.56268622     0.46968188     0.32939695
n     0.43731378     0.53031813     0.67060304
c     0.37734681     0.87786066     0.78989762
c     0.62265319     0.12213936     0.21010238
c     0.87734681     0.87786067     0.71010237
c     0.12265319     0.12213934     0.28989762
c     0.87734817     0.62213242     0.21010117
c     0.12265183     0.37786760     0.78989883
c     0.37734816     0.62213243     0.28989882
c     0.62265184     0.37786758     0.71010117
h     0.39325512     0.80330590     0.89506792
h     0.60674488     0.19669411     0.10493207
h     0.89325512     0.80330591     0.60493206
h     0.10674488     0.19669409     0.39506792
h     0.89325270     0.69669051     0.10493871
h     0.10674730     0.30330950     0.89506129
h     0.39325270     0.69669053     0.39506128
h     0.60674730     0.30330948     0.60493871
c     0.30776520     0.86046339     0.71403571
c     0.69223480     0.13953662     0.28596428
c     0.80776519     0.86046341     0.78596427
c     0.19223481     0.13953660     0.21403571
c     0.80775831     0.63953178     0.28597488
c     0.19224169     0.36046823     0.71402512
c     0.30775831     0.63953179     0.21402511
c     0.69224169     0.36046821     0.78597488
h     0.26611607     0.76756419     0.75717393
h     0.73388393     0.23243582     0.24282607
h     0.76611607     0.76756420     0.74282606
h     0.23388393     0.23243580     0.25717393
h     0.76611461     0.73243366     0.24283066
h     0.23388539     0.26756635     0.75716934
h     0.26611461     0.73243368     0.25716933
h     0.73388539     0.26756633     0.74283066
c     0.29113135     0.96074256     0.57558795
c     0.70886865     0.03925745     0.42441204
c     0.79113135     0.96074257     0.92441203
c     0.20886865     0.03925743     0.07558795
c     0.79114060     0.53924556     0.42441861
c     0.20885940     0.46075445     0.57558139
c     0.29114059     0.53924557     0.07558138
c     0.70885941     0.46075443     0.92441861
h     0.23507644     0.94710018     0.51798597
h     0.76492356     0.05289984     0.48201402
h     0.73507644     0.94710019     0.98201401
h     0.26492356     0.05289982     0.01798597
h     0.73507300     0.55289740     0.48201510
h     0.26492700     0.44710262     0.51798490
h     0.23507300     0.55289741     0.01798489
h     0.76492700     0.44710260     0.98201510
c     0.34325460     0.07407393     0.51218225
c     0.65674540     0.92592608     0.48781774
c     0.84325460     0.07407394     0.98781774
c     0.15674540     0.92592606     0.01218225
c     0.84325177     0.42593548     0.48780780
c     0.15674823     0.57406453     0.51219220
c     0.34325177     0.42593549     0.01219219
c     0.65674823     0.57406451     0.98780780
h     0.33031419     0.14755831     0.40450258
h     0.66968581     0.85244171     0.59549742
h     0.83031418     0.14755832     0.09549741
h     0.16968582     0.85244169     0.90450258
h     0.83031597     0.35244156     0.59549795
h     0.16968403     0.64755846     0.40450205
h     0.33031597     0.35244157     0.90450204
h     0.66968403     0.64755844     0.09549795

K_POINTS automatic
2 2 2 1 1 1

CELL_PARAMETERS cubic
   32.823726000000     0.000045000000     0.000000000000
    0.000010000000    14.771990000000     0.000000000000
    0.000000000000     0.000000000000    15.714135000000
