&control
 title='crystal',
 prefix='crystal',
 pseudo_dir='.',
 calculation='vc-relax',
/
&system
 ibrav=0,
 celldm(1)=1.0,
 nat=    52,
 ntyp=  4,
 ecutwfc=60.0,
 ecutrho=600.0,
 xdm=.true.,
 xdm_a1=0.4073,
 xdm_a2=2.4150,
/
&electrons
 conv_thr = 1d-8,
/
&ions
/
&cell
/
ATOMIC_SPECIES
h      1.007940 h.UPF
c     12.010700 c.UPF
n     14.006700 n.UPF
o     15.999400 o.UPF

ATOMIC_POSITIONS crystal
o     0.99843937     0.75894216     0.04718526
o     0.00156063     0.24105786     0.95281478
o     0.00155883     0.25894667     0.45282578
o     0.99844117     0.74105335     0.54717426
n     0.95227759     0.52555023     0.24608026
n     0.04772240     0.47444980     0.75391978
n     0.04775637     0.02554892     0.25391931
n     0.95224363     0.97445110     0.74608074
n     0.81599185     0.52505158     0.25965128
n     0.18400815     0.47494845     0.74034877
n     0.18398115     0.02505727     0.24035757
n     0.81601885     0.97494275     0.75964247
c     0.11953063     0.68507318     0.10475647
c     0.88046937     0.31492684     0.89524357
c     0.88046229     0.18507164     0.39524711
c     0.11953771     0.81492838     0.60475293
c     0.28750043     0.71532743     0.07608834
c     0.71249957     0.28467259     0.92391170
c     0.71249273     0.21532065     0.42390910
c     0.28750727     0.78467937     0.57609094
c     0.41562300     0.62851722     0.13865209
c     0.58437700     0.37148281     0.86134795
c     0.58438459     0.12852201     0.36135553
c     0.41561541     0.87147801     0.63864452
c     0.39272621     0.50177379     0.23582444
c     0.60727379     0.49822623     0.76417561
c     0.60726622     0.00177132     0.26417858
c     0.39273378     0.99822870     0.73582147
c     0.23797959     0.46324202     0.27158699
c     0.76202041     0.53675800     0.72841305
c     0.76202443     0.96324140     0.22841653
c     0.23797557     0.03675862     0.77158351
c     0.10452172     0.55293406     0.21038622
c     0.89547828     0.44706596     0.78961382
c     0.89547492     0.05293275     0.28961741
c     0.10452508     0.94706728     0.71038263
h     0.30802040     0.81061206     0.99941587
h     0.69197960     0.18938796     0.00058418
h     0.69197988     0.31061347     0.50058921
h     0.30802012     0.68938656     0.49941083
h     0.53973344     0.65668013     0.11156358
h     0.46026656     0.34331990     0.88843647
h     0.46026399     0.15668170     0.38844250
h     0.53973601     0.84331833     0.61155754
h     0.49793054     0.43575129     0.28032718
h     0.50206946     0.56424874     0.71967286
h     0.50206737     0.93575510     0.21967584
h     0.49793263     0.06424493     0.78032420
h     0.21153679     0.36765543     0.34470429
h     0.78846321     0.63234459     0.65529576
h     0.78846211     0.86765733     0.15529791
h     0.21153789     0.13234270     0.84470214

K_POINTS automatic
2 2 2 1 1 1

CELL_PARAMETERS cubic
   15.459138000000     0.000621000000     0.381114000000
   -0.000783000000    17.964294000000    -0.000390000000
   -1.857892000000     0.000231000000    13.667901000000
