&control
 title='crystal',
 prefix='crystal',
 pseudo_dir='.',
 calculation='vc-relax',
/
&system
 ibrav=0,
 celldm(1)=1.0,
 nat=   104,
 ntyp=  4,
 ecutwfc=60.0,
 ecutrho=600.0,
 xdm=.true.,
 xdm_a1=0.4073,
 xdm_a2=2.4150,
/
&electrons
 conv_thr = 1d-8,
/
&ions
/
&cell
/
ATOMIC_SPECIES
h      1.007940 h.UPF
c     12.010700 c.UPF
n     14.006700 n.UPF
o     15.999400 o.UPF

ATOMIC_POSITIONS crystal
c     0.80945636     0.86532787     0.21706072
c     0.19054364     0.13467213     0.78293928
c     0.30945636     0.86532788     0.28293928
c     0.69054365     0.13467213     0.71706072
c     0.30945979     0.63466781     0.78293707
c     0.69054022     0.36533220     0.21706293
c     0.80945978     0.63466781     0.71706293
c     0.19054023     0.36533220     0.28293707
c     0.79262358     0.96951898     0.08050684
c     0.20737642     0.03048103     0.91949316
c     0.29262358     0.96951899     0.41949316
c     0.70737643     0.03048103     0.58050684
c     0.29262041     0.53048234     0.91948969
c     0.70737960     0.46951767     0.08051031
c     0.79262040     0.53048235     0.58051031
c     0.20737961     0.46951767     0.41948969
c     0.84458017     0.08241158     0.01710095
c     0.15541984     0.91758843     0.98289905
c     0.34458016     0.08241159     0.48289905
c     0.65541985     0.91758843     0.51710095
c     0.34458252     0.41757952     0.98290151
c     0.65541749     0.58242049     0.01709849
c     0.84458251     0.41757953     0.51709849
c     0.15541750     0.58242049     0.48290151
c     0.92018096     0.10363701     0.08313307
c     0.07981904     0.89636299     0.91686693
c     0.42018096     0.10363702     0.41686693
c     0.57981905     0.89636299     0.58313307
c     0.42017631     0.39637204     0.91685954
c     0.57982370     0.60362796     0.08314046
c     0.92017630     0.39637205     0.58314046
c     0.07982371     0.60362796     0.41685954
c     0.87909574     0.87847658     0.29138099
c     0.12090426     0.12152342     0.70861901
c     0.37909574     0.87847659     0.20861901
c     0.62090427     0.12152342     0.79138099
c     0.37909133     0.62152777     0.70861526
c     0.62090868     0.37847224     0.29138474
c     0.87909132     0.62152778     0.79138474
c     0.12090869     0.37847224     0.20861526
c     0.93323884     0.99534408     0.22751170
c     0.06676117     0.00465593     0.77248830
c     0.43323883     0.99534408     0.27248830
c     0.56676118     0.00465593     0.72751170
c     0.43323878     0.50466099     0.77247834
c     0.56676122     0.49533901     0.22752166
c     0.93323878     0.50466100     0.72752166
c     0.06676123     0.49533901     0.27247834
h     0.76783326     0.77302065     0.26017290
h     0.23216675     0.22697936     0.73982710
h     0.26783325     0.77302065     0.23982710
h     0.73216676     0.22697936     0.76017290
h     0.26783413     0.72698088     0.73982808
h     0.73216587     0.27301912     0.26017192
h     0.76783413     0.72698089     0.76017192
h     0.23216588     0.27301912     0.23982808
h     0.73654067     0.95909498     0.02432814
h     0.26345934     0.04090503     0.97567186
h     0.23654066     0.95909498     0.47567186
h     0.76345934     0.04090503     0.52432814
h     0.23654266     0.54090407     0.97567520
h     0.76345735     0.45909594     0.02432480
h     0.73654265     0.54090408     0.52432480
h     0.26345736     0.45909594     0.47567520
h     0.83124622     0.15961473     0.91123276
h     0.16875379     0.84038527     0.08876724
h     0.33124621     0.15961474     0.58876724
h     0.66875379     0.84038527     0.41123276
h     0.33124469     0.34038496     0.08876776
h     0.66875532     0.65961505     0.91123224
h     0.83124468     0.34038497     0.41123224
h     0.16875532     0.65961505     0.58876776
h     0.89496760     0.80086139     0.39516995
h     0.10503240     0.19913861     0.60483005
h     0.39496760     0.80086140     0.10483005
h     0.60503241     0.19913861     0.89516995
h     0.39496711     0.69914109     0.60481967
h     0.60503290     0.30085892     0.39518033
h     0.89496710     0.69914110     0.89518033
h     0.10503291     0.30085892     0.10481967
o     0.96987989     0.20097377     0.02590188
o     0.03012012     0.79902624     0.97409812
o     0.46987988     0.20097377     0.47409812
o     0.53012013     0.79902624     0.52590188
o     0.46988012     0.29902501     0.97409684
o     0.53011989     0.70097500     0.02590316
o     0.96988011     0.29902501     0.52590316
o     0.03011990     0.70097500     0.47409684
n     0.00277623     0.00631939     0.28997337
n     0.99722378     0.99368061     0.71002663
n     0.50277622     0.00631940     0.21002663
n     0.49722379     0.99368061     0.78997337
n     0.50277398     0.49369966     0.71002626
n     0.49722603     0.50630035     0.28997374
n     0.00277397     0.49369967     0.78997374
n     0.99722604     0.50630035     0.21002626
n     0.06389551     0.02800227     0.32796195
n     0.93610450     0.97199774     0.67203805
n     0.56389550     0.02800227     0.17203805
n     0.43610451     0.97199774     0.82796195
n     0.56390049     0.47198440     0.67207534
n     0.43609952     0.52801561     0.32792466
n     0.06390048     0.47198440     0.82792466
n     0.93609953     0.52801561     0.17207534

K_POINTS automatic
2 2 2 1 1 1

CELL_PARAMETERS cubic
   33.121522000000    -0.000676000000     0.000000000000
   -0.000305000000    14.778728000000     0.000000000000
    0.000000000000     0.000000000000    15.603952000000
