&control
 title='crystal',
 prefix='crystal',
 pseudo_dir='.',
 calculation='vc-relax',
/
&system
 ibrav=0,
 celldm(1)=1.0,
 nat=    52,
 ntyp=  4,
 ecutwfc=60.0,
 ecutrho=600.0,
 xdm=.true.,
 xdm_a1=0.4073,
 xdm_a2=2.4150,
/
&electrons
 conv_thr = 1d-8,
/
&ions
/
&cell
/
ATOMIC_SPECIES
h      1.007940 h.UPF
c     12.010700 c.UPF
n     14.006700 n.UPF
o     15.999400 o.UPF

ATOMIC_POSITIONS crystal
c     0.31198641     0.31551728     0.37596010
c     0.68801363     0.68448270     0.62403989
c     0.81198642     0.18448271     0.87596010
c     0.18801360     0.81551728     0.12403989
c     0.38672554     0.30693551     0.22263367
c     0.61327450     0.69306447     0.77736632
c     0.88672555     0.19306448     0.72263367
c     0.11327448     0.80693551     0.27736633
c     0.34134536     0.37897239     0.13157889
c     0.65865467     0.62102760     0.86842110
c     0.84134538     0.12102760     0.63157889
c     0.15865465     0.87897238     0.36842111
c     0.25493534     0.44846511     0.19314973
c     0.74506470     0.55153487     0.80685026
c     0.75493535     0.05153488     0.69314973
c     0.24506467     0.94846510     0.30685027
c     0.19768546     0.45004784     0.34115861
c     0.80231458     0.54995215     0.65884138
c     0.69768547     0.04995216     0.84115861
c     0.30231455     0.95004783     0.15884139
c     0.22281759     0.38243415     0.43101741
c     0.77718245     0.61756583     0.56898258
c     0.72281760     0.11756584     0.93101741
c     0.27718243     0.88243415     0.06898259
o     0.47880913     0.24791185     0.16978293
o     0.52119090     0.75208813     0.83021706
o     0.97880915     0.25208814     0.66978293
o     0.02119088     0.74791185     0.33021706
n     0.40348003     0.37675810     0.98967706
n     0.59652000     0.62324189     0.01032293
n     0.90348005     0.12324190     0.48967706
n     0.09651998     0.87675809     0.51032293
n     0.46551947     0.36819420     0.87033749
n     0.53448056     0.63180579     0.12966250
n     0.96551949     0.13180580     0.37033749
n     0.03448054     0.86819419     0.62966250
h     0.13564850     0.50279655     0.38999728
h     0.86435154     0.49720343     0.61000271
h     0.63564851     0.99720344     0.88999728
h     0.36435151     0.00279655     0.11000272
h     0.16907205     0.38329620     0.54761832
h     0.83092799     0.61670379     0.45238167
h     0.66907206     0.11670380     0.04761832
h     0.33092796     0.88329619     0.95238168
h     0.33128040     0.26564425     0.44894551
h     0.66871964     0.73435573     0.55105448
h     0.83128041     0.23435574     0.94894551
h     0.16871961     0.76564425     0.05105449
h     0.24050405     0.49883656     0.12179262
h     0.75949598     0.50116343     0.87820737
h     0.74050407     0.00116343     0.62179262
h     0.25949596     0.99883655     0.37820738

K_POINTS automatic
2 2 2 1 1 1

CELL_PARAMETERS cubic
    7.254521000000     0.000000000000    -0.603650000000
    0.000000000000    33.760835000000     0.000000000000
   -3.127881000000     0.000000000000    16.133146000000
