&control
 title='crystal',
 prefix='crystal',
 pseudo_dir='.',
 calculation='vc-relax',
/
&system
 ibrav=0,
 celldm(1)=1.0,
 nat=    52,
 ntyp=  4,
 ecutwfc=60.0,
 ecutrho=600.0,
 xdm=.true.,
 xdm_a1=0.4073,
 xdm_a2=2.4150,
/
&electrons
 conv_thr = 1d-8,
/
&ions
/
&cell
/
ATOMIC_SPECIES
h      1.007940 h.UPF
c     12.010700 c.UPF
n     14.006700 n.UPF
o     15.999400 o.UPF

ATOMIC_POSITIONS crystal
c     0.60791669     0.67389626     0.38991780
c     0.39208331     0.32610373     0.61008220
c     0.60791669     0.82610372     0.88991780
c     0.39208331     0.17389627     0.11008220
c     0.37685945     0.69300404     0.24904013
c     0.62314055     0.30699595     0.75095986
c     0.37685945     0.80699594     0.74904013
c     0.62314055     0.19300405     0.25095986
c     0.24856088     0.63680974     0.13888848
c     0.75143912     0.36319026     0.86111151
c     0.24856088     0.86319025     0.63888848
c     0.75143912     0.13680974     0.36111151
c     0.33769622     0.55910110     0.16431388
c     0.66230378     0.44089889     0.83568611
c     0.33769622     0.94089889     0.66431388
c     0.66230378     0.05910110     0.33568611
c     0.54844306     0.53663789     0.29907413
c     0.45155694     0.46336210     0.70092586
c     0.54844306     0.96336209     0.79907413
c     0.45155694     0.03663790     0.20092586
c     0.67494794     0.59025577     0.40627216
c     0.32505206     0.40974422     0.59372784
c     0.67494794     0.90974422     0.90627216
c     0.32505206     0.09025577     0.09372784
n     0.29525140     0.76893545     0.23460046
n     0.70474860     0.23106455     0.76539954
n     0.29525140     0.73106454     0.73460046
n     0.70474860     0.26893545     0.26539954
n     0.25246756     0.83471014     0.24591731
n     0.74753244     0.16528986     0.75408268
n     0.25246756     0.66528985     0.74591731
n     0.74753244     0.33471014     0.25408268
o     0.72621948     0.72578514     0.48106203
o     0.27378052     0.27421485     0.51893797
o     0.72621948     0.77421484     0.98106203
o     0.27378052     0.22578515     0.01893797
h     0.07947829     0.65745458     0.04040388
h     0.92052170     0.34254541     0.95959612
h     0.07947829     0.84254541     0.54040388
h     0.92052170     0.15745458     0.45959612
h     0.24575832     0.51413644     0.08274659
h     0.75424167     0.48586355     0.91725340
h     0.24575832     0.98586355     0.58274659
h     0.75424167     0.01413644     0.41725340
h     0.61163554     0.47428045     0.31746799
h     0.38836446     0.52571955     0.68253200
h     0.61163554     0.02571954     0.81746799
h     0.38836446     0.97428045     0.18253200
h     0.84002356     0.57172831     0.50752736
h     0.15997644     0.42827168     0.49247264
h     0.84002356     0.92827168     0.00752736
h     0.15997644     0.07172831     0.99247264

K_POINTS automatic
2 2 2 1 1 1

CELL_PARAMETERS cubic
    7.127534000000     0.000000000000    -0.113887000000
    0.000000000000    31.947046000000     0.000000000000
   -2.025970000000     0.000000000000    17.094246000000
