&control
 title='crystal',
 prefix='crystal',
 pseudo_dir='.',
 calculation='vc-relax',
/
&system
 ibrav=0,
 celldm(1)=1.0,
 nat=   104,
 ntyp=  4,
 ecutwfc=60.0,
 ecutrho=600.0,
 xdm=.true.,
 xdm_a1=0.4073,
 xdm_a2=2.4150,
/
&electrons
 conv_thr = 1d-8,
/
&ions
/
&cell
/
ATOMIC_SPECIES
h      1.007940 h.UPF
c     12.010700 c.UPF
n     14.006700 n.UPF
o     15.999400 o.UPF

ATOMIC_POSITIONS crystal
o     0.53171799     0.17381422     0.13870626
o     0.53172878     0.82617544     0.63871806
o     0.17382458     0.53172878     0.36128190
o     0.82618580     0.53171799     0.86129372
o     0.17381422     0.46828202     0.86129372
o     0.82617544     0.46827124     0.36128190
o     0.46827124     0.17382458     0.63871806
o     0.46828202     0.82618580     0.13870626
n     0.48965913     0.36119823     0.87872213
n     0.48966991     0.63879143     0.37873394
n     0.36120859     0.48966991     0.62126603
n     0.63880178     0.48965913     0.12127784
n     0.36119823     0.51034089     0.12127784
n     0.63879143     0.51033011     0.62126603
n     0.51033011     0.36120859     0.37873394
n     0.51034089     0.63880178     0.87872213
n     0.42351781     0.30416440     0.92880658
n     0.42352860     0.69582526     0.42881839
n     0.30417476     0.42352860     0.57118158
n     0.69583561     0.42351781     0.07119340
n     0.30416440     0.57648220     0.07119340
n     0.69582526     0.57647142     0.57118158
n     0.57647142     0.30417476     0.42881839
n     0.57648220     0.69583561     0.92880658
c     0.25449203     0.05759861     0.15458756
c     0.25450281     0.94239105     0.65459937
c     0.05760896     0.25450281     0.34540060
c     0.94240141     0.25449203     0.84541241
c     0.05759861     0.74550799     0.84541241
c     0.94239105     0.74549721     0.34540060
c     0.74549721     0.05760896     0.65459937
c     0.74550799     0.94240141     0.15458756
c     0.19502790     0.12914248     0.04941586
c     0.19503868     0.87084718     0.54942767
c     0.12915284     0.19503868     0.45057230
c     0.87085753     0.19502790     0.95058411
c     0.12914248     0.80497212     0.95058411
c     0.87084718     0.80496133     0.45057230
c     0.80496133     0.12915284     0.54942767
c     0.80497212     0.87085753     0.04941586
c     0.36511259     0.07077637     0.18695770
c     0.36512338     0.92921330     0.68696951
c     0.07078672     0.36512338     0.31303046
c     0.92922365     0.36511259     0.81304227
c     0.07077637     0.63488742     0.81304227
c     0.92921330     0.63487664     0.31303046
c     0.63487664     0.07078672     0.68696951
c     0.63488742     0.92922365     0.18695770
c     0.24880249     0.21467334     0.97463372
c     0.24881328     0.78531632     0.47464553
c     0.21468370     0.24881328     0.52535444
c     0.78532667     0.24880249     0.02536625
c     0.21467334     0.75119752     0.02536625
c     0.78531632     0.75118674     0.52535444
c     0.75118674     0.21468370     0.47464553
c     0.75119752     0.78532667     0.97463372
c     0.43104159     0.15718490     0.11418180
c     0.43105238     0.84280476     0.61419361
c     0.15719526     0.43105238     0.38580636
c     0.84281512     0.43104159     0.88581817
c     0.15718490     0.56895842     0.88581817
c     0.84280476     0.56894764     0.38580636
c     0.56894764     0.15719526     0.61419361
c     0.56895842     0.84281512     0.11418180
c     0.36430402     0.22738103     0.00291626
c     0.36431480     0.77260863     0.50292807
c     0.22739138     0.36431480     0.49707190
c     0.77261899     0.36430402     0.99708371
c     0.22738103     0.63569600     0.99708371
c     0.77260863     0.63568521     0.49707190
c     0.63568521     0.22739138     0.50292807
c     0.63569600     0.77261899     0.00291626
h     0.21009646     0.99037235     0.21420575
h     0.21010724     0.00961731     0.71421756
h     0.99038271     0.21010724     0.28578241
h     0.00962766     0.21009646     0.78579422
h     0.99037235     0.78990356     0.78579422
h     0.00961731     0.78989277     0.28578241
h     0.78989277     0.99038271     0.71421756
h     0.78990356     0.00962766     0.21420575
h     0.10615214     0.11864145     0.03292549
h     0.10616292     0.88134821     0.53293730
h     0.11865181     0.10616292     0.46706267
h     0.88135856     0.10615214     0.96707449
h     0.11864145     0.89384788     0.96707449
h     0.88134821     0.89383709     0.46706267
h     0.89383709     0.11865181     0.53293730
h     0.89384788     0.88135856     0.03292549
h     0.40738911     0.01491385     0.26885936
h     0.40739990     0.98507581     0.76887117
h     0.01492420     0.40739990     0.23112880
h     0.98508617     0.40738911     0.73114061
h     0.01491385     0.59261090     0.73114061
h     0.98507581     0.59260012     0.23112880
h     0.59260012     0.01492420     0.76887117
h     0.59261090     0.98508617     0.26885936
h     0.20628750     0.27498342     0.89959557
h     0.20629828     0.72500624     0.39960738
h     0.27499378     0.20629828     0.60039259
h     0.72501659     0.20628750     0.10040441
h     0.27498342     0.79371252     0.10040441
h     0.72500624     0.79370173     0.60039259
h     0.79370173     0.27499378     0.39960738
h     0.79371252     0.72501659     0.89959557

K_POINTS automatic
2 2 2 1 1 1

CELL_PARAMETERS cubic
   22.768660000000     0.000000000000     0.000000000000
    0.000000000000    22.768660000000     0.000000000000
    0.000000000000     0.000000000000    15.768562000000
