&control
 title='crystal',
 prefix='crystal',
 pseudo_dir='.',
 calculation='vc-relax',
/
&system
 ibrav=0,
 celldm(1)=1.0,
 nat=    52,
 ntyp=  4,
 ecutwfc=60.0,
 ecutrho=600.0,
 xdm=.true.,
 xdm_a1=0.4073,
 xdm_a2=2.4150,
/
&electrons
 conv_thr = 1d-8,
/
&ions
/
&cell
/
ATOMIC_SPECIES
h      1.007940 h.UPF
c     12.010700 c.UPF
n     14.006700 n.UPF
o     15.999400 o.UPF

ATOMIC_POSITIONS crystal
c     0.15972151     0.92734278     0.84057582
c     0.84027850     0.07265723     0.15942421
c     0.15972149     0.57265724     0.34057581
c     0.84027850     0.42734277     0.65942422
c     0.31158856     0.08898440     0.82825182
c     0.68841145     0.91101561     0.17174821
c     0.31158855     0.41101562     0.32825181
c     0.68841145     0.58898439     0.67174822
c     0.92224765     0.98555646     0.88263215
c     0.07775236     0.01444355     0.11736789
c     0.92224764     0.51444356     0.38263214
c     0.07775236     0.48555645     0.61736789
c     0.24127116     0.27182785     0.85495032
c     0.75872885     0.72817216     0.14504971
c     0.24127115     0.22817216     0.35495031
c     0.75872885     0.77182784     0.64504972
c     0.85372564     0.17679898     0.90943367
c     0.14627437     0.82320103     0.09056637
c     0.85372562     0.32320103     0.40943366
c     0.14627437     0.67679897     0.59056638
c     0.01290585     0.31764088     0.89619340
c     0.98709415     0.68235912     0.10380663
c     0.01290584     0.18235913     0.39619339
c     0.98709416     0.81764088     0.60380664
o     0.21544116     0.75839274     0.81935164
o     0.78455884     0.24160727     0.18064839
o     0.21544115     0.74160727     0.31935163
o     0.78455884     0.25839273     0.68064840
n     0.77430533     0.84438509     0.89621952
n     0.22569467     0.15561492     0.10378051
n     0.77430532     0.65561492     0.39621951
n     0.22569467     0.34438508     0.60378052
n     0.66964264     0.70850719     0.90343377
n     0.33035736     0.29149282     0.09656627
n     0.66964263     0.79149282     0.40343376
n     0.33035736     0.20850718     0.59656627
h     0.48685923     0.06201565     0.79365442
h     0.51314077     0.93798436     0.20634562
h     0.48685922     0.43798436     0.29365441
h     0.51314077     0.56201564     0.70634562
h     0.36340791     0.38806431     0.84354107
h     0.63659209     0.61193570     0.15645896
h     0.36340790     0.11193571     0.34354106
h     0.63659209     0.88806430     0.65645897
h     0.96734019     0.46528360     0.91492244
h     0.03265981     0.53471641     0.08507759
h     0.96734018     0.03471641     0.41492243
h     0.03265982     0.96528359     0.58507760
h     0.67731408     0.20686124     0.93975480
h     0.32268592     0.79313877     0.06024524
h     0.67731407     0.29313877     0.43975479
h     0.32268592     0.70686123     0.56024525

K_POINTS automatic
2 2 2 1 1 1

CELL_PARAMETERS cubic
   11.410553000000     0.000000000000    -1.251979000000
    0.000000000000    13.195003000000     0.000000000000
    7.914430000000     0.000000000000    24.192732000000
