&control
 title='crystal',
 prefix='crystal',
 pseudo_dir='.',
 calculation='vc-relax',
/
&system
 ibrav=0,
 celldm(1)=1.0,
 nat=   104,
 ntyp=  4,
 ecutwfc=60.0,
 ecutrho=600.0,
 xdm=.true.,
 xdm_a1=0.4073,
 xdm_a2=2.4150,
/
&electrons
 conv_thr = 1d-8,
/
&ions
/
&cell
/
ATOMIC_SPECIES
h      1.007940 h.UPF
c     12.010700 c.UPF
n     14.006700 n.UPF
o     15.999400 o.UPF

ATOMIC_POSITIONS crystal
o     0.29915382     0.94906312     0.69969763
o     0.79915382     0.55093689     0.19969764
o     0.44906312     0.79915382     0.19969764
o     0.05093688     0.29915382     0.69969763
o     0.94906312     0.70084619     0.69969763
o     0.55093689     0.20084618     0.19969764
o     0.20084618     0.44906312     0.19969764
o     0.70084619     0.05093688     0.69969763
n     0.40396007     0.98547557     0.23162199
n     0.90396007     0.51452444     0.73162200
n     0.48547557     0.90396007     0.73162200
n     0.01452443     0.40396007     0.23162199
n     0.98547557     0.59603994     0.23162199
n     0.51452444     0.09603994     0.73162200
n     0.09603994     0.48547557     0.73162200
n     0.59603994     0.01452443     0.23162199
n     0.35246600     0.02110843     0.13508605
n     0.85246600     0.47889158     0.63508606
n     0.52110842     0.85246600     0.63508606
n     0.97889158     0.35246600     0.13508605
n     0.02110843     0.64753401     0.13508605
n     0.47889158     0.14753401     0.63508606
n     0.14753401     0.52110842     0.63508606
n     0.64753401     0.97889158     0.13508605
c     0.16678880     0.13252959     0.73483734
c     0.66678881     0.36747042     0.23483735
c     0.63252959     0.66678881     0.23483735
c     0.86747042     0.16678880     0.73483734
c     0.13252959     0.83321120     0.73483734
c     0.36747042     0.33321120     0.23483735
c     0.33321120     0.63252959     0.23483735
c     0.83321120     0.86747042     0.73483734
c     0.19470261     0.17099186     0.95647394
c     0.69470262     0.32900815     0.45647395
c     0.67099185     0.69470262     0.45647395
c     0.82900815     0.19470261     0.95647394
c     0.17099186     0.80529739     0.95647394
c     0.32900815     0.30529739     0.45647395
c     0.30529739     0.67099185     0.45647395
c     0.80529739     0.82900815     0.95647394
c     0.19999416     0.05912497     0.64952755
c     0.69999416     0.44087504     0.14952756
c     0.55912496     0.69999416     0.14952756
c     0.94087504     0.19999416     0.64952755
c     0.05912497     0.80000585     0.64952755
c     0.44087504     0.30000585     0.14952756
c     0.30000585     0.55912496     0.14952756
c     0.80000585     0.94087504     0.64952755
c     0.25653852     0.13389597     0.09162092
c     0.75653853     0.36610404     0.59162093
c     0.63389596     0.75653853     0.59162093
c     0.86610404     0.25653852     0.09162092
c     0.13389597     0.74346148     0.09162092
c     0.36610404     0.24346148     0.59162093
c     0.24346148     0.63389596     0.59162093
c     0.74346148     0.86610404     0.09162092
c     0.26656727     0.01500977     0.77443492
c     0.76656727     0.48499024     0.27443493
c     0.51500977     0.76656727     0.27443493
c     0.98499024     0.26656727     0.77443492
c     0.01500977     0.73343274     0.77443492
c     0.48499024     0.23343274     0.27443493
c     0.23343274     0.51500977     0.27443493
c     0.73343274     0.98499024     0.77443492
c     0.29226127     0.05779409     0.00541464
c     0.79226128     0.44220592     0.50541465
c     0.55779409     0.79226128     0.50541465
c     0.94220592     0.29226127     0.00541464
c     0.05779409     0.70773873     0.00541464
c     0.44220592     0.20773873     0.50541465
c     0.20773873     0.55779409     0.50541465
c     0.70773873     0.94220592     0.00541464
h     0.11831247     0.16423584     0.62987160
h     0.61831247     0.33576417     0.12987161
h     0.66423584     0.61831247     0.12987161
h     0.83576417     0.11831247     0.62987160
h     0.16423584     0.88168753     0.62987160
h     0.33576417     0.38168753     0.12987161
h     0.38168753     0.66423584     0.12987161
h     0.88168753     0.83576417     0.62987160
h     0.16753961     0.23005958     0.01475755
h     0.66753962     0.26994043     0.51475756
h     0.73005958     0.66753962     0.51475756
h     0.76994042     0.16753961     0.01475755
h     0.23005958     0.83246039     0.01475755
h     0.26994043     0.33246039     0.51475756
h     0.33246039     0.73005958     0.51475756
h     0.83246039     0.76994042     0.01475755
h     0.17781384     0.03099028     0.47905235
h     0.67781385     0.46900973     0.97905236
h     0.53099028     0.67781385     0.97905236
h     0.96900973     0.17781384     0.47905235
h     0.03099028     0.82218616     0.47905235
h     0.46900973     0.32218616     0.97905236
h     0.32218616     0.53099028     0.97905236
h     0.82218616     0.96900973     0.47905235
h     0.27916458     0.16126394     0.26198338
h     0.77916458     0.33873607     0.76198339
h     0.66126394     0.77916458     0.76198339
h     0.83873607     0.27916458     0.26198338
h     0.16126394     0.72083543     0.26198338
h     0.33873607     0.22083543     0.76198339
h     0.22083543     0.66126394     0.76198339
h     0.72083543     0.83873607     0.26198338

K_POINTS automatic
2 2 2 1 1 1

CELL_PARAMETERS cubic
   30.242324000000     0.000000000000     0.000000000000
    0.000000000000    30.242324000000     0.000000000000
    0.000000000000     0.000000000000    10.270663000000
