&control
 title='crystal',
 prefix='crystal',
 pseudo_dir='.',
 calculation='vc-relax',
/
&system
 ibrav=0,
 celldm(1)=1.0,
 nat=    52,
 ntyp=  4,
 ecutwfc=60.0,
 ecutrho=600.0,
 xdm=.true.,
 xdm_a1=0.4073,
 xdm_a2=2.4150,
/
&electrons
 conv_thr = 1d-8,
/
&ions
/
&cell
/
ATOMIC_SPECIES
h      1.007940 h.UPF
c     12.010700 c.UPF
n     14.006700 n.UPF
o     15.999400 o.UPF

ATOMIC_POSITIONS crystal
o     0.48158756     0.91248286     0.24998768
o     0.51841247     0.08751716     0.74998766
o     0.48158756     0.58751716     0.75001229
o     0.51841247     0.41248285     0.25001231
n     0.54454155     0.14493831     0.24999839
n     0.45545847     0.85506170     0.74997695
n     0.54454155     0.35506171     0.75002300
n     0.45545847     0.64493830     0.25002302
n     0.68093919     0.15503244     0.24999964
n     0.31906083     0.84496757     0.74997569
n     0.68093919     0.34496758     0.75002426
n     0.31906083     0.65503243     0.25002427
c     0.36652251     0.98355937     0.24998952
c     0.63347752     0.01644064     0.74998582
c     0.36652251     0.51644065     0.75001413
c     0.63347752     0.48355936     0.25001415
c     0.19734256     0.95214218     0.24998533
c     0.80265746     0.04785784     0.74999001
c     0.19734256     0.54785785     0.75000994
c     0.80265746     0.45214217     0.25000996
c     0.07547728     0.03380175     0.24999024
c     0.92452275     0.96619827     0.74998510
c     0.07547728     0.46619828     0.75001485
c     0.92452275     0.53380174     0.25001487
c     0.10694861     0.15592522     0.25000072
c     0.89305141     0.84407479     0.74997462
c     0.10694861     0.34407480     0.75002533
c     0.89305141     0.65592521     0.25002535
c     0.26345501     0.19577590     0.25000262
c     0.73654501     0.80422411     0.74997272
c     0.26345501     0.30422412     0.75002723
c     0.73654501     0.69577589     0.25002724
c     0.39076966     0.11232470     0.24999619
c     0.60923037     0.88767531     0.74997915
c     0.39076966     0.38767532     0.75002080
c     0.60923037     0.61232469     0.25002082
h     0.17059588     0.85905046     0.24997809
h     0.82940414     0.14094955     0.74999725
h     0.17059588     0.64094956     0.75000270
h     0.82940414     0.35905045     0.25000272
h     0.94991750     0.00435611     0.24998618
h     0.05008253     0.99564390     0.74998916
h     0.94991750     0.49564391     0.75001079
h     0.05008253     0.50435610     0.25001081
h     0.00664065     0.21735130     0.25000743
h     0.99335937     0.78264872     0.74996791
h     0.00664065     0.28264873     0.75003204
h     0.99335937     0.71735129     0.25003206
h     0.29496156     0.28807441     0.25000997
h     0.70503847     0.71192561     0.74996537
h     0.29496156     0.21192562     0.75003458
h     0.70503847     0.78807440     0.25003459

K_POINTS automatic
2 2 2 1 1 1

CELL_PARAMETERS cubic
   15.585215000000     0.000000000000     0.000000000000
    0.000000000000    21.608856000000     0.000000000000
    0.000000000000     0.000000000000    11.547912000000
