&control
 title='crystal',
 prefix='crystal',
 pseudo_dir='.',
 calculation='vc-relax',
/
&system
 ibrav=0,
 celldm(1)=1.0,
 nat=    52,
 ntyp=  4,
 ecutwfc=60.0,
 ecutrho=600.0,
 xdm=.true.,
 xdm_a1=0.4073,
 xdm_a2=2.4150,
/
&electrons
 conv_thr = 1d-8,
/
&ions
/
&cell
/
ATOMIC_SPECIES
h      1.007940 h.UPF
c     12.010700 c.UPF
n     14.006700 n.UPF
o     15.999400 o.UPF

ATOMIC_POSITIONS crystal
c     0.30289643     0.04736490     0.24999999
c     0.69710360     0.95263511     0.74999997
c     0.30289643     0.45263511     0.74999997
c     0.69710360     0.54736490     0.24999999
c     0.42448803     0.96556836     0.24999999
c     0.57551200     0.03443164     0.74999997
c     0.42448803     0.53443164     0.74999997
c     0.57551200     0.46556837     0.24999999
c     0.39270485     0.84357164     0.24999999
c     0.60729518     0.15642837     0.74999997
c     0.39270485     0.65642837     0.74999997
c     0.60729518     0.34357164     0.24999999
c     0.23615435     0.80396835     0.24999999
c     0.76384568     0.19603166     0.74999997
c     0.23615435     0.69603166     0.74999997
c     0.76384568     0.30396835     0.24999999
c     0.10911871     0.88755432     0.24999999
c     0.89088132     0.11244569     0.74999997
c     0.10911871     0.61244569     0.74999997
c     0.89088132     0.38755432     0.24999999
c     0.13368480     0.01619884     0.24999999
c     0.86631523     0.98380117     0.74999997
c     0.13368480     0.48380117     0.74999997
c     0.86631523     0.51619884     0.24999999
o     0.01881743     0.08736550     0.24999999
o     0.98118260     0.91263450     0.74999997
o     0.01881743     0.41263450     0.74999997
o     0.98118260     0.58736551     0.24999999
n     0.95535942     0.85507394     0.24999999
n     0.04464061     0.14492606     0.74999997
n     0.95535942     0.64492606     0.74999997
n     0.04464061     0.35507395     0.24999999
n     0.81904001     0.84481833     0.24999999
n     0.18096001     0.15518167     0.74999997
n     0.81904001     0.65518167     0.74999997
n     0.18096001     0.34481834     0.24999999
h     0.32992996     0.14035533     0.24999999
h     0.67007007     0.85964467     0.74999997
h     0.32992996     0.35964467     0.74999997
h     0.67007007     0.64035534     0.24999999
h     0.55009721     0.99478005     0.24999999
h     0.44990282     0.00521996     0.74999997
h     0.55009721     0.50521996     0.74999997
h     0.44990282     0.49478005     0.24999999
h     0.49278586     0.78202433     0.24999999
h     0.50721416     0.21797568     0.74999997
h     0.49278586     0.71797568     0.74999997
h     0.50721416     0.28202433     0.24999999
h     0.20442382     0.71176973     0.24999999
h     0.79557621     0.28823027     0.74999997
h     0.20442382     0.78823027     0.74999997
h     0.79557621     0.21176974     0.24999999

K_POINTS automatic
2 2 2 1 1 1

CELL_PARAMETERS cubic
   15.590750000000     0.000000000000     0.000000000000
    0.000000000000    21.622410000000     0.000000000000
    0.000000000000     0.000000000000    11.536952000000
