&control
 title='crystal',
 prefix='crystal',
 pseudo_dir='..',
 calculation='vc-relax',
 etot_conv_thr=1.0D-5,
/
&system
 ibrav=0,
 celldm(1)=1.0,
 nat=    80,
 ntyp=  4,
 ecutwfc=80.0,
 ecutrho=800.0,
 xdm=.true.,
 xdm_a1=0.6512,
 xdm_a2=1.4633,
/
&electrons
 conv_thr = 1d-8,
/
&ions
/
&cell
/
ATOMIC_SPECIES
h      1.007940 h.UPF
c     12.010700 c.UPF
n     14.006700 n.UPF
o     15.999400 o.UPF

ATOMIC_POSITIONS crystal
o        0.431227314   0.661480108   0.764399415
o        0.568772686   0.161480108   0.735600585
o        0.568772686   0.338519892   0.235600585
o        0.431227314   0.838519892   0.264399415
o        0.370766667   0.935319773   0.897265487
o        0.629233333   0.435319773   0.602734513
o        0.629233333   0.064680227   0.102734513
o        0.370766667   0.564680227   0.397265487
n        0.401389816   0.068201575   0.560194763
n        0.598610184   0.568201575   0.939805237
n        0.598610184   0.931798425   0.439805237
n        0.401389816   0.431798425   0.060194763
c        0.386485636   0.873284456   0.782234112
c        0.613514364   0.373284456   0.717765888
c        0.613514364   0.126715544   0.217765888
c        0.386485636   0.626715544   0.282234112
c        0.343731779   0.063850449   0.652883745
c        0.656268221   0.563850449   0.847116255
c        0.656268221   0.936149551   0.347116255
c        0.343731779   0.436149551   0.152883745
c        0.253368609   0.946878082   0.567914200
c        0.746631391   0.446878082   0.932085800
c        0.746631391   0.053121918   0.432085800
c        0.253368609   0.553121918   0.067914200
c        0.187031680   0.947877568   0.650187232
c        0.812968320   0.447877568   0.849812768
c        0.812968320   0.052122432   0.349812768
c        0.187031680   0.552122432   0.150187232
c        0.109624677   0.751678188   0.583974012
c        0.890375323   0.251678188   0.916025988
c        0.890375323   0.248321812   0.416025988
c        0.109624677   0.748321812   0.083974012
o        0.088258719   0.684950212   0.454872577
o        0.911741281   0.184950212   0.045127423
o        0.911741281   0.315049788   0.545127423
o        0.088258719   0.815049788   0.954872577
n        0.066171561   0.651747452   0.669555280
n        0.933828439   0.151747452   0.830444720
n        0.933828439   0.348252548   0.330444720
n        0.066171561   0.848252548   0.169555280
h        0.467066536   0.098002811   0.621994064
h        0.532933464   0.598002811   0.878005936
h        0.532933464   0.901997189   0.378005936
h        0.467066536   0.401997189   0.121994064
h        0.384593586   0.239122111   0.487717756
h        0.615406414   0.739122111   1.012282244
h        0.615406414   0.760877889   0.512282244
h        0.384593586   0.260877889  -0.012282244
h        0.396359993   0.871592248   0.504871397
h        0.603640007   0.371592248   0.995128603
h        0.603640007   0.128407752   0.495128603
h        0.396359993   0.628407752   0.004871397
h        0.339909278   0.284967363   0.689029660
h        0.660090722   0.784967363   0.810970340
h        0.660090722   0.715032637   0.310970340
h        0.339909278   0.215032637   0.189029660
h        0.261750138   0.726390347   0.533830887
h        0.738249862   0.226390347   0.966169113
h        0.738249862   0.273609653   0.466169113
h        0.261750138   0.773609653   0.033830887
h        0.228206584   0.075082460   0.470689111
h        0.771793416   0.575082460   0.029310889
h        0.771793416   0.924917540   0.529310889
h        0.228206584   0.424917540   0.970689111
h        0.217748511   0.883901445   0.760837071
h        0.782251489   0.383901445   0.739162929
h        0.782251489   0.116098555   0.239162929
h        0.217748511   0.616098555   0.260837071
h        0.161128879   0.166402818   0.654064314
h        0.838871121   0.666402818   0.845935686
h        0.838871121   0.833597182   0.345935686
h        0.161128879   0.333597182   0.154064314
h        0.084087143   0.704154966   0.775069443
h        0.915912857   0.204154966   0.724930557
h        0.915912857   0.295845034   0.224930557
h        0.084087143   0.795845034   0.275069443
h        0.010262630   0.530755819   0.626398008
h        0.989737370   0.030755819   0.873601992
h        0.989737370   0.469244181   0.373601992
h        0.010262630   0.969244181   0.126398008

K_POINTS automatic
4 4 4 1 1 1

CELL_PARAMETERS cubic
  30.351843717   0.000000000  -0.378487406
   0.000000000   8.765378289   0.000000000
  -5.554033797   0.000000000  17.918985712
