&control
 title='crystal',
 prefix='crystal',
 pseudo_dir='.',
 calculation='vc-relax',
/
&system
 ibrav=0,
 celldm(1)=1.0,
 nat=    80,
 ntyp=  4,
 ecutwfc=60.0,
 ecutrho=600.0,
 xdm=.true.,
 xdm_a1=0.4073,
 xdm_a2=2.4150,
/
&electrons
 conv_thr = 1d-8,
/
&ions
/
&cell
/
ATOMIC_SPECIES
h      1.007940 h.UPF
c     12.010700 c.UPF
n     14.006700 n.UPF
o     15.999400 o.UPF

ATOMIC_POSITIONS crystal
o     0.43122731     0.66148013     0.76439939
o     0.56877268     0.33851990     0.23560057
o     0.43122731     0.83851992     0.26439940
o     0.56877268     0.16148011     0.73560056
o     0.37076667     0.93531980     0.89726546
o     0.62923333     0.06468023     0.10273450
o     0.37076666     0.56468026     0.39726547
o     0.62923333     0.43531978     0.60273449
n     0.40138981     0.06820158     0.56019475
n     0.59861018     0.93179846     0.43980521
n     0.40138981     0.43179848     0.06019475
n     0.59861018     0.56820155     0.93980521
c     0.38648563     0.87328448     0.78223409
c     0.61351436     0.12671555     0.21776587
c     0.38648563     0.62671557     0.28223409
c     0.61351436     0.37328446     0.71776587
c     0.34373178     0.06385045     0.65288372
c     0.65626821     0.93614959     0.34711624
c     0.34373178     0.43614961     0.15288373
c     0.65626822     0.56385042     0.84711623
c     0.25336861     0.94687812     0.56791418
c     0.74663138     0.05312192     0.43208578
c     0.25336861     0.55312194     0.06791419
c     0.74663139     0.44687809     0.93208577
c     0.18703168     0.94787760     0.65018722
c     0.81296831     0.05212243     0.34981274
c     0.18703168     0.55212245     0.15018722
c     0.81296831     0.44787758     0.84981274
c     0.10962468     0.75167822     0.58397400
c     0.89037531     0.24832182     0.41602596
c     0.10962468     0.74832184     0.08397400
c     0.89037532     0.25167819     0.91602596
o     0.08825872     0.68495023     0.45487257
o     0.91174127     0.31504980     0.54512739
o     0.08825872     0.81504982     0.95487257
o     0.91174127     0.18495021     0.04512739
n     0.06617156     0.65174748     0.66955527
n     0.93382843     0.34825256     0.33044469
n     0.06617156     0.84825258     0.16955527
n     0.93382843     0.15174745     0.83044469
h     0.46706653     0.09800281     0.62199404
h     0.53293346     0.90199722     0.37800592
h     0.46706653     0.40199724     0.12199405
h     0.53293346     0.59800279     0.87800591
h     0.38459358     0.23912212     0.48771774
h     0.61540641     0.76087791     0.51228222
h     0.38459358     0.26087793     0.98771775
h     0.61540641     0.73912210     0.01228221
h     0.39635999     0.87159228     0.50487138
h     0.60364000     0.12840775     0.49512858
h     0.39635999     0.62840778     0.00487139
h     0.60364000     0.37159226     0.99512857
h     0.33990928     0.28496737     0.68902964
h     0.66009072     0.71503267     0.31097032
h     0.33990928     0.21503269     0.18902965
h     0.66009072     0.78496735     0.81097031
h     0.26175014     0.72639037     0.53383087
h     0.73824986     0.27360966     0.46616909
h     0.26175013     0.77360968     0.03383088
h     0.73824986     0.22639035     0.96616908
h     0.22820658     0.07508247     0.47068910
h     0.77179341     0.92491757     0.52931086
h     0.22820658     0.42491759     0.97068910
h     0.77179341     0.57508244     0.02931086
h     0.21774851     0.88390147     0.76083705
h     0.78225148     0.11609856     0.23916291
h     0.21774851     0.61609859     0.26083706
h     0.78225148     0.38390145     0.73916290
h     0.16112888     0.16640282     0.65406430
h     0.83887112     0.83359722     0.34593566
h     0.16112887     0.33359724     0.15406430
h     0.83887112     0.66640280     0.84593566
h     0.08408714     0.70415499     0.77506943
h     0.91591285     0.29584504     0.22493053
h     0.08408714     0.79584506     0.27506944
h     0.91591285     0.20415497     0.72493052
h     0.01026263     0.53075583     0.62639800
h     0.98973736     0.46924420     0.37360196
h     0.01026263     0.96924422     0.12639800
h     0.98973736     0.03075581     0.87360196

K_POINTS automatic
2 2 2 1 1 1

CELL_PARAMETERS cubic
   30.351844000000     0.000000000000    -0.378487000000
    0.000000000000     8.765378000000     0.000000000000
   -5.554034000000     0.000000000000    17.918986000000
