&control
 title='crystal',
 prefix='crystal',
 pseudo_dir='.',
 calculation='vc-relax',
/
&system
 ibrav=0,
 celldm(1)=1.0,
 nat=    38,
 ntyp=  4,
 ecutwfc=60.0,
 ecutrho=600.0,
 xdm=.true.,
 xdm_a1=0.4073,
 xdm_a2=2.4150,
/
&electrons
 conv_thr = 1d-8,
/
&ions
/
&cell
/
ATOMIC_SPECIES
h      1.007940 h.UPF
c     12.010700 c.UPF
n     14.006700 n.UPF
o     15.999400 o.UPF

ATOMIC_POSITIONS crystal
o     0.52845300     0.69160238     0.48937020
o     0.47154698     0.19160237     0.51062983
o     0.88757901     0.46281295     0.03718899
o     0.11242097     0.96281293     0.96281105
n     0.70764881     0.43751998     0.76127332
n     0.29235117     0.93751997     0.23872671
n     0.72422137     0.89106721     0.68498389
n     0.27577861     0.39106719     0.31501614
c     0.85507383     0.57863624     0.71493443
c     0.14492614     0.07863623     0.28506560
c     0.68806271     0.72678218     0.62116394
c     0.31193727     0.22678216     0.37883609
c     0.73869704     0.38671932     0.91993822
c     0.26130294     0.88671931     0.08006181
c     0.57987389     0.23371481     0.94837008
c     0.42012608     0.73371479     0.05162995
c     0.01497547     0.50517400     0.60889893
c     0.98502450     0.00517398     0.39110110
h     0.60252416     0.35909146     0.66786335
h     0.39747582     0.85909144     0.33213668
h     0.62405247     0.99621581     0.62107853
h     0.37594750     0.49621580     0.37892151
h     0.86796821     0.91580419     0.78667589
h     0.13203176     0.41580417     0.21332414
h     0.96815019     0.63447501     0.83026344
h     0.03184979     0.13447500     0.16973660
h     0.69541113     0.11541523     0.98911092
h     0.30458884     0.61541522     0.01088912
h     0.43632178     0.19692896     0.83829612
h     0.56367819     0.69692895     0.16170391
h     0.49626572     0.27117503     0.04743775
h     0.50373426     0.77117502     0.95256229
h     0.13231887     0.39757515     0.67522448
h     0.86768111     0.89757514     0.32477556
h     0.13173384     0.61084330     0.57973576
h     0.86826614     0.11084328     0.42026428
h     0.90107985     0.45104709     0.49275033
h     0.09892013     0.95104708     0.50724971

K_POINTS automatic
2 2 2 1 1 1

CELL_PARAMETERS cubic
   10.708198000000     0.000000000000     0.018930000000
    0.000000000000    14.071467000000     0.000000000000
   -4.176988000000     0.000000000000    15.305605000000
