&control
 title='crystal',
 prefix='crystal',
 pseudo_dir='../..',
 forc_conv_thr=1.0D-4,
 etot_conv_thr=1.0D-5,
/
&system
 ibrav=0,
 nat=    48,
 ntyp=  3,
 ecutwfc=80.0,
 ecutrho=800.0,
 vdw_corr='xdm',
 nosym=.true.,
/
&electrons
 conv_thr = 1d-10,
/
&ions
/
&cell
 press_conv_thr=0.01,
/
ATOMIC_SPECIES
S    32.065000 s.UPF
C    12.010700 c.UPF
H     1.007940 h.UPF

ATOMIC_POSITIONS crystal
S             0.4438257904        0.5498058438        0.1617438895
S             0.4436973496        0.9525121964        0.1617226723
S             0.7205469533        0.7511585085        0.9997074004
C             0.7269620414        0.5713077070        0.0848557338
C             0.4733186226        0.7511779585        0.2298370284
C             0.7268325797        0.9310422064        0.0848360671
H             0.9034905761        0.5806706508        0.1291264245
H             0.7361457733        0.4508270044        0.0419553926
H             0.6575414601        0.7512139527        0.2696981400
H             0.3112478221        0.7511757410        0.2811085796
H             0.9033530131        0.9217386075        0.1291138237
H             0.7359345597        0.0515045576        0.0419188864
S             0.9438280436        0.4525491841        0.3359811867
S             0.9436958897        0.0498427517        0.3360029100
S             0.2205461096        0.2511956449        0.4980182220
C             0.2269597157        0.4310480530        0.4128707484
C             0.9733187838        0.2511772139        0.2678882474
C             0.2268335527        0.0713133436        0.4128884563
H             0.4034889024        0.4216883279        0.3686009903
H             0.2361374393        0.5515303911        0.4557708381
H             0.1575390568        0.2511412978        0.2280256766
H             0.8112464585        0.2511862582        0.2166172107
H             0.4033551199        0.0806153284        0.3686113669
H             0.2359362857        0.9508514375        0.4558067316
S             0.0061053641        0.9525478999        0.6617436667
S             0.0062310997        0.5498416058        0.6617234392
S             0.7293803838        0.7511961050        0.4997084485
C             0.7229676516        0.9310468599        0.5848567634
C             0.9766134524        0.7511763646        0.7298374275
C             0.7230953613        0.5713129479        0.5848376353
H             0.5464402477        0.9216849388        0.6291281131
H             0.7137832302        0.0515280766        0.5419565824
H             0.7923920199        0.7511412653        0.7696997735
H             0.1386852085        0.7511789747        0.7811081921
H             0.5465754861        0.5806166724        0.6291158658
H             0.7139924443        0.4508505513        0.5419205571
S             0.5061008183        0.0498048738        0.8359803550
S             0.5062346898        0.4525113926        0.8360024797
S             0.2293829102        0.2511589254        0.9980174638
C             0.2229678873        0.0713074238        0.9128695355
C             0.4766115091        0.2511772378        0.7678876803
C             0.2230955661        0.4310411541        0.9128876921
H             0.0464404960        0.0806685873        0.8685994248
H             0.2137881307        0.9508247814        0.9557697606
H             0.2923915080        0.2512135562        0.7280255590
H             0.6386855937        0.2511686247        0.7166167666
H             0.0465750785        0.4217391869        0.8686104483
H             0.2139937637        0.5515032769        0.9558061063

K_POINTS automatic
5 3 2  1 1 1

CELL_PARAMETERS bohr
   9.721353237   0.000011339   0.000006411
   0.000016838  14.430443433   0.000003042
   0.000017094   0.000005590  26.195673247
