&control
 title='crystal',
 prefix='crystal',
 pseudo_dir='../..',
 forc_conv_thr=1.0D-4,
 etot_conv_thr=1.0D-5,
/
&system
 ibrav=0,
 nat=    20,
 ntyp=  3,
 ecutwfc=80.0,
 ecutrho=800.0,
 vdw_corr='xdm',
 nosym=.true.,
/
&electrons
 conv_thr = 1d-10,
 diagonalization='cg',
/
&ions
/
&cell
 press_conv_thr=0.01,
/
ATOMIC_SPECIES
C    12.010700 c.UPF
N    14.006700 n.UPF
H     1.007940 h.UPF

ATOMIC_POSITIONS crystal
C             0.0752221448        0.1813634198        0.1297436675
C             0.4247831683        0.3186336331        0.6297458604
C             0.0752229295        0.8186111042        0.8690381264
C             0.4247807800        0.6813852387        0.3690409113
C             0.9247652686        0.8185420951        0.8702615251
C             0.5752299487        0.6814618248        0.3702583663
C             0.9247640410        0.1812964639        0.1309649312
C             0.5752320101        0.3187074657        0.6309617513
N             0.1512574753        1.0000153510        0.9987559184
N             0.3487411866        0.4999892939        0.4987527469
N             0.8487300557       -0.0001054078        0.0012370006
N             0.6512713702        0.5001004707        0.5012401737
H             0.1367827782        0.3285457924        0.2386175024
H             0.3632167993        0.1714534889        0.7386179555
H             0.1367797402        0.6714635013        0.7592063447
H             0.3632192401        0.8285388147        0.2592049785
H             0.8632011580        0.6713619495        0.7613917779
H             0.6367992047        0.8286385581        0.2613912927
H             0.8632088725        0.3284444622        0.2407928544
H             0.6367923080        0.1715532900        0.7407941847

K_POINTS automatic
3 5 7  1 1 1

CELL_PARAMETERS bohr
  17.525423627  -0.038465839   0.000025685
   0.036888998  10.784266745  -0.000009338
   0.000010327  -0.000006225   6.949419260
