&control
 title='crystal',
 prefix='crystal',
 pseudo_dir='.',
 calculation='vc-relax',
/
&system
 ibrav=0,
 celldm(1)=1.0,
 nat=    84,
 ntyp=  4,
 ecutwfc=60.0,
 ecutrho=600.0,
 xdm=.true.,
 xdm_a1=0.4073,
 xdm_a2=2.4150,
/
&electrons
 conv_thr = 1d-8,
/
&ions
/
&cell
/
ATOMIC_SPECIES
h      1.007940 h.UPF
c     12.010700 c.UPF
n     14.006700 n.UPF
o     15.999400 o.UPF

ATOMIC_POSITIONS crystal
c     0.96523533     0.23133853     0.60937212
c     0.46523532     0.26866148     0.39062787
c     0.03476469     0.73133853     0.89062787
c     0.53476469     0.76866149     0.10937213
c     0.90544907     0.40988929     0.64171986
c     0.40544906     0.09011072     0.35828013
c     0.09455095     0.90988930     0.85828013
c     0.59455095     0.59011072     0.14171986
h     0.98884323     0.44517705     0.70284683
h     0.48884323     0.05482296     0.29715317
h     0.01115678     0.94517705     0.79715316
h     0.51115679     0.55482297     0.20284683
c     0.93669664     0.53678826     0.56136866
c     0.43669663     0.96321175     0.43863133
c     0.06330338     0.03678826     0.93863133
c     0.56330339     0.46321176     0.06136867
h     0.07495460     0.51774210     0.53237013
h     0.57495459     0.98225790     0.46762986
h     0.92504542     0.01774211     0.96762986
h     0.42504543     0.48225791     0.03237013
h     0.84027986     0.51589784     0.50295212
h     0.34027985     0.98410216     0.49704787
h     0.15972016     0.01589785     0.99704787
h     0.65972016     0.48410217     0.00295213
c     0.92335175     0.71854712     0.59534931
c     0.42335174     0.78145288     0.40465068
c     0.07664827     0.21854713     0.90465068
c     0.57664827     0.28145289     0.09534931
c     0.65440262     0.44952141     0.76474271
c     0.15440261     0.05047860     0.23525728
c     0.34559739     0.94952142     0.73525728
c     0.84559740     0.55047861     0.26474272
h     0.74740582     0.49560192     0.81851958
h     0.24740581     0.00439809     0.18148041
h     0.25259420     0.99560193     0.68148041
h     0.75259421     0.50439809     0.31851958
c     0.46912872     0.42374031     0.76540453
c     0.96912872     0.07625969     0.23459547
c     0.53087129     0.92374032     0.73459546
c     0.03087130     0.57625970     0.26540453
h     0.36804185     0.44168620     0.82028760
h     0.86804185     0.05831381     0.17971239
h     0.63195816     0.94168620     0.67971238
h     0.13195817     0.55831382     0.32028761
c     0.57050134     0.36391662     0.62185897
c     0.07050133     0.13608339     0.37814102
c     0.42949868     0.86391663     0.87814102
c     0.92949868     0.63608339     0.12185897
h     0.57844231     0.32590897     0.54860234
h     0.07844230     0.17409104     0.45139765
h     0.42155771     0.82590897     0.95139765
h     0.92155772     0.67409105     0.04860235
n     0.71487758     0.41178327     0.67430388
n     0.21487757     0.08821673     0.32569611
n     0.28512244     0.91178328     0.82569610
n     0.78512244     0.58821674     0.17430389
n     0.42062343     0.37097393     0.67572227
n     0.92062342     0.12902607     0.32427772
n     0.57937659     0.87097394     0.82427772
n     0.07937659     0.62902608     0.17572227
h     0.29277526     0.32488660     0.65169639
h     0.79277526     0.17511341     0.34830360
h     0.70722475     0.82488661     0.84830360
h     0.20722476     0.67511341     0.15169640
o     0.84278196     0.12260482     0.59145274
o     0.34278195     0.37739519     0.40854726
o     0.15721806     0.62260482     0.90854725
o     0.65721807     0.87739520     0.09145274
o     0.13610981     0.21102882     0.59773857
o     0.63610980     0.28897119     0.40226142
o     0.86389021     0.71102882     0.90226142
o     0.36389022     0.78897120     0.09773857
o     0.91207134     0.83004889     0.52525695
o     0.41207133     0.66995112     0.47474304
o     0.08792867     0.33004889     0.97474304
o     0.58792868     0.16995113     0.02525695
h     0.89706560     0.95147026     0.55403404
h     0.39706560     0.54852975     0.44596595
h     0.10293441     0.45147027     0.94596594
h     0.60293442     0.04852976     0.05403405
o     0.92412046     0.75667006     0.67966790
o     0.42412045     0.74332995     0.32033209
o     0.07587955     0.25667006     0.82033209
o     0.57587956     0.24332996     0.17966790

K_POINTS automatic
2 2 2 1 1 1

CELL_PARAMETERS cubic
   13.783547000000     0.000000000000     0.000000000000
    0.000000000000    14.905713000000     0.000000000000
    0.000000000000     0.000000000000    26.748377000000
