%nprocs=4
%mem=4GB
#p pbepbe aug-cc-pvtz output=wfx scf=(conver=6) int=(grid=ultrafine)

title

0 1
c -3.169052343982377 0.980250378032999 -0.280555336389473
c -2.005225836187577 0.006746142747443 -0.417914556413980
c -0.692885513180008 0.609900703379052 0.068266639812424
c 0.542948109376847 -0.260246636442102 -0.159676281783176
c 1.804466537220530 0.526416653937441 0.198622086146249
c 3.107694975999221 -0.179964113939795 -0.154948518749478
c 0.458631592639931 -1.565236573957273 0.625595784830775
h -2.990476695756052 1.883284346048082 -0.864082073971405
h -4.104482424946941 0.540095478858398 -0.622598479086577
h -3.301303278458147 1.279538065005012 0.759191629881074
h -1.894658643234706 -0.289899974597606 -1.464122201649927
h -2.229414517481872 -0.902689811505368 0.140383106066589
h -0.542498717091244 1.567766597605297 -0.438759605337556
h -0.772077187269666 0.836943405703672 1.137314347844905
h 0.591487867332700 -0.500381045838578 -1.228543360471182
h 1.768703581381167 1.488574698127175 -0.317511828109661
h 1.782822449476513 0.750524620779226 1.269646771899186
h 3.125636834333104 -0.446518321618190 -1.212215223576873
h 3.966051547587126 0.461083328913480 0.040943932044338
h 3.243383692161870 -1.093002640317131 0.421202716948111
h 0.403942599423757 -1.353811673923354 1.695944939890315
h -0.421989711413557 -2.143188079826230 0.351938373239032
h 1.328295082069413 -2.196185547171601 0.451877136936242

h13.wfx

