%nprocs=4
%mem=4GB
#p pbepbe aug-cc-pvtz output=wfx scf=(conver=6) int=(grid=ultrafine)

title

0 1
c 0.575633252780982 0.507686086223245 0.484425327655358
c 2.653141114042859 1.399108216419161 -0.628900144466854
c 1.247137313272531 2.922113365249071 0.789813024952706
c 0.082124325325341 1.943328350533020 0.667787954900746
c 2.164731686470349 2.829761262126755 -0.425308905500624
c 1.477070357671247 0.432141723957362 -0.748667226213030
c -0.575633252780982 -0.507686086223245 0.484425327655358
c -0.082124325325341 -1.943328350533020 0.667787954900746
c -1.247137313272531 -2.922113365249071 0.789813024952706
c -2.164731686470349 -2.829761262126755 -0.425308905500624
c -2.653141114042859 -1.399108216419161 -0.628900144466854
c -1.477070357671247 -0.432141723957362 -0.748667226213030
h 1.199763833462180 0.270411161869456 1.356920312263652
h 3.284825676048526 1.336399189695873 -1.516543274179792
h 3.273005509078315 1.106020170029125 0.223614598145065
h 1.820500016681325 2.685085137056200 1.690882780027509
h 0.875432636333845 3.941120548122385 0.909476142607684
h -0.532364122821055 2.229792145929927 -0.190817903497243
h -0.558204159239113 2.001783665606247 1.551486122573161
h 1.613002400564018 3.148164487024811 -1.314910183999455
h 3.011019265938256 3.509870179603796 -0.316524317575602
h 1.843121691632823 -0.585490226463014 -0.895553688888639
h 0.895448396359781 0.694841738122674 -1.637180618804610
h -1.199763833462180 -0.270411161869456 1.356920312263652
h 0.532364122821055 -2.229792145929927 -0.190817903497243
h 0.558204159239113 -2.001783665606247 1.551486122573161
h -1.820500016681325 -2.685085137056200 1.690882780027509
h -0.875432636333845 -3.941120548122385 0.909476142607684
h -1.613002400564018 -3.148164487024811 -1.314910183999455
h -3.011019265938256 -3.509870179603796 -0.316524317575602
h -3.273005509078315 -1.106020170029125 0.223614598145065
h -3.284825676048526 -1.336399189695873 -1.516543274179792
h -1.843121691632823 0.585490226463014 -0.895553688888639
h -0.895448396359781 -0.694841738122674 -1.637180618804610

r15.wfx

