%nprocs=4
%mem=4GB
#p pbepbe aug-cc-pvtz output=wfx scf=(conver=6) int=(grid=ultrafine)

title

0 1
c -0.724392861941603 -0.246255276815675 -0.294738632618902
c -0.854677498291107 -0.882277765924468 1.090972276322148
c 0.724392861941603 0.246255276815675 -0.294738632618902
c 0.854677498291107 0.882277765924468 1.090972276322148
c 0.000000000000000 0.000000000000000 2.027724851210545
c -1.079251614121034 -1.183392298217172 -1.434939409425686
c 1.079251614121034 1.183392298217172 -1.434939409425686
h -1.368405686580192 0.640660036329229 -0.337849380737238
h -1.890280398862609 -0.970653675169867 1.417472702930852
h -0.443413205807578 -1.893453244961443 1.045425908519878
h 1.368405686580192 -0.640660036329229 -0.337849380737238
h 1.890280398862609 0.970653675169867 1.417472702930852
h 0.443413205807578 1.893453244961443 1.045425908519878
h 0.624527641229577 -0.611885567341129 2.676186783918689
h -0.624527641229577 0.611885567341129 2.676186783918689
h -0.419230981523481 -2.052737509893697 -1.424605837566429
h -0.980443512123421 -0.696074699375669 -2.404549290989435
h -2.104813196084170 -1.542169682658205 -1.347237545959156
h 0.419230981523481 2.052737509893697 -1.424605837566429
h 0.980443512123421 0.696074699375669 -2.404549290989435
h 2.104813196084170 1.542169682658205 -1.347237545959156

r8.wfx

