%nprocs=4
%mem=4GB
#p pbepbe aug-cc-pvtz output=wfx scf=(conver=6) int=(grid=ultrafine)

title

0 1
c -0.262419554607006 -0.594154493807895 0.000000000000000
c 0.318439893840356 0.790687323983359 0.000000000000000
o -0.328572017646429 1.806533505701971 0.000000000000000
h -1.349373157419261 -0.558699763858592 0.000000000000000
h 0.097021340562493 -1.139802043220727 0.876677710979316
h 0.097021340562493 -1.139802043220727 -0.876677710979316
h 1.427882154707366 0.835237514422597 0.000000000000000

113.wfx

