%nprocs=4
%mem=4GB
#p pbepbe aug-cc-pvtz output=wfx scf=(conver=6) int=(grid=ultrafine)

title

0 1
c -0.226052853850575 0.020497850578819 -1.367156616334661
s 0.801732429885571 0.679934528203185 0.000000000000000
o 2.077976163652276 -0.122455872244390 0.000000000000000
c -0.226052853850575 0.020497850578819 1.367156616334661
h 0.286759260706892 0.280810030221650 -2.289957464382418
h -1.212524197489113 0.481374552023485 -1.342973607983077
h -0.288036506136119 -1.061421760803342 -1.265105950546276
h -1.212524197489113 0.481374552023485 1.342973607983077
h -0.288036506136119 -1.061421760803342 1.265105950546276
h 0.286759260706892 0.280810030221650 2.289957464382418

118.wfx

