%nprocs=4
%mem=4GB
#p pbepbe aug-cc-pvtz output=wfx scf=(conver=6) int=(grid=ultrafine)

title

0 1
li 0.000000000000000 0.000000000000000 1.359180648405618
li 0.000000000000000 0.000000000000000 -1.359180648405618

23.wfx

