%nprocs=4
%mem=4GB
#p pbepbe aug-cc-pvtz output=wfx scf=(conver=6) int=(grid=ultrafine)

title

0 1
c 0.000000000000000 0.000000000000000 0.000000000000000
o 0.000000000000000 0.000000000000000 1.160546421336428
o 0.000000000000000 0.000000000000000 -1.160546421336428

40.wfx

