%nprocs=4
%mem=4GB
#p pbepbe aug-cc-pvtz output=wfx scf=(conver=6) int=(grid=ultrafine)

title

0 1
s 0.000000000000000 0.000000000000000 0.497634328936265
o -1.248914034471201 0.000000000000000 -0.248817164468130
o 1.248914034471201 0.000000000000000 -0.248817164468130

56.wfx

