%nprocs=4
%mem=4GB
#p pbepbe aug-cc-pvtz output=wfx scf=(conver=6) int=(grid=ultrafine)

title

0 1
c 0.000000000000000 0.000000000000000 0.000000000000000
f 0.766563997910290 -0.766563997910290 0.766563997910290
f -0.766563997910290 0.766563997910290 0.766563997910290
f -0.766563997910290 -0.766563997910290 -0.766563997910290
f 0.766563997910290 0.766563997910290 -0.766563997910290

61.wfx

