%nprocs=4
%mem=4GB
#p pbepbe aug-cc-pvtz output=wfx scf=(conver=6) int=(grid=ultrafine)

title

0 1
o 0.000000000000000 0.000000000000000 0.578556368455779
f -1.109339192238101 0.000000000000000 -0.289278184227889
f 1.109339192238101 0.000000000000000 -0.289278184227889

73.wfx

