%nprocs=4
%mem=4GB
#p pbepbe aug-cc-pvtz output=wfx scf=(conver=6) int=(grid=ultrafine)

title

0 1
c -0.434516462441910 0.752604589674479 0.000000000000000
c -0.434516462441910 -0.752604589674479 0.000000000000000
c 0.869032924883814 0.000000000000000 0.000000000000000
h -0.727609910510814 1.260257333095371 0.908130698654497
h -0.727609910510814 1.260257333095371 -0.908130698654497
h -0.727609910510814 -1.260257333095371 0.908130698654497
h -0.727609910510814 -1.260257333095371 -0.908130698654497
h 1.455219821021623 0.000000000000000 -0.908130698654497
h 1.455219821021623 0.000000000000000 0.908130698654497

82.wfx

