%nprocs=4
%mem=4GB
#p pbepbe aug-cc-pvtz output=wfx scf=(conver=6) int=(grid=ultrafine)

title

0 1
si 0.000000000000000 0.000000000000000 0.710864041116212
h 1.093946423287025 0.000000000000000 -0.355432020558106
h -1.093946423287025 0.000000000000000 -0.355432020558106

EA_15n.wfx

