%nprocs=4
%mem=4GB
#p pbepbe aug-cc-pvtz output=wfx scf=(conver=6) int=(grid=ultrafine)

title

-1 3
si 0.000000000000000 0.000000000000000 0.782990343907542
h 0.000000000000000 0.000000000000000 -0.782990343907542

EA_14.wfx

