%nprocs=4
%mem=4GB
#p pbepbe aug-cc-pvtz output=wfx scf=(conver=6) int=(grid=ultrafine)

title

-1 2
si 0.000000000000000 0.000000000000000 0.721266529771133
h 1.119647823926145 0.000000000000000 -0.360633264885564
h -1.119647823926145 0.000000000000000 -0.360633264885564

EA_15.wfx

