%nprocs=4
%mem=4GB
#p pbepbe aug-cc-pvtz output=wfx scf=(conver=6) int=(grid=ultrafine)

title

0 2
si 0.000000000000000 0.000000000000000 0.767126812267059
h 0.000000000000000 0.000000000000000 -0.767126812267059

EA_14n.wfx

