%nprocs=4
%mem=4GB
#p pbepbe aug-cc-pvtz output=wfx scf=(conver=6) int=(grid=ultrafine)

title

0 2
n 0.000000000000000 0.000000000000000 0.426323957083448
h 0.804135798436915 0.000000000000000 -0.213161978541727
h -0.804135798436915 0.000000000000000 -0.213161978541727

EA_12n.wfx

