%nprocs=4
%mem=4GB
#p pbepbe aug-cc-pvtz output=wfx scf=(conver=6) int=(grid=ultrafine)

title

0 2
p 0.000000000000000 0.000000000000000 0.662316404490730
h 1.023649409789636 0.000000000000000 -0.331158202245367
h -1.023649409789636 0.000000000000000 -0.331158202245367

EA_18n.wfx

