%nprocs=4
%mem=4GB
#p pbepbe aug-cc-pvtz output=wfx scf=(conver=6) int=(grid=ultrafine)

title

-1 1
n 0.000000000000000 0.000000000000000 0.442068575362874
h 0.793953328527755 0.000000000000000 -0.221034287681440
h -0.793953328527755 0.000000000000000 -0.221034287681440

EA_12.wfx

