%nprocs=4
%mem=4GB
#p pbepbe aug-cc-pvtz output=wfx scf=(conver=6) int=(grid=ultrafine)

title

-1 3
n 0.000000000000000 0.000000000000000 0.634869910256388
o 0.000000000000000 0.000000000000000 -0.634869910256388

EA_21.wfx

