%nprocs=4
%mem=4GB
#p pbepbe aug-cc-pvtz output=wfx scf=(conver=6) int=(grid=ultrafine)

title

-1 2
o 0.677477141473994 0.000000000000000 0.000000000000000
o -0.677477141473994 0.000000000000000 0.000000000000000

EA_20.wfx

