%nprocs=4
%mem=4GB
#p pbepbe aug-cc-pvtz output=wfx scf=(conver=6) int=(grid=ultrafine)

title

0 3
o 0.000000000000000 0.000000000000000 0.604490134889508
o 0.000000000000000 0.000000000000000 -0.604490134889508

EA_20n.wfx

