%nprocs=4
%mem=4GB
#p pbepbe aug-cc-pvtz output=wfx scf=(conver=6) int=(grid=ultrafine)

title

0 2
p 0.000000000000000 0.000000000000000 0.745419339934833
o 0.000000000000000 0.000000000000000 -0.745419339934833

EA_23n.wfx

