%nprocs=4
%mem=4GB
#p pbepbe aug-cc-pvtz output=wfx scf=(conver=6) int=(grid=ultrafine)

title

-1 1
c 0.000000000000000 0.000000000000000 0.585200776950414
n 0.000000000000000 0.000000000000000 -0.585200776950414

EA_22.wfx

