&control
 title='crystal',
 prefix='crystal',
 pseudo_dir='.',
 calculation='vc-relax',
/
&system
 ibrav=0,
 celldm(1)=1.0,
 nat=   100,
 ntyp=  4,
 ecutwfc=60.0,
 ecutrho=600.0,
 xdm=.true.,
 xdm_a1=0.4073,
 xdm_a2=2.4150,
/
&electrons
 conv_thr = 1d-8,
/
&ions
/
&cell
/
ATOMIC_SPECIES
h      1.007940 h.UPF
c     12.010700 c.UPF
n     14.006700 n.UPF
o     15.999400 o.UPF

ATOMIC_POSITIONS crystal
o     0.07666765     0.28342215     0.18160051
o     0.92333236     0.71657782     0.81839955
o     0.07663877     0.21658687     0.68159250
o     0.92336124     0.78341310     0.31840756
o     0.69480111     0.40050265     0.20824489
o     0.30519890     0.59949732     0.79175517
o     0.69476906     0.09951718     0.70821221
o     0.30523096     0.90048280     0.29178785
n     0.18852335     0.42729239     0.12239290
n     0.81147666     0.57270758     0.87760716
n     0.18855076     0.07272311     0.62234614
n     0.81144925     0.92727686     0.37765392
n     0.93862978     0.35268238     0.42930662
n     0.06137023     0.64731759     0.57069344
n     0.93862460     0.14732244     0.92928190
n     0.06137541     0.85267753     0.07071816
h     0.98792123     0.30024375     0.51661006
h     0.01207879     0.69975623     0.48339000
h     0.98793089     0.19975195     0.01658563
h     0.01206912     0.80024802     0.98341443
c     0.11492890     0.36887720     0.21768945
c     0.88507111     0.63112277     0.78231060
c     0.11492965     0.13112461     0.71765729
c     0.88507036     0.86887537     0.28234277
c     0.08218892     0.40923291     0.37951800
c     0.91781109     0.59076706     0.62048206
c     0.08218019     0.09075672     0.87946233
c     0.91781983     0.90924325     0.12053773
h     0.02736175     0.48214488     0.35639881
h     0.97263826     0.51785509     0.64360125
h     0.02733170     0.01785568     0.85629590
h     0.97266831     0.98214430     0.14370416
c     0.75599262     0.34660982     0.32942930
c     0.24400739     0.65339015     0.67057076
c     0.75599345     0.15341190     0.82941913
c     0.24400656     0.84658807     0.17058093
c     0.25644263     0.52439142     0.16588584
c     0.74355739     0.47560855     0.83411422
c     0.25651253     0.97562471     0.66582735
c     0.74348748     0.02437527     0.33417271
h     0.21458756     0.56833393     0.05393941
h     0.78541245     0.43166604     0.94606065
h     0.21475322     0.93169421     0.55385540
h     0.78524679     0.06830577     0.44614466
h     0.41474878     0.52500074     0.21096965
h     0.58525123     0.47499923     0.78903041
h     0.41481264     0.97502459     0.71098353
h     0.58518737     0.02497539     0.28901653
h     0.19491835     0.55493005     0.26004562
h     0.80508166     0.44506993     0.73995444
h     0.19492527     0.94506804     0.75992417
h     0.80507474     0.05493194     0.24007589
c     0.23427520     0.38922399     0.97471223
c     0.76572481     0.61077598     0.02528783
c     0.23430006     0.11080573     0.47468433
c     0.76569995     0.88919424     0.52531573
h     0.22339328     0.44774880     0.88643103
h     0.77660673     0.55225117     0.11356903
h     0.22349670     0.05228272     0.38640118
h     0.77650331     0.94771725     0.61359888
h     0.13471944     0.33220497     0.91897430
h     0.86528057     0.66779500     0.08102576
h     0.13468516     0.16780810     0.41893512
h     0.86531485     0.83219188     0.58106494
h     0.38335274     0.36264232     0.00784421
h     0.61664727     0.63735765     0.99215585
h     0.38334777     0.13741814     0.50783911
h     0.61665224     0.86258183     0.49216095
c     0.27087611     0.40889213     0.51867077
c     0.72912390     0.59110785     0.48132929
c     0.27086052     0.09106256     0.01863087
c     0.72913950     0.90893741     0.98136918
h     0.25301965     0.44641793     0.62805146
h     0.74698036     0.55358204     0.37194860
h     0.25299569     0.05350175     0.12796570
h     0.74700433     0.94649822     0.87203436
h     0.38596740     0.44435920     0.47869901
h     0.61403262     0.55564078     0.52130105
h     0.38596245     0.05561149     0.97862654
h     0.61403756     0.94438849     0.02137352
h     0.31606419     0.33565895     0.55437087
h     0.68393582     0.66434103     0.44562919
h     0.31603660     0.16428766     0.05440774
h     0.68396341     0.83571231     0.94559232
c     0.63145313     0.26933361     0.37120001
c     0.36854689     0.73066636     0.62880005
c     0.63144625     0.23068378     0.87123901
c     0.36855376     0.76931619     0.12876105
h     0.69267022     0.23726530     0.49331560
h     0.30732979     0.76273467     0.50668445
h     0.69275150     0.26278509     0.99331780
h     0.30724851     0.73721488     0.00668226
h     0.61529703     0.21329065     0.27714649
h     0.38470298     0.78670933     0.72285357
h     0.61512767     0.28669997     0.77713428
h     0.38487234     0.71330001     0.22286578
h     0.48679482     0.29679081     0.36148067
h     0.51320519     0.70320917     0.63851939
h     0.48684550     0.20320374     0.86166016
h     0.51315451     0.79679623     0.13833990

K_POINTS automatic
2 2 2 1 1 1

CELL_PARAMETERS cubic
   13.604136000000     0.000591000000    -0.105186000000
    0.001146000000    26.556969000000    -0.000596000000
   -4.192801000000    -0.000508000000    15.263696000000
