## FHIaims input file generated by critic2.
lattice_vector 3.2879999934       0.0000000000       0.0000000000       
lattice_vector -1.6440000033      2.8474915257       0.0000000000       
lattice_vector 0.0000000000       0.0000000000       14.3000000000      
atom_frac  0.3333319800       0.6666659900       0.2500000000       Mo
atom_frac  0.6666674800       0.3333337400       0.7500000000       Mo
atom_frac  0.6666674800       0.3333337400       0.1372377600       Se
atom_frac  0.6666674800       0.3333337400       0.3627622400       Se
atom_frac  0.3333319800       0.6666659900       0.6372377600       Se
atom_frac  0.3333319800       0.6666659900       0.8627622400       Se
