&control
 title='crystal',
 prefix='crystal',
 pseudo_dir='.',
 calculation='vc-relax',
/
&system
 ibrav=0,
 celldm(1)=1.0,
 nat=   114,
 ntyp=  4,
 ecutwfc=60.0,
 ecutrho=600.0,
 xdm=.true.,
 xdm_a1=0.4073,
 xdm_a2=2.4150,
/
&electrons
 conv_thr = 1d-8,
/
&ions
/
&cell
/
ATOMIC_SPECIES
h      1.007940 h.UPF
c     12.010700 c.UPF
n     14.006700 n.UPF
o     15.999400 o.UPF

ATOMIC_POSITIONS crystal
c     0.66830953     0.01403849     0.11354118
c     0.33169038     0.98596151     0.88645882
n     0.87252192     0.22402088     0.19162295
n     0.12747800     0.77597911     0.80837704
n     0.14327116     0.32195093     0.34681984
n     0.85672876     0.67804906     0.65318015
c     0.02672698     0.32819506     0.18772193
c     0.97327294     0.67180493     0.81227807
h     0.18284559     0.30002258     0.16565103
h     0.81715432     0.69997741     0.83434896
c     0.70621502     0.89692421     0.08679293
c     0.29378490     0.10307579     0.91320706
h     0.85568949     0.87850893     0.05632473
h     0.14431043     0.12149107     0.94367527
c     0.47663157     0.03900420     0.15381329
c     0.52336835     0.96099580     0.84618671
o     0.43222499     0.15199470     0.18064183
o     0.56777492     0.84800529     0.81935816
h     0.58402958     0.20684833     0.18792338
h     0.41597033     0.79315166     0.81207661
c     0.09540780     0.40826856     0.29664238
c     0.90459211     0.59173144     0.70335761
h     0.94302153     0.44449437     0.31628039
h     0.05697838     0.55550562     0.68371960
c     0.83038125     0.11436724     0.10293885
c     0.16961867     0.88563275     0.89706114
h     0.99373395     0.08699376     0.09115460
h     0.00626597     0.91300623     0.90884539
h     0.75282944     0.13668633     0.03819222
h     0.24717047     0.86331367     0.96180777
c     0.97978756     0.20704855     0.28565586
c     0.02021235     0.79295144     0.71434413
h     0.84611074     0.18663140     0.32407020
h     0.15388918     0.81336859     0.67592979
h     0.07464723     0.13363204     0.27039953
h     0.92535268     0.86636795     0.72960046
c     0.37393456     0.83097164     0.14022425
c     0.62606536     0.16902835     0.85977574
h     0.26039128     0.76127240     0.15307881
h     0.73960863     0.23872759     0.84692118
c     0.33085097     0.94674327     0.16696488
c     0.66914895     0.05325672     0.83303512
h     0.18597372     0.96705626     0.19979378
h     0.81402620     0.03294373     0.80020622
c     0.56303612     0.80364576     0.09999147
c     0.43696380     0.19635423     0.90000853
c     0.93000036     0.39560754     0.12224526
c     0.06999956     0.60439246     0.87775474
h     0.77487689     0.42484330     0.14345904
h     0.22512302     0.57515669     0.85654095
h     0.87802198     0.33773987     0.04345323
h     0.12197794     0.66226012     0.95654677
c     0.29056680     0.51286965     0.31459768
c     0.70943312     0.48713034     0.68540232
h     0.44395676     0.47849328     0.29653600
h     0.55604315     0.52150671     0.70346400
h     0.33956976     0.57172217     0.39294845
h     0.66043015     0.42827782     0.60705154
c     0.61986276     0.68083546     0.07821772
c     0.38013715     0.31916453     0.92178228
h     0.76329438     0.67382874     0.04108016
h     0.23670554     0.32617125     0.95891983
h     0.47225443     0.60953000     0.03035290
h     0.52774548     0.39046999     0.96964709
h     0.67118234     0.66171234     0.14741584
h     0.32881758     0.33828765     0.85258416
c     0.11865796     0.50477412     0.13768542
c     0.88134196     0.49522587     0.86231457
h     0.26244680     0.47250009     0.10752449
h     0.73755311     0.52749991     0.89247551
h     0.05185596     0.55840085     0.09425455
h     0.94814395     0.44159915     0.90574544
c     0.21039564     0.58398992     0.24777107
c     0.78960427     0.41601007     0.75222892
h     0.07229267     0.62698640     0.27421870
h     0.92770725     0.37301359     0.72578129
h     0.35275658     0.65697317     0.25640189
h     0.64724333     0.34302683     0.74359810
o     0.53109431     0.26224506     0.42015750
o     0.46890560     0.73775493     0.57984249
h     0.41791921     0.29057682     0.37639816
h     0.58208071     0.70942317     0.62360183
c     0.13310356     0.36143311     0.45259836
c     0.86689636     0.63856688     0.54740163
h     0.95751057     0.37165878     0.46091183
h     0.04248935     0.62834121     0.53908817
h     0.24899820     0.45034949     0.48943127
h     0.75100172     0.54965050     0.51056872
c     0.21122879     0.27396947     0.50015081
c     0.78877113     0.72603052     0.49984918
c     0.40979728     0.22912503     0.48210240
c     0.59020263     0.77087497     0.51789759
c     0.08980375     0.23543510     0.56172595
c     0.91019616     0.76456489     0.43827404
h     0.93270624     0.26803799     0.57234274
h     0.06729368     0.73196201     0.42765725
c     0.16071331     0.15544249     0.60790971
c     0.83928661     0.84455750     0.39209029
c     0.36377288     0.11621590     0.59187436
c     0.63622704     0.88378409     0.40812564
h     0.42572541     0.05541826     0.62795963
h     0.57427450     0.94458174     0.37204036
c     0.48554465     0.15107232     0.52898759
c     0.51445526     0.84892767     0.47101240
h     0.63840903     0.11669252     0.51447940
h     0.36159089     0.88330747     0.48552059
c     0.01820829     0.10672274     0.66727008
c     0.98179163     0.89327725     0.33272991
h     0.89547034     0.02332314     0.61903966
h     0.10452957     0.97667686     0.38096033
h     0.91657263     0.17000699     0.70204265
h     0.08342729     0.82999300     0.29795734
h     0.12762353     0.08569161     0.72582074
h     0.87237638     0.91430839     0.27417925

K_POINTS automatic
2 2 2 1 1 1

CELL_PARAMETERS cubic
   11.376868000000     0.076291000000    -0.046465000000
   -3.233385000000    22.404443000000     0.020151000000
   -4.721008000000    -9.376024000000    25.368027000000
