&control
 title='crystal',
 prefix='crystal',
 pseudo_dir='.',
 calculation='vc-relax',
/
&system
 ibrav=0,
 celldm(1)=1.0,
 nat=    22,
 ntyp=  5,
 ecutwfc=60.0,
 ecutrho=600.0,
 xdm=.true.,
 xdm_a1=0.4073,
 xdm_a2=2.4150,
/
&electrons
 conv_thr = 1d-8,
/
&ions
/
&cell
/
ATOMIC_SPECIES
h      1.007940 h.UPF
c     12.010700 c.UPF
n     14.006700 n.UPF
o     15.999400 o.UPF
s     32.065000 s.UPF

ATOMIC_POSITIONS crystal
s     0.91067785     0.10504618     0.75656483
s     0.08932209     0.89495379     0.24343514
c     0.17826312     0.22708632     0.66748961
c     0.82173682     0.77291364     0.33251036
c     0.34027420     0.31268713     0.72418442
c     0.65972574     0.68731284     0.27581554
c     0.24538874     0.28498400     0.83933885
c     0.75461121     0.71501596     0.16066112
c     0.01440023     0.17775001     0.86916420
c     0.98559972     0.82224995     0.13083576
o     0.36619990     0.34877745     0.91586511
o     0.63380004     0.65122251     0.08413485
c     0.21675845     0.23284087     0.55297186
c     0.78324149     0.76715909     0.44702810
n     0.25134659     0.24650889     0.45790321
n     0.74865335     0.75349107     0.54209675
h     0.51782791     0.39369162     0.68253320
h     0.48217203     0.60630834     0.31746676
h     0.89945096     0.14153886     0.95095909
h     0.10054898     0.85846111     0.04904087
h     0.52109491     0.45649276     0.88057024
h     0.47890504     0.54350720     0.11942973

K_POINTS automatic
2 2 2 1 1 1

CELL_PARAMETERS cubic
   11.728484000000    -0.359896000000     0.257701000000
   -0.628088000000     6.190167000000    -0.105811000000
    6.681776000000    -2.685357000000    22.907134000000
