&control
 title='crystal',
 prefix='crystal',
 pseudo_dir='.',
 calculation='vc-relax',
/
&system
 ibrav=0,
 celldm(1)=1.0,
 nat=    44,
 ntyp=  5,
 ecutwfc=60.0,
 ecutrho=600.0,
 xdm=.true.,
 xdm_a1=0.4073,
 xdm_a2=2.4150,
/
&electrons
 conv_thr = 1d-8,
/
&ions
/
&cell
/
ATOMIC_SPECIES
h      1.007940 h.UPF
c     12.010700 c.UPF
n     14.006700 n.UPF
o     15.999400 o.UPF
s     32.065000 s.UPF

ATOMIC_POSITIONS crystal
s     0.73863975     0.96131873     0.69672001
s     0.26136024     0.03868130     0.30328000
s     0.73863975     0.53868132     0.19672001
s     0.26136024     0.46131871     0.80328000
c     0.83477514     0.85170235     0.83130081
c     0.16522486     0.14829768     0.16869919
c     0.83477514     0.64829770     0.33130081
c     0.16522485     0.35170234     0.66869920
c     0.78406771     0.86088582     0.91388487
c     0.21593229     0.13911421     0.08611514
c     0.78406771     0.63911423     0.41388486
c     0.21593228     0.36088580     0.58611515
c     0.66798240     0.95068142     0.86741097
c     0.33201759     0.04931862     0.13258904
c     0.66798241     0.54931863     0.36741096
c     0.33201759     0.45068140     0.63258905
c     0.63097546     0.00738782     0.75051660
c     0.36902453     0.99261221     0.24948341
c     0.63097546     0.49261222     0.25051659
c     0.36902453     0.50738781     0.74948342
o     0.59771312     0.98347131     0.93041685
o     0.40228688     0.01652873     0.06958316
o     0.59771312     0.51652874     0.43041684
o     0.40228687     0.48347129     0.56958317
c     0.94853925     0.76523502     0.85151354
c     0.05146074     0.23476501     0.14848647
c     0.94853925     0.73476503     0.35151353
c     0.05146074     0.26523500     0.64848648
n     0.04326253     0.68201462     0.87277022
n     0.95673746     0.31798541     0.12722979
n     0.04326253     0.81798542     0.37277022
n     0.95673746     0.18201461     0.62722979
h     0.83060517     0.80827400     0.00369326
h     0.16939483     0.19172604     0.99630675
h     0.83060517     0.69172605     0.50369326
h     0.16939482     0.30827398     0.49630675
h     0.54708564     0.07619461     0.69327581
h     0.45291436     0.92380542     0.30672420
h     0.54708564     0.42380544     0.19327581
h     0.45291435     0.57619459     0.80672420
h     0.63977765     0.91208717     0.00975342
h     0.36022234     0.08791286     0.99024659
h     0.63977766     0.58791288     0.50975341
h     0.36022234     0.41208715     0.49024660

K_POINTS automatic
2 2 2 1 1 1

CELL_PARAMETERS cubic
   23.878177000000     0.000000000000    -0.923176000000
    0.000000000000     6.239658000000     0.000000000000
   -7.064467000000     0.000000000000    22.390442000000
