&control
 title='crystal',
 prefix='crystal',
 pseudo_dir='.',
 calculation='vc-relax',
/
&system
 ibrav=0,
 celldm(1)=1.0,
 nat=    44,
 ntyp=  5,
 ecutwfc=60.0,
 ecutrho=600.0,
 xdm=.true.,
 xdm_a1=0.4073,
 xdm_a2=2.4150,
/
&electrons
 conv_thr = 1d-8,
/
&ions
/
&cell
/
ATOMIC_SPECIES
h      1.007940 h.UPF
c     12.010700 c.UPF
n     14.006700 n.UPF
o     15.999400 o.UPF
s     32.065000 s.UPF

ATOMIC_POSITIONS crystal
s     0.14766838     0.96921077     0.34942837
s     0.85233165     0.03078921     0.65057159
s     0.64766840     0.53078920     0.84942834
s     0.35233163     0.46921078     0.15057161
c     0.20522947     0.15608033     0.42217589
c     0.79477056     0.84391964     0.57782407
c     0.70522949     0.34391964     0.92217587
c     0.29477054     0.65608034     0.07782409
h     0.15668411     0.26202965     0.35729235
h     0.84331593     0.73797032     0.64270761
h     0.65668412     0.23797031     0.85729232
h     0.34331591     0.76202967     0.14270764
c     0.30911651     0.14815856     0.56514077
c     0.69088352     0.85184141     0.43485919
c     0.80911653     0.35184141     0.06514075
c     0.19088350     0.64815857     0.93485921
o     0.37498033     0.27475309     0.65234775
o     0.62501970     0.72524688     0.34765221
o     0.87498035     0.22524688     0.15234773
o     0.12501969     0.77475310     0.84765223
h     0.33313922     0.37844815     0.60152426
h     0.66686081     0.62155183     0.39847569
h     0.83313924     0.12155182     0.10152424
h     0.16686079     0.87844816     0.89847572
c     0.34225993     0.98777515     0.61640969
c     0.65774010     0.01222482     0.38359026
c     0.84225995     0.51222482     0.11640967
c     0.15774008     0.48777517     0.88359029
h     0.41920415     0.95586577     0.72576525
h     0.58079589     0.04413421     0.27423471
h     0.91920416     0.54413420     0.22576522
h     0.08079587     0.45586578     0.77423473
c     0.26266008     0.87664169     0.51068183
c     0.73733995     0.12335828     0.48931813
c     0.76266010     0.62335828     0.01068181
c     0.23733994     0.37664170     0.98931815
c     0.26501438     0.70855623     0.52346748
c     0.73498565     0.29144374     0.47653248
c     0.76501440     0.79144374     0.02346746
c     0.23498563     0.20855624     0.97653250
n     0.26558422     0.56800284     0.53244691
n     0.73441581     0.43199713     0.46755305
n     0.76558424     0.93199713     0.03244689
n     0.23441579     0.06800285     0.96755307

K_POINTS automatic
2 2 2 1 1 1

CELL_PARAMETERS cubic
   14.122678000000     0.000000000000     0.073804000000
    0.000000000000    15.674216000000     0.000000000000
   -2.921861000000     0.000000000000    16.721436000000
