&control
 title='crystal',
 prefix='crystal',
 pseudo_dir='.',
 calculation='vc-relax',
/
&system
 ibrav=0,
 celldm(1)=1.0,
 nat=    22,
 ntyp=  5,
 ecutwfc=60.0,
 ecutrho=600.0,
 xdm=.true.,
 xdm_a1=0.4073,
 xdm_a2=2.4150,
/
&electrons
 conv_thr = 1d-8,
/
&ions
/
&cell
/
ATOMIC_SPECIES
h      1.007940 h.UPF
c     12.010700 c.UPF
n     14.006700 n.UPF
o     15.999400 o.UPF
s     32.065000 s.UPF

ATOMIC_POSITIONS crystal
c     0.83990703     0.87242454     0.27260001
c     0.16009295     0.12757553     0.72740000
c     0.84096667     0.93717204     0.88582632
c     0.15903331     0.06282803     0.11417369
c     0.72288615     0.02931857     0.10234926
c     0.27711383     0.97068150     0.89765075
c     0.04607237     0.70852082     0.89636255
c     0.95392761     0.29147925     0.10363746
s     0.09264438     0.61192097     0.17161201
s     0.90735560     0.38807910     0.82838801
c     0.20406897     0.56191000     0.71417184
c     0.79593101     0.43809007     0.28582817
n     0.33309580     0.44138767     0.55898700
n     0.66690418     0.55861240     0.44101301
h     0.78735372     0.89838656     0.45231311
h     0.21264626     0.10161351     0.54768690
o     0.52111183     0.24282910     0.12794804
o     0.47888815     0.75717097     0.87205197
h     0.77614699     0.04096560     0.72962033
h     0.22385299     0.95903447     0.27037969
h     0.45840234     0.30163243     0.28645872
h     0.54159764     0.69836764     0.71354129

K_POINTS automatic
2 2 2 1 1 1

CELL_PARAMETERS cubic
   22.453240000000    -2.421505000000     0.573855000000
   12.502518000000     6.158974000000    -0.210408000000
    4.378716000000     1.707694000000    11.095876000000
