&control
 title='crystal',
 prefix='crystal',
 pseudo_dir='.',
 calculation='vc-relax',
/
&system
 ibrav=0,
 celldm(1)=1.0,
 nat=    22,
 ntyp=  5,
 ecutwfc=60.0,
 ecutrho=600.0,
 xdm=.true.,
 xdm_a1=0.4073,
 xdm_a2=2.4150,
/
&electrons
 conv_thr = 1d-8,
/
&ions
/
&cell
/
ATOMIC_SPECIES
h      1.007940 h.UPF
c     12.010700 c.UPF
n     14.006700 n.UPF
o     15.999400 o.UPF
s     32.065000 s.UPF

ATOMIC_POSITIONS crystal
c     0.88741951     0.97679539     0.24174302
c     0.11258049     0.02320464     0.75825692
c     0.13246637     0.84008412     0.11080333
c     0.86753363     0.15991591     0.88919661
c     0.12628214     0.99820421     0.28779558
c     0.87371786     0.00179581     0.71220436
c     0.89599566     0.70090444     0.93180290
c     0.10400434     0.29909559     0.06819704
s     0.66915871     0.76500237     0.98411845
s     0.33084129     0.23499765     0.01588149
c     0.82639675     0.52279853     0.73000176
c     0.17360325     0.47720150     0.26999818
n     0.75536653     0.36946687     0.55962125
n     0.24463347     0.63053316     0.44037869
h     0.83268960     0.07982871     0.34772453
h     0.16731040     0.92017132     0.65227541
o     0.32772022     0.15389399     0.48741814
o     0.67227979     0.84610604     0.51258180
h     0.30162401     0.82571853     0.11519450
h     0.69837599     0.17428150     0.88480544
h     0.46839481     0.18458167     0.47754229
h     0.53160519     0.81541835     0.52245764

K_POINTS automatic
2 2 2 1 1 1

CELL_PARAMETERS cubic
   12.151545000000    -1.039654000000     0.974188000000
    0.820661000000    13.539648000000     2.596966000000
   -9.230954000000    -8.084007000000     9.237192000000
