&control
 title='crystal',
 prefix='crystal',
 pseudo_dir='.',
 calculation='vc-relax',
/
&system
 ibrav=0,
 celldm(1)=1.0,
 nat=    44,
 ntyp=  5,
 ecutwfc=60.0,
 ecutrho=600.0,
 xdm=.true.,
 xdm_a1=0.4073,
 xdm_a2=2.4150,
/
&electrons
 conv_thr = 1d-8,
/
&ions
/
&cell
/
ATOMIC_SPECIES
h      1.007940 h.UPF
c     12.010700 c.UPF
n     14.006700 n.UPF
o     15.999400 o.UPF
s     32.065000 s.UPF

ATOMIC_POSITIONS crystal
c     0.83574596     0.37589358     0.06777729
c     0.16425408     0.62410644     0.93222272
c     0.83574598     0.12410642     0.56777729
c     0.16425407     0.87589358     0.43222272
c     0.01912614     0.16512484     0.14294533
c     0.98087391     0.83487518     0.85705467
c     0.01912616     0.33487516     0.64294533
c     0.98087389     0.66512484     0.35705467
c     0.03235451     0.23079934     0.08507726
c     0.96764553     0.76920067     0.91492275
c     0.03235453     0.26920066     0.58507726
c     0.96764552     0.73079934     0.41492275
c     0.81117244     0.26444774     0.16922563
c     0.18882760     0.73555227     0.83077438
c     0.81117246     0.23555226     0.66922563
c     0.18882759     0.76444774     0.33077438
s     0.63363306     0.44039301     0.12232829
s     0.36636698     0.55960700     0.87767171
s     0.63363308     0.05960699     0.62232829
s     0.36636696     0.94039301     0.37767171
c     0.74677994     0.22729457     0.22622413
c     0.25322010     0.77270544     0.77377587
c     0.74677996     0.27270543     0.72622414
c     0.25322009     0.72729457     0.27377587
n     0.69964033     0.18868052     0.27382806
n     0.30035972     0.81131950     0.72617194
n     0.69964035     0.31131948     0.77382806
n     0.30035970     0.68868052     0.22617194
h     0.80139181     0.45615240     0.02623500
h     0.19860823     0.54384761     0.97376500
h     0.80139183     0.04384760     0.52623500
h     0.19860822     0.95615240     0.47376500
o     0.21885936     0.15688674     0.04893486
o     0.78114068     0.84311327     0.95106515
o     0.21885938     0.34311326     0.54893486
o     0.78114066     0.65688674     0.45106515
h     0.15296269     0.04631147     0.16511310
h     0.84703735     0.95368854     0.83488690
h     0.15296271     0.45368853     0.66511310
h     0.84703734     0.54631147     0.33488690
h     0.34845177     0.11279496     0.07071845
h     0.65154828     0.88720505     0.92928155
h     0.34845178     0.38720504     0.57071845
h     0.65154826     0.61279496     0.42928155

K_POINTS automatic
2 2 2 1 1 1

CELL_PARAMETERS cubic
   11.121227000000     0.000000000000     0.491923000000
    0.000000000000     7.159241000000     0.000000000000
    1.932135000000     0.000000000000    45.605306000000
