&control
 title='crystal',
 prefix='crystal',
 pseudo_dir='.',
 calculation='vc-relax',
/
&system
 ibrav=0,
 celldm(1)=1.0,
 nat=    44,
 ntyp=  5,
 ecutwfc=60.0,
 ecutrho=600.0,
 xdm=.true.,
 xdm_a1=0.4073,
 xdm_a2=2.4150,
/
&electrons
 conv_thr = 1d-8,
/
&ions
/
&cell
/
ATOMIC_SPECIES
h      1.007940 h.UPF
c     12.010700 c.UPF
n     14.006700 n.UPF
o     15.999400 o.UPF
s     32.065000 s.UPF

ATOMIC_POSITIONS crystal
h     0.26627159     0.12849920     0.49455536
h     0.73372835     0.62849921     0.00544462
h     0.23374549     0.87147081     0.99457577
h     0.76625445     0.37147082     0.50542421
c     0.25482132     0.08699155     0.43028903
c     0.74517862     0.58699156     0.06971096
c     0.24521289     0.91300399     0.93031206
c     0.75478705     0.41300400     0.56968793
c     0.12725847     0.95177499     0.40341429
c     0.87274148     0.45177500     0.09658570
c     0.37276385     0.04822605     0.90342609
c     0.62723609     0.54822606     0.59657390
o     0.98436868     0.84567622     0.45076700
o     0.01563127     0.34567623     0.04923299
o     0.51575388     0.15432236     0.95077531
o     0.48424607     0.65432237     0.54922467
h     0.99180377     0.87128996     0.51213868
h     0.00819617     0.37128997     0.98786131
h     0.50821378     0.12866809     0.01213546
h     0.49178617     0.62866810     0.48786453
c     0.16011764     0.93354702     0.31453238
c     0.83988230     0.43354703     0.18546760
c     0.33988885     0.06647245     0.81452646
c     0.66011110     0.56647247     0.68547352
h     0.07592825     0.83601441     0.28068631
h     0.92407169     0.33601442     0.21931367
h     0.42409699     0.16399571     0.78070077
h     0.57590296     0.66399573     0.71929922
c     0.31191036     0.05398814     0.27578708
c     0.68808959     0.55398815     0.22421290
c     0.18818275     0.94601258     0.77577794
c     0.81181719     0.44601259     0.72422204
c     0.39918574     0.06773876     0.19005928
c     0.60081420     0.56773877     0.30994071
c     0.10106274     0.93227687     0.69001289
c     0.89893721     0.43227688     0.80998710
n     0.47693418     0.07582577     0.11873994
n     0.52306577     0.57582578     0.38126005
n     0.02297499     0.92418422     0.61872593
n     0.97702495     0.42418423     0.88127406
s     0.41211258     0.19082275     0.34831397
s     0.58788736     0.69082276     0.15168602
s     0.08782755     0.80919827     0.84831594
s     0.91217240     0.30919828     0.65168405

K_POINTS automatic
2 2 2 1 1 1

CELL_PARAMETERS cubic
    7.246294000000     0.000000000000    -0.000171000000
    0.000000000000    17.204352000000     0.000000000000
   -0.000489000000     0.000000000000    29.845129000000
