&control
 title='crystal',
 prefix='crystal',
 pseudo_dir='.',
 calculation='vc-relax',
/
&system
 ibrav=0,
 celldm(1)=1.0,
 nat=    44,
 ntyp=  5,
 ecutwfc=60.0,
 ecutrho=600.0,
 xdm=.true.,
 xdm_a1=0.4073,
 xdm_a2=2.4150,
/
&electrons
 conv_thr = 1d-8,
/
&ions
/
&cell
/
ATOMIC_SPECIES
h      1.007940 h.UPF
c     12.010700 c.UPF
n     14.006700 n.UPF
o     15.999400 o.UPF
s     32.065000 s.UPF

ATOMIC_POSITIONS crystal
h     0.03498245     0.99764032     0.12990552
h     0.96501764     0.00235969     0.87009453
h     0.53498246     0.50235969     0.62990551
h     0.46501763     0.49764031     0.37009453
c     0.10862673     0.06207546     0.16720983
c     0.89137336     0.93792454     0.83279022
c     0.60862674     0.43792455     0.66720982
c     0.39137335     0.56207546     0.33279022
c     0.31669813     0.08993499     0.29752280
c     0.68330196     0.91006502     0.70247725
c     0.81669815     0.41006502     0.79752280
c     0.18330194     0.58993498     0.20247725
o     0.45938320     0.04392772     0.40349888
o     0.54061689     0.95607229     0.59650117
o     0.95938321     0.45607229     0.90349887
o     0.04061688     0.54392771     0.09650117
h     0.39499755     0.98268647     0.37991230
h     0.60500254     0.01731354     0.62008774
h     0.89499757     0.51731354     0.87991230
h     0.10500252     0.48268646     0.12008775
c     0.36871399     0.17877296     0.31103967
c     0.63128610     0.82122704     0.68896038
c     0.86871400     0.32122705     0.81103967
c     0.13128609     0.67877296     0.18896038
h     0.52433122     0.21294377     0.40481254
h     0.47566887     0.78705623     0.59518750
h     0.02433123     0.28705624     0.90481254
h     0.97566886     0.71294377     0.09518751
c     0.19925900     0.21673131     0.19160190
c     0.80074109     0.78326869     0.80839814
c     0.69925901     0.28326870     0.69160190
c     0.30074108     0.71673131     0.30839815
c     0.21312457     0.30304647     0.17443750
c     0.78687552     0.69695353     0.82556254
c     0.71312458     0.19695354     0.67443750
c     0.28687550     0.80304647     0.32556255
n     0.23785700     0.37536721     0.16545587
n     0.76214309     0.62463280     0.83454417
n     0.73785701     0.12463280     0.66545587
n     0.26214308     0.87536721     0.33454418
s     0.97229097     0.14339869     0.06159952
s     0.02770912     0.85660131     0.93840052
s     0.47229098     0.35660132     0.56159952
s     0.52770911     0.64339869     0.43840053

K_POINTS automatic
2 2 2 1 1 1

CELL_PARAMETERS cubic
    7.248449000000     0.000000000000    -0.420452000000
    0.000000000000    30.031928000000     0.000000000000
  -18.629727000000     0.000000000000    18.443987000000
