&control
 title='crystal',
 prefix='crystal',
 pseudo_dir='.',
 calculation='vc-relax',
/
&system
 ibrav=0,
 celldm(1)=1.0,
 nat=    44,
 ntyp=  5,
 ecutwfc=60.0,
 ecutrho=600.0,
 xdm=.true.,
 xdm_a1=0.4073,
 xdm_a2=2.4150,
/
&electrons
 conv_thr = 1d-8,
/
&ions
/
&cell
/
ATOMIC_SPECIES
h      1.007940 h.UPF
c     12.010700 c.UPF
n     14.006700 n.UPF
o     15.999400 o.UPF
s     32.065000 s.UPF

ATOMIC_POSITIONS crystal
h     0.15519435     0.75009336     0.08716892
h     0.84480784     0.24989317     0.58717937
h     0.34482177     0.25008760     0.58717934
h     0.65517679     0.74991970     0.08716168
c     0.11747824     0.89959903     0.04353532
c     0.88251234     0.10041700     0.54354481
c     0.38249788     0.39960756     0.54355043
c     0.61748360     0.60040546     0.04354424
c     0.06261297     0.10633807     0.08399475
c     0.93738080     0.89364081     0.58402571
c     0.43744225     0.60635741     0.58402454
c     0.56258150     0.39366475     0.08399669
o     0.04526638     0.14317179     0.18693841
o     0.95471915     0.85683081     0.68694301
o     0.45473123     0.64316871     0.68694676
o     0.54526332     0.35684855     0.18693747
h     0.01822852     0.30524549     0.20037574
h     0.98177844     0.69476254     0.70038297
h     0.48176619     0.80524545     0.70037685
h     0.51822976     0.19477906     0.20036191
c     0.02868120     0.26818040     0.00534385
c     0.97131497     0.73179434     0.50536324
c     0.47136339     0.76816172     0.50535487
c     0.52864425     0.23178247     0.00535056
h     0.98277364     0.43995496     0.01976235
h     0.01722067     0.56004047     0.51978161
h     0.51725030     0.93997843     0.51978164
h     0.48273325     0.06004167     0.01976088
c     0.05630753     0.18071892     0.90674103
c     0.94370782     0.81925689     0.40675159
c     0.44363722     0.68077644     0.40675490
c     0.55633762     0.31925202     0.90673421
c     0.03575665     0.30236111     0.81434957
c     0.96423264     0.69759453     0.31436648
c     0.46429502     0.80236179     0.31436255
c     0.53572485     0.19763159     0.81433062
n     0.01645859     0.41511666     0.74081593
n     0.98354716     0.58490466     0.24082777
n     0.48349362     0.91515253     0.24082440
n     0.51651131     0.08489130     0.74080741
s     0.12446569     0.90003983     0.91091504
s     0.87554323     0.09993703     0.41092867
s     0.37557158     0.40005522     0.41093901
s     0.62445510     0.59993962     0.91092322

K_POINTS automatic
2 2 2 1 1 1

CELL_PARAMETERS cubic
   13.053911000000     0.000153000000     0.000622000000
    0.000164000000    11.231747000000    -0.000014000000
    0.001112000000    -0.000574000000    24.371699000000
