&control
 title='crystal',
 prefix='crystal',
 pseudo_dir='.',
 calculation='vc-relax',
/
&system
 ibrav=0,
 celldm(1)=1.0,
 nat=    88,
 ntyp=  5,
 ecutwfc=60.0,
 ecutrho=600.0,
 xdm=.true.,
 xdm_a1=0.4073,
 xdm_a2=2.4150,
/
&electrons
 conv_thr = 1d-8,
/
&ions
/
&cell
/
ATOMIC_SPECIES
h      1.007940 h.UPF
c     12.010700 c.UPF
n     14.006700 n.UPF
o     15.999400 o.UPF
s     32.065000 s.UPF

ATOMIC_POSITIONS crystal
h     0.14016868     0.47273016     0.24393179
h     0.64013426     0.97274577     0.24393538
h     0.85983133     0.52726981     0.75606821
h     0.35979690     0.02728542     0.75607180
h     0.85979360     0.47383798     0.25615383
h     0.35975917     0.97385358     0.25615742
h     0.14020641     0.52616199     0.74384617
h     0.64017198     0.02617759     0.74384976
c     0.13658726     0.36777250     0.30502883
c     0.63655283     0.86778810     0.30503242
c     0.86341275     0.63222747     0.69497117
c     0.36337832     0.13224308     0.69497476
c     0.86338682     0.36898917     0.19502481
c     0.36335239     0.86900478     0.19502840
c     0.13661319     0.63101079     0.80497519
c     0.63657876     0.13102640     0.80497878
c     0.12626631     0.36073766     0.43602169
c     0.62623188     0.86075326     0.43602528
c     0.87373370     0.63926231     0.56397832
c     0.37369928     0.13927792     0.56398191
c     0.87369302     0.36222606     0.06403142
c     0.37365859     0.86224167     0.06403501
c     0.12630699     0.63777390     0.93596858
c     0.62627256     0.13778951     0.93597217
o     0.12266221     0.48699035     0.51670299
o     0.62262779     0.98700596     0.51670658
o     0.87733780     0.51300962     0.48329701
o     0.37730337     0.01302522     0.48330060
o     0.87722622     0.48862485     0.98341000
o     0.37719179     0.98864046     0.98341359
o     0.12277379     0.51137511     0.01659000
o     0.62273936     0.01139072     0.01659359
c     0.12113126     0.20080878     0.48201605
c     0.62109683     0.70082438     0.48201964
c     0.87886875     0.79919119     0.51798396
c     0.37883433     0.29920680     0.51798755
c     0.87886260     0.20241785     0.01798763
c     0.37882818     0.70243345     0.01799122
c     0.12113741     0.79758212     0.98201237
c     0.62110298     0.29759773     0.98201596
h     0.11281816     0.17035247     0.58155598
h     0.61278373     0.67036808     0.58155957
h     0.88718186     0.82964750     0.41844402
h     0.38714743     0.32966310     0.41844761
h     0.88725001     0.17218537     0.91844952
h     0.38721559     0.67220098     0.91845311
h     0.11275000     0.82781460     0.08155048
h     0.61271557     0.32783020     0.08155407
c     0.12836568     0.08906815     0.38491011
c     0.62833125     0.58908376     0.38491370
c     0.87163433     0.91093182     0.61508989
c     0.37159990     0.41094742     0.61509348
c     0.87166275     0.09052013     0.11509117
c     0.37162833     0.59053573     0.11509476
c     0.12833726     0.90947985     0.88490883
c     0.62830283     0.40949545     0.88491242
c     0.12572841     0.92131289     0.39400044
c     0.62569398     0.42132849     0.39400403
c     0.87427160     0.07868708     0.60599956
c     0.37423717     0.57870269     0.60600315
c     0.87443413     0.92283149     0.10602759
c     0.37439970     0.42284709     0.10603118
c     0.12556588     0.07716848     0.89397241
c     0.62553145     0.57718408     0.89397600
n     0.12216686     0.78098984     0.39972911
n     0.62213243     0.28100544     0.39973270
n     0.87783315     0.21901013     0.60027089
n     0.37779873     0.71902574     0.60027448
n     0.87809428     0.78257423     0.10045415
n     0.37805986     0.28258984     0.10045774
n     0.12190572     0.21742574     0.89954585
n     0.62187130     0.71744134     0.89954944
s     0.14138503     0.18068120     0.23800585
s     0.64135060     0.68069680     0.23800944
s     0.85861498     0.81931877     0.76199415
s     0.35858055     0.31933437     0.76199774
s     0.85864685     0.18180201     0.26203519
s     0.35861243     0.68181762     0.26203878
s     0.14135316     0.81819796     0.73796481
s     0.64131873     0.31821356     0.73796840
h     0.12132719     0.59014609     0.46774496
h     0.62129276     0.09016169     0.46774855
h     0.87867283     0.40985388     0.53225504
h     0.37863840     0.90986948     0.53225863
h     0.87860040     0.59177258     0.03241949
h     0.37856597     0.09178819     0.03242308
h     0.12139961     0.40822738     0.96758050
h     0.62136518     0.90824299     0.96758409

K_POINTS automatic
2 2 2 1 1 1

CELL_PARAMETERS cubic
   24.219246000000    -0.079909000000     0.481521000000
   -0.051521000000    15.709230000000    -0.005764000000
   -2.164624000000     0.000106000000    19.629909000000
