&control
 title='crystal',
 prefix='crystal',
 pseudo_dir='.',
 calculation='vc-relax',
/
&system
 ibrav=0,
 celldm(1)=1.0,
 nat=    44,
 ntyp=  5,
 ecutwfc=60.0,
 ecutrho=600.0,
 xdm=.true.,
 xdm_a1=0.4073,
 xdm_a2=2.4150,
/
&electrons
 conv_thr = 1d-8,
/
&ions
/
&cell
/
ATOMIC_SPECIES
h      1.007940 h.UPF
c     12.010700 c.UPF
n     14.006700 n.UPF
o     15.999400 o.UPF
s     32.065000 s.UPF

ATOMIC_POSITIONS crystal
s     0.18238544     0.62506590     0.23518721
s     0.68238543     0.87493409     0.76481278
s     0.81761455     0.12506590     0.26481278
s     0.31761456     0.37493409     0.73518721
c     0.10848171     0.62013479     0.42159454
c     0.60848171     0.87986519     0.57840545
c     0.89151828     0.12013480     0.07840545
c     0.39151828     0.37986519     0.92159453
c     0.96635194     0.60756802     0.41423128
c     0.46635193     0.89243197     0.58576871
c     0.03364805     0.10756802     0.08576871
c     0.53364806     0.39243197     0.91423127
c     0.91638525     0.60330003     0.25412630
c     0.41638524     0.89669995     0.74587369
c     0.08361474     0.10330004     0.24587370
c     0.58361475     0.39669995     0.75412629
c     0.02235289     0.61019781     0.14321893
c     0.52235289     0.88980217     0.85678105
c     0.97764710     0.11019782     0.35678106
c     0.47764710     0.38980217     0.64321893
c     0.00987240     0.60507291     0.97571330
c     0.50987240     0.89492707     0.02428669
c     0.99012759     0.10507292     0.52428669
c     0.49012759     0.39492707     0.47571329
n     0.99963543     0.60023358     0.83583063
n     0.49963542     0.89976641     0.16416936
n     0.00036456     0.10023358     0.66416936
n     0.50036456     0.39976641     0.33583062
o     0.87858655     0.60020769     0.54020227
o     0.37858654     0.89979229     0.45979771
o     0.12141344     0.10020770     0.95979772
o     0.62141345     0.39979229     0.04020227
h     0.17246774     0.63256809     0.52765625
h     0.67246774     0.86743189     0.47234374
h     0.82753225     0.13256810     0.97234375
h     0.32753225     0.36743189     0.02765624
h     0.93035257     0.60078240     0.64406111
h     0.43035256     0.89921758     0.35593888
h     0.06964742     0.10078241     0.85593889
h     0.56964743     0.39921758     0.14406110
h     0.80856156     0.59371392     0.22126227
h     0.30856155     0.90628607     0.77873771
h     0.19143843     0.09371392     0.27873772
h     0.69143843     0.40628607     0.72126227

K_POINTS automatic
2 2 2 1 1 1

CELL_PARAMETERS cubic
   18.374818000000     0.000000000000     0.000000000000
    0.000000000000    12.830960000000     0.000000000000
    0.000000000000     0.000000000000    15.720427000000
