&control
 title='crystal',
 prefix='crystal',
 pseudo_dir='.',
 calculation='vc-relax',
/
&system
 ibrav=0,
 celldm(1)=1.0,
 nat=    44,
 ntyp=  5,
 ecutwfc=60.0,
 ecutrho=600.0,
 xdm=.true.,
 xdm_a1=0.4073,
 xdm_a2=2.4150,
/
&electrons
 conv_thr = 1d-8,
/
&ions
/
&cell
/
ATOMIC_SPECIES
h      1.007940 h.UPF
c     12.010700 c.UPF
n     14.006700 n.UPF
o     15.999400 o.UPF
s     32.065000 s.UPF

ATOMIC_POSITIONS crystal
s     0.21270327     0.95313513     0.99062482
s     0.71270326     0.54686490     0.99062482
s     0.28729672     0.45313517     0.49062483
s     0.78729671     0.04686493     0.49062483
c     0.17602895     0.02807457     0.17766384
c     0.67602894     0.47192546     0.17766384
c     0.32397105     0.52807461     0.67766384
c     0.82397104     0.97192548     0.67766384
c     0.09996837     0.17638469     0.17497625
c     0.59996836     0.32361534     0.17497625
c     0.40003163     0.67638473     0.67497626
c     0.90003162     0.82361537     0.67497626
c     0.07103333     0.22849286     0.01815060
c     0.57103332     0.27150717     0.01815060
c     0.42896667     0.72849290     0.51815061
c     0.92896666     0.77150720     0.51815061
c     0.12570507     0.11834573     0.90484940
c     0.62570506     0.38165430     0.90484940
c     0.37429493     0.61834577     0.40484940
c     0.87429492     0.88165432     0.40484940
c     0.11752427     0.12894129     0.73912282
c     0.61752426     0.37105874     0.73912282
c     0.38247572     0.62894133     0.23912283
c     0.88247572     0.87105877     0.23912283
n     0.11304537     0.13639881     0.60035501
n     0.61304536     0.36360122     0.60035501
n     0.38695462     0.63639885     0.10035501
n     0.88695462     0.86360125     0.10035501
o     0.05489455     0.26731814     0.30185201
o     0.55489454     0.23268189     0.30185201
o     0.44510545     0.76731818     0.80185201
o     0.94510544     0.73268191     0.80185201
h     0.21097459     0.95450244     0.28126659
h     0.71097458     0.54549758     0.28126659
h     0.28902540     0.45450249     0.78126660
h     0.78902540     0.04549761     0.78126660
h     0.08191959     0.20571822     0.40404875
h     0.58191958     0.29428181     0.40404875
h     0.41808040     0.70571826     0.90404876
h     0.91808040     0.79428184     0.90404876
h     0.01309344     0.34048208     0.98922180
h     0.51309343     0.15951795     0.98922180
h     0.48690655     0.84048212     0.48922180
h     0.98690654     0.65951798     0.48922180

K_POINTS automatic
2 2 2 1 1 1

CELL_PARAMETERS cubic
   31.516704000000     0.000000000000     0.000000000000
    0.000000000000     7.179757000000     0.000000000000
    0.000000000000     0.000000000000    15.875475000000
