&control
 title='crystal',
 prefix='crystal',
 pseudo_dir='.',
 calculation='vc-relax',
/
&system
 ibrav=0,
 celldm(1)=1.0,
 nat=    44,
 ntyp=  5,
 ecutwfc=60.0,
 ecutrho=600.0,
 xdm=.true.,
 xdm_a1=0.4073,
 xdm_a2=2.4150,
/
&electrons
 conv_thr = 1d-8,
/
&ions
/
&cell
/
ATOMIC_SPECIES
h      1.007940 h.UPF
c     12.010700 c.UPF
n     14.006700 n.UPF
o     15.999400 o.UPF
s     32.065000 s.UPF

ATOMIC_POSITIONS crystal
s     0.97091816     0.18894958     0.44020143
s     0.47091817     0.31105040     0.55979856
s     0.02908186     0.68894957     0.05979857
s     0.52908185     0.81105039     0.94020142
c     0.74494860     0.13529724     0.38928845
c     0.24494860     0.36470274     0.61071154
c     0.25505143     0.63529723     0.11071155
c     0.75505142     0.86470273     0.88928844
c     0.71056202     0.32195950     0.32878684
c     0.21056203     0.17804048     0.67121315
c     0.28943800     0.82195949     0.17121316
c     0.78943799     0.67804047     0.82878683
c     0.87012418     0.51051031     0.32271369
c     0.37012419     0.98948967     0.67728630
c     0.12987584     0.01051030     0.17728631
c     0.62987583     0.48948966     0.82271368
c     0.02385418     0.46375626     0.38056861
c     0.52385419     0.03624372     0.61943138
c     0.97614584     0.96375625     0.11943138
c     0.47614583     0.53624371     0.88056861
c     0.20304169     0.60982318     0.39605935
c     0.70304170     0.89017680     0.60394064
c     0.79695833     0.10982316     0.10394065
c     0.29695832     0.39017679     0.89605934
n     0.35263505     0.72841211     0.41122448
n     0.85263506     0.77158787     0.58877551
n     0.64736498     0.22841210     0.08877552
n     0.14736497     0.27158786     0.91122447
o     0.53785902     0.31505665     0.28027111
o     0.03785903     0.18494333     0.71972888
o     0.46214100     0.81505664     0.21972888
o     0.96214099     0.68494332     0.78027111
h     0.64355855     0.97414350     0.40613738
h     0.14355856     0.52585648     0.59386261
h     0.35644147     0.47414349     0.09386261
h     0.85644146     0.02585647     0.90613738
h     0.87352367     0.67180420     0.27880501
h     0.37352368     0.82819578     0.72119498
h     0.12647635     0.17180419     0.22119499
h     0.62647634     0.32819577     0.77880500
h     0.51509759     0.49089779     0.25534542
h     0.01509760     0.00910219     0.74465457
h     0.48490243     0.99089778     0.24465458
h     0.98490243     0.50910218     0.75534541

K_POINTS automatic
2 2 2 1 1 1

CELL_PARAMETERS cubic
   12.272866000000     0.000000000000     0.000000000000
    0.000000000000     9.622113000000     0.000000000000
    0.000000000000     0.000000000000    30.582490000000
