&control
 title='crystal',
 prefix='crystal',
 pseudo_dir='.',
 calculation='vc-relax',
/
&system
 ibrav=0,
 celldm(1)=1.0,
 nat=    44,
 ntyp=  5,
 ecutwfc=60.0,
 ecutrho=600.0,
 xdm=.true.,
 xdm_a1=0.4073,
 xdm_a2=2.4150,
/
&electrons
 conv_thr = 1d-8,
/
&ions
/
&cell
/
ATOMIC_SPECIES
h      1.007940 h.UPF
c     12.010700 c.UPF
n     14.006700 n.UPF
o     15.999400 o.UPF
s     32.065000 s.UPF

ATOMIC_POSITIONS crystal
s     0.24883820     0.16068221     0.10781874
s     0.75116180     0.83931781     0.89218123
s     0.24883821     0.33931780     0.60781872
s     0.75116180     0.66068222     0.39218125
c     0.36933505     0.17674368     0.97679759
c     0.63066495     0.82325634     0.02320238
c     0.36933505     0.32325633     0.47679757
c     0.63066495     0.67674369     0.52320240
c     0.35189863     0.98247632     0.88570180
c     0.64810137     0.01752370     0.11429817
c     0.35189864     0.51752369     0.38570178
c     0.64810137     0.48247634     0.61429818
c     0.24031097     0.81422254     0.92202196
c     0.75968903     0.18577749     0.07797801
c     0.24031098     0.68577748     0.42202195
c     0.75968903     0.31422255     0.57797802
c     0.17428807     0.88600292     0.04185269
c     0.82571193     0.11399711     0.95814728
c     0.17428808     0.61399710     0.54185267
c     0.82571193     0.38600293     0.45814729
c     0.05823809     0.76357449     0.10519471
c     0.94176191     0.23642553     0.89480526
c     0.05823810     0.73642552     0.60519469
c     0.94176191     0.26357450     0.39480528
n     0.96151200     0.65821139     0.15496948
n     0.03848800     0.34178863     0.84503049
n     0.96151201     0.84178862     0.65496947
n     0.03848800     0.15821141     0.34503050
o     0.43423041     0.94595106     0.77077655
o     0.56576959     0.05404896     0.22922342
o     0.43423042     0.55404895     0.27077653
o     0.56576959     0.44595107     0.72922344
h     0.44841939     0.32511036     0.97265100
h     0.55158062     0.67488966     0.02734897
h     0.44841939     0.17488965     0.47265098
h     0.55158062     0.82511037     0.52734899
h     0.20696887     0.65061944     0.86487911
h     0.79303114     0.34938058     0.13512086
h     0.20696887     0.84938057     0.36487909
h     0.79303114     0.15061945     0.63512088
h     0.49105952     0.11248669     0.75457905
h     0.50894048     0.88751333     0.24542092
h     0.49105953     0.38751332     0.25457903
h     0.50894048     0.61248670     0.74542094

K_POINTS automatic
2 2 2 1 1 1

CELL_PARAMETERS cubic
   19.382535000000     0.000000000000     1.855024000000
    0.000000000000     9.148355000000     0.000000000000
    1.311501000000     0.000000000000    19.988881000000
