&control
 title='crystal',
 prefix='crystal',
 pseudo_dir='.',
 calculation='vc-relax',
/
&system
 ibrav=0,
 celldm(1)=1.0,
 nat=    44,
 ntyp=  5,
 ecutwfc=60.0,
 ecutrho=600.0,
 xdm=.true.,
 xdm_a1=0.4073,
 xdm_a2=2.4150,
/
&electrons
 conv_thr = 1d-8,
/
&ions
/
&cell
/
ATOMIC_SPECIES
h      1.007940 h.UPF
c     12.010700 c.UPF
n     14.006700 n.UPF
o     15.999400 o.UPF
s     32.065000 s.UPF

ATOMIC_POSITIONS crystal
s     0.37325620     0.14887367     0.32087783
s     0.87325620     0.35112632     0.67912218
s     0.62674381     0.64887367     0.17912217
s     0.12674381     0.85112631     0.82087784
c     0.36352074     0.33642880     0.39697752
c     0.86352074     0.16357120     0.60302249
c     0.63647927     0.83642879     0.10302249
c     0.13647927     0.66357119     0.89697753
c     0.37169958     0.33156771     0.54898275
c     0.87169958     0.16843228     0.45101727
c     0.62830044     0.83156770     0.95101726
c     0.12830043     0.66843228     0.04898275
c     0.38452339     0.17282599     0.60427042
c     0.88452339     0.32717401     0.39572959
c     0.61547662     0.67282598     0.89572958
c     0.11547661     0.82717400     0.10427043
c     0.38693984     0.05960303     0.49263355
c     0.88693984     0.44039696     0.50736646
c     0.61306018     0.55960302     0.00736646
c     0.11306017     0.94039696     0.99263355
c     0.40285845     0.89255023     0.50566217
c     0.90285845     0.60744976     0.49433784
c     0.59714157     0.39255023     0.99433784
c     0.09714156     0.10744975     0.00566218
n     0.41576316     0.75265533     0.51410573
n     0.91576316     0.74734466     0.48589428
n     0.58423685     0.25265533     0.98589428
n     0.08423685     0.24734466     0.01410573
o     0.36720955     0.45985669     0.64047887
o     0.86720955     0.04014330     0.35952114
o     0.63279047     0.95985668     0.85952113
o     0.13279046     0.54014330     0.14047888
h     0.34531266     0.44103343     0.32714047
h     0.84531266     0.05896656     0.67285954
h     0.65468736     0.94103343     0.17285954
h     0.15468735     0.55896655     0.82714047
h     0.39486521     0.14285867     0.71974065
h     0.89486521     0.35714132     0.28025937
h     0.60513480     0.64285866     0.78025936
h     0.10513480     0.85714132     0.21974065
h     0.38086029     0.56228484     0.58394142
h     0.88086029     0.93771516     0.41605859
h     0.61913973     0.06228483     0.91605859
h     0.11913972     0.43771515     0.08394142

K_POINTS automatic
2 2 2 1 1 1

CELL_PARAMETERS cubic
   13.291021000000     0.000000000000     0.000000000000
    0.000000000000    15.706495000000     0.000000000000
    0.000000000000     0.000000000000    17.231078000000
