&control
 title='crystal',
 prefix='crystal',
 pseudo_dir='.',
 calculation='vc-relax',
/
&system
 ibrav=0,
 celldm(1)=1.0,
 nat=    44,
 ntyp=  5,
 ecutwfc=60.0,
 ecutrho=600.0,
 xdm=.true.,
 xdm_a1=0.4073,
 xdm_a2=2.4150,
/
&electrons
 conv_thr = 1d-8,
/
&ions
/
&cell
/
ATOMIC_SPECIES
h      1.007940 h.UPF
c     12.010700 c.UPF
n     14.006700 n.UPF
o     15.999400 o.UPF
s     32.065000 s.UPF

ATOMIC_POSITIONS crystal
c     0.14694876     0.92464573     0.36508007
c     0.64694876     0.57535426     0.63491990
c     0.85305124     0.42464573     0.13491992
c     0.35305124     0.07535427     0.86508005
c     0.24550980     0.64443033     0.34686467
c     0.74550980     0.85556965     0.65313530
c     0.75449020     0.14443034     0.15313531
c     0.25449020     0.35556966     0.84686466
c     0.35382333     0.08834304     0.38636301
c     0.85382333     0.41165695     0.61363696
c     0.64617667     0.58834305     0.11363697
c     0.14617667     0.91165695     0.88636300
s     0.42984672     0.90079088     0.37712143
s     0.92984672     0.59920911     0.62287854
s     0.57015328     0.40079089     0.12287855
s     0.07015328     0.09920911     0.87712142
h     0.42351342     0.19294425     0.40480258
h     0.92351342     0.30705574     0.59519739
h     0.57648658     0.69294425     0.09519740
h     0.07648658     0.80705575     0.90480257
c     0.25843904     0.81147096     0.36312638
c     0.75843904     0.68852903     0.63687359
c     0.74156096     0.31147097     0.13687360
c     0.24156096     0.18852903     0.86312637
h     0.03169850     0.89460186     0.35450322
h     0.53169850     0.60539813     0.64549675
h     0.96830150     0.39460186     0.14549677
h     0.46830150     0.10539814     0.85450320
o     0.11079040     0.21174883     0.38201284
o     0.61079040     0.28825115     0.61798713
o     0.88920960     0.71174884     0.11798715
o     0.38920960     0.78825116     0.88201282
c     0.20210776     0.08343000     0.37781928
c     0.70210776     0.41656998     0.62218069
c     0.79789224     0.58343001     0.12218071
c     0.29789224     0.91656999     0.87781926
h     0.16724660     0.31417686     0.36833157
h     0.66724660     0.18582313     0.63166840
h     0.83275340     0.81417686     0.13166842
h     0.33275340     0.68582314     0.86833155
n     0.23707625     0.50455342     0.33356245
n     0.73707625     0.99544657     0.66643752
n     0.76292375     0.00455343     0.16643753
n     0.26292375     0.49544657     0.83356244

K_POINTS automatic
2 2 2 1 1 1

CELL_PARAMETERS cubic
   17.262087000000     0.000000000000     0.000000000000
    0.000000000000    15.705441000000     0.000000000000
    0.000000000000     0.000000000000    13.280317000000
