&control
 title='crystal',
 prefix='crystal',
 pseudo_dir='.',
 calculation='vc-relax',
/
&system
 ibrav=0,
 celldm(1)=1.0,
 nat=    96,
 ntyp=  3,
 ecutwfc=60.0,
 ecutrho=600.0,
 xdm=.true.,
 xdm_a1=0.4073,
 xdm_a2=2.4150,
/
&electrons
 conv_thr = 1d-8,
/
&ions
/
&cell
/
ATOMIC_SPECIES
h      1.007940 h.UPF
c     12.010700 c.UPF
o     15.999400 o.UPF

ATOMIC_POSITIONS crystal
c     0.92144630     0.56505897     0.40923995
c     0.07855371     0.43494101     0.59076005
c     0.86198851     0.62409477     0.33812106
c     0.13801150     0.37590521     0.66187895
c     0.69035334     0.72822557     0.36082734
c     0.30964668     0.27177441     0.63917266
c     0.82576649     0.84788587     0.42432609
c     0.17423353     0.15211411     0.57567391
c     0.74970129     0.51025405     0.26664783
c     0.25029872     0.48974593     0.73335217
c     0.88948304     0.48818328     0.20168283
c     0.11051698     0.51181670     0.79831718
c     0.79426906     0.38305191     0.13585678
c     0.20573096     0.61694807     0.86414323
c     0.55792579     0.29841213     0.13437182
c     0.44207423     0.70158785     0.86562818
c     0.41732903     0.31974705     0.19890769
c     0.58267099     0.68025293     0.80109232
c     0.51183890     0.42511545     0.26464529
c     0.48816112     0.57488453     0.73535472
c     0.93996920     0.91860232     0.08574226
c     0.06003081     0.08139766     0.91425774
c     0.89356665     0.85671866     0.15693812
c     0.10643336     0.14328132     0.84306188
c     0.61788313     0.77963169     0.14837470
c     0.38211688     0.22036829     0.85162531
c     0.56461884     0.65683456     0.08087183
c     0.43538118     0.34316542     0.91912817
c     0.96296994     0.97058780     0.23088028
c     0.03703007     0.02941218     0.76911972
c     0.82258945     0.07526196     0.24617473
c     0.17741057     0.92473802     0.75382527
c     0.89416761     0.18124506     0.31287749
c     0.10583240     0.81875492     0.68712251
c     0.10712701     0.18440881     0.36478106
c     0.89287301     0.81559117     0.63521894
c     0.24694930     0.08027297     0.35024089
c     0.75305071     0.91972701     0.64975911
c     0.17469084     0.97408997     0.28364072
c     0.82530917     0.02591002     0.71635928
o     0.15643704     0.54292716     0.41774070
o     0.84356297     0.45707282     0.58225931
o     0.75719958     0.53892440     0.45390003
o     0.24280044     0.46107558     0.54609997
o     0.69795238     0.94729985     0.44098732
o     0.30204763     0.05270013     0.55901268
o     0.04064770     0.84887280     0.45708768
o     0.95935231     0.15112718     0.54291232
o     0.34084179     0.57740295     0.07847380
o     0.65915822     0.42259703     0.92152620
o     0.72222863     0.63561609     0.03267303
o     0.27777138     0.36438389     0.96732698
o     0.17694919     0.92997251     0.06786491
o     0.82305083     0.07002747     0.93213510
o     0.76756382     0.95865172     0.05074899
o     0.23243619     0.04134826     0.94925102
h     0.04499410     0.67708260     0.32467903
h     0.95500592     0.32291738     0.67532097
h     0.63241706     0.76847752     0.31017181
h     0.36758295     0.23152246     0.68982819
h     0.51454598     0.68167821     0.38194018
h     0.48545404     0.31832177     0.61805982
h     0.07570490     0.55248537     0.20244274
h     0.92429511     0.44751461     0.79755726
h     0.90577191     0.36718946     0.08593840
h     0.09422811     0.63281052     0.91406160
h     0.48385292     0.21629080     0.08310269
h     0.51614709     0.78370918     0.91689732
h     0.23277781     0.25432254     0.19847255
h     0.76722220     0.74567744     0.80152745
h     0.40019168     0.44009613     0.31456866
h     0.59980833     0.55990385     0.68543135
h     0.02407548     0.78507971     0.15792197
h     0.97592453     0.21492027     0.84207804
h     0.57340693     0.74376190     0.20184601
h     0.42659308     0.25623808     0.79815399
h     0.48350500     0.84581126     0.13794895
h     0.51649502     0.15418872     0.86205105
h     0.65846113     0.07535893     0.20559747
h     0.34153889     0.92464105     0.79440254
h     0.78252390     0.26146739     0.32371085
h     0.21747612     0.73853259     0.67628915
h     0.16395259     0.26733646     0.41663421
h     0.83604742     0.73266352     0.58336579
h     0.41239077     0.08048666     0.39020736
h     0.58760924     0.91951332     0.60979264
h     0.28578690     0.89349738     0.27231962
h     0.71421312     0.10650260     0.72768038
h     0.18860680     0.50964230     0.46892472
h     0.81139321     0.49035768     0.53107529
h     0.80497115     0.02819025     0.48289699
h     0.19502886     0.97180973     0.51710301
h     0.31807910     0.49217537     0.03255750
h     0.68192092     0.50782461     0.96744251
h     0.19787622     0.97497366     0.02007124
h     0.80212379     0.02502632     0.97992876

K_POINTS automatic
2 2 2 1 1 1

CELL_PARAMETERS cubic
   10.102047000000     0.038427000000     0.022407000000
   -3.443917000000    18.953714000000     0.163615000000
   -2.305253000000    -7.561352000000    31.970933000000
