&control
 title='crystal',
 prefix='crystal',
 pseudo_dir='.',
 calculation='vc-relax',
/
&system
 ibrav=0,
 celldm(1)=1.0,
 nat=   100,
 ntyp=  3,
 ecutwfc=60.0,
 ecutrho=600.0,
 xdm=.true.,
 xdm_a1=0.4073,
 xdm_a2=2.4150,
/
&electrons
 conv_thr = 1d-8,
/
&ions
/
&cell
/
ATOMIC_SPECIES
h      1.007940 h.UPF
c     12.010700 c.UPF
o     15.999400 o.UPF

ATOMIC_POSITIONS crystal
o     0.75574818     0.63217459     0.04772223
o     0.24425186     0.36782543     0.95227779
o     0.24423472     0.13147804     0.45227938
o     0.75576532     0.86852198     0.54772065
o     0.83912116     0.60577555     0.88869023
o     0.16087888     0.39422447     0.11130980
o     0.16072362     0.10492706     0.61126400
o     0.83927642     0.89507296     0.38873602
o     0.89850743     0.97033927     0.80683126
o     0.10149261     0.02966075     0.19316877
o     0.10148237     0.46940744     0.69317796
o     0.89851767     0.53059258     0.30682206
c     0.71489209     0.76219302     0.11596907
c     0.28510794     0.23780700     0.88403096
c     0.28511820     0.26156930     0.38405080
c     0.71488184     0.73843072     0.61594923
h     0.78494429     0.74913631     0.19526436
h     0.21505575     0.25086371     0.80473566
h     0.21507102     0.24854037     0.30474805
h     0.78492902     0.75145965     0.69525197
c     0.73918637     0.07176230     0.08867774
c     0.26081367     0.92823772     0.91132229
c     0.26092549     0.57110217     0.41138789
c     0.73907455     0.42889785     0.58861213
h     0.70052669     0.10366343     0.16306752
h     0.29947334     0.89633659     0.83693251
h     0.29961287     0.60308350     0.33701216
h     0.70038717     0.39691652     0.66298787
c     0.78128025     0.19123114     0.02262581
c     0.21871979     0.80876887     0.97737421
c     0.21884105     0.69051280     0.47745654
c     0.78115899     0.30948722     0.52254348
h     0.77450419     0.31671632     0.04421928
h     0.22549585     0.68328370     0.95578075
h     0.22564255     0.81601740     0.45586602
h     0.77435749     0.18398261     0.54413400
c     0.88577224     0.23599267     0.84276101
c     0.11422780     0.76400735     0.15723901
c     0.11429528     0.73508934     0.65730211
c     0.88570476     0.26491068     0.34269792
h     0.89516964     0.36441652     0.83729437
h     0.10483040     0.63558350     0.16270566
h     0.10488123     0.86350989     0.66279002
h     0.89511881     0.13649013     0.33721001
c     0.92336116     0.12499305     0.77357817
c     0.07663888     0.87500697     0.22642185
c     0.07665532     0.62402494     0.72645537
c     0.92334472     0.37597507     0.27354465
h     0.97219697     0.13228813     0.70121209
h     0.02780307     0.86771189     0.29878794
h     0.02779476     0.63126694     0.79880609
h     0.97220528     0.36873308     0.20119393
c     0.80378452     0.69258181     0.95841680
c     0.19621552     0.30741821     0.04158323
c     0.19615045     0.19179829     0.54156912
c     0.80384958     0.80820173     0.45843091
c     0.74996065     0.91159560     0.05924449
c     0.25003939     0.08840442     0.94075553
c     0.25008576     0.41092300     0.44079194
c     0.74991428     0.58907702     0.55920809
c     0.83280779     0.14901501     0.92728953
c     0.16719225     0.85098501     0.07271049
c     0.16727958     0.64821130     0.57276483
c     0.83272046     0.35178872     0.42723519
c     0.84312368     0.98666107     0.90022495
c     0.15687636     0.01333895     0.09977508
c     0.15690901     0.48582758     0.59979950
c     0.84309103     0.51417244     0.40020052
c     0.80173817     0.86676568     0.96539452
c     0.19826187     0.13323434     0.03460551
c     0.19826516     0.36598846     0.53462808
c     0.80173488     0.63401156     0.46537195
c     0.55503314     0.74290885     0.12547447
c     0.44496690     0.25709117     0.87452556
c     0.44498218     0.24242484     0.37455177
c     0.55501786     0.75757518     0.62544826
h     0.49063504     0.75134807     0.04382304
h     0.50936500     0.24865195     0.95617699
h     0.50936111     0.25077102     0.45621513
h     0.49063893     0.74922900     0.54378490
h     0.52400177     0.84621057     0.17068323
h     0.47599827     0.15378945     0.82931680
h     0.47601685     0.34583148     0.32940375
h     0.52398319     0.65416854     0.67059627
c     0.52148030     0.58745836     0.18014761
c     0.47851974     0.41254166     0.81985241
c     0.47857140     0.08710067     0.31980703
c     0.52142864     0.91289934     0.68019300
h     0.57366604     0.58525178     0.26555655
h     0.42633400     0.41474824     0.73444348
h     0.42636668     0.08499664     0.23440179
h     0.57363336     0.91500338     0.76559823
h     0.55999611     0.48339885     0.13984127
h     0.44000393     0.51660117     0.86015876
h     0.44010298     0.98292775     0.36006667
h     0.55989706     0.01707227     0.63993335
h     0.40378272     0.57347648     0.17623526
h     0.59621732     0.42652354     0.82376477
h     0.59627289     0.07325595     0.32369709
h     0.40372715     0.92674407     0.67630293

K_POINTS automatic
2 2 2 1 1 1

CELL_PARAMETERS cubic
   17.618692000000    -0.002272000000    -0.073921000000
   -0.001991000000    15.813227000000     0.001222000000
   -3.909464000000     0.002372000000    23.346389000000
