&control
 title='crystal',
 prefix='crystal',
 pseudo_dir='.',
 calculation='vc-relax',
/
&system
 ibrav=0,
 celldm(1)=1.0,
 nat=   100,
 ntyp=  4,
 ecutwfc=60.0,
 ecutrho=600.0,
 xdm=.true.,
 xdm_a1=0.4073,
 xdm_a2=2.4150,
/
&electrons
 conv_thr = 1d-8,
/
&ions
/
&cell
/
ATOMIC_SPECIES
h      1.007940 h.UPF
c     12.010700 c.UPF
n     14.006700 n.UPF
o     15.999400 o.UPF

ATOMIC_POSITIONS crystal
o     0.13097503     0.53121776     0.12039668
o     0.86902495     0.46878223     0.87960328
o     0.13097502     0.96878223     0.62039667
o     0.86902495     0.03121777     0.37960329
h     0.11250856     0.49591187     0.02294514
h     0.88749142     0.50408813     0.97705482
h     0.11250855     0.00408813     0.52294513
h     0.88749143     0.99591187     0.47705483
o     0.90377266     0.56152959     0.11662921
o     0.09622732     0.43847041     0.88337075
o     0.90377265     0.93847041     0.61662920
o     0.09622732     0.06152959     0.38337076
o     0.11570912     0.83666320     0.18779807
o     0.88429086     0.16333679     0.81220189
o     0.11570911     0.66333679     0.68779806
o     0.88429086     0.33666321     0.31220190
o     0.28707365     0.52225788     0.47039679
o     0.71292633     0.47774211     0.52960316
o     0.28707364     0.97774211     0.97039678
o     0.71292633     0.02225789     0.02960317
n     0.16526175     0.67474275     0.34273103
n     0.83473822     0.32525724     0.65726893
n     0.16526175     0.82525724     0.84273102
n     0.83473823     0.17474276     0.15726894
c     0.01780582     0.56549472     0.17538737
c     0.98219416     0.43450527     0.82461258
c     0.01780581     0.93450527     0.67538736
c     0.98219417     0.06549473     0.32461259
c     0.03792633     0.60593837     0.32296948
c     0.96207365     0.39406162     0.67703047
c     0.03792632     0.89406162     0.82296947
c     0.96207365     0.10593838     0.17703049
h     0.05261525     0.51599664     0.37963569
h     0.94738473     0.48400336     0.62036426
h     0.05261524     0.98400336     0.87963568
h     0.94738473     0.01599664     0.12036427
c     0.91749608     0.67872931     0.37485420
c     0.08250390     0.32127068     0.62514576
c     0.91749608     0.82127068     0.87485419
c     0.08250390     0.17872932     0.12514577
h     0.93905287     0.70464144     0.48108006
h     0.06094710     0.29535855     0.51891989
h     0.93905287     0.79535855     0.98108005
h     0.06094711     0.20464145     0.01891990
h     0.82790446     0.61745514     0.36902053
h     0.17209551     0.38254486     0.63097943
h     0.82790446     0.88254486     0.86902052
h     0.17209552     0.11745514     0.13097944
h     0.89671596     0.76504711     0.31491273
h     0.10328402     0.23495288     0.68508723
h     0.89671595     0.73495288     0.81491272
h     0.10328402     0.26504712     0.18508724
c     0.19447808     0.78685019     0.27198301
c     0.80552190     0.21314981     0.72801695
c     0.19447807     0.71314981     0.77198300
c     0.80552190     0.28685019     0.22801696
c     0.33514298     0.82254885     0.31738511
c     0.66485699     0.17745115     0.68261485
c     0.33514298     0.67745115     0.81738509
c     0.66485700     0.32254885     0.18261486
c     0.41292969     0.92778629     0.28604418
c     0.58707029     0.07221370     0.71395577
c     0.41292968     0.57221370     0.78604417
c     0.58707029     0.42778630     0.21395578
h     0.37298600     0.00163757     0.21774734
h     0.62701397     0.99836242     0.78225262
h     0.37298600     0.49836242     0.71774733
h     0.62701398     0.50163758     0.28225263
c     0.54480633     0.93412641     0.34514017
c     0.45519365     0.06587359     0.65485979
c     0.54480632     0.56587359     0.84514016
c     0.45519366     0.43412641     0.15485980
h     0.60900287     0.01550093     0.32456465
h     0.39099711     0.98449907     0.67543531
h     0.60900286     0.48449907     0.82456464
h     0.39099712     0.51550093     0.17543532
c     0.59618254     0.83764475     0.43120902
c     0.40381743     0.16235524     0.56879093
c     0.59618254     0.66235524     0.93120901
c     0.40381744     0.33764476     0.06879094
h     0.69859069     0.84565081     0.47624880
h     0.30140929     0.15434919     0.52375116
h     0.69859068     0.65434919     0.97624879
h     0.30140930     0.34565081     0.02375117
c     0.51767520     0.73087894     0.46145095
c     0.48232478     0.26912106     0.53854900
c     0.51767519     0.76912106     0.96145094
c     0.48232479     0.23087894     0.03854901
h     0.55830500     0.65446377     0.52616101
h     0.44169497     0.34553623     0.47383895
h     0.55830500     0.84553623     0.02616099
h     0.44169498     0.15446377     0.97383896
c     0.38677763     0.72597827     0.40374892
c     0.61322235     0.27402172     0.59625103
c     0.38677762     0.77402172     0.90374891
c     0.61322236     0.22597828     0.09625104
c     0.28056477     0.62680811     0.41535348
c     0.71943521     0.37319189     0.58464647
c     0.28056476     0.87319189     0.91535347
c     0.71943522     0.12680811     0.08464648

K_POINTS automatic
2 2 2 1 1 1

CELL_PARAMETERS cubic
   18.658338000000     0.000000000000     0.035674000000
    0.000000000000    19.784093000000     0.000000000000
   -0.993164000000     0.000000000000    18.649189000000
