&control
 title='crystal',
 prefix='crystal',
 pseudo_dir='.',
 calculation='vc-relax',
/
&system
 ibrav=0,
 celldm(1)=1.0,
 nat=   112,
 ntyp=  4,
 ecutwfc=60.0,
 ecutrho=600.0,
 xdm=.true.,
 xdm_a1=0.4073,
 xdm_a2=2.4150,
/
&electrons
 conv_thr = 1d-8,
/
&ions
/
&cell
/
ATOMIC_SPECIES
h      1.007940 h.UPF
c     12.010700 c.UPF
n     14.006700 n.UPF
o     15.999400 o.UPF

ATOMIC_POSITIONS crystal
c     0.64914723     0.17291747     0.98218677
c     0.35085278     0.82708253     0.01781320
c     0.64914723     0.32708253     0.48218679
c     0.35085278     0.67291746     0.51781319
o     0.65800129     0.12707947     0.16441473
o     0.34199872     0.87292052     0.83558524
o     0.65800129     0.37292052     0.66441475
o     0.34199872     0.62707947     0.33558523
c     0.66154370     0.04000099     0.15227684
c     0.33845631     0.95999901     0.84772314
c     0.66154370     0.45999901     0.65227685
c     0.33845631     0.54000098     0.34772312
o     0.65801179     0.99974446     0.00199316
o     0.34198822     0.00025554     0.99800682
o     0.65801178     0.50025554     0.50199317
o     0.34198823     0.49974445     0.49800680
c     0.66394074     0.99709866     0.34988756
c     0.33605927     0.00290133     0.65011242
c     0.66394074     0.50290134     0.84988757
c     0.33605927     0.49709866     0.15011241
c     0.71665109     0.05312645     0.52379346
c     0.28334892     0.94687354     0.47620652
c     0.71665108     0.44687355     0.02379347
c     0.28334892     0.55312645     0.97620650
n     0.73458045     0.91469274     0.34993704
n     0.26541956     0.08530725     0.65006294
n     0.73458044     0.58530726     0.84993705
n     0.26541956     0.41469274     0.15006292
c     0.86747592     0.90527344     0.31233600
c     0.13252409     0.09472655     0.68766398
c     0.86747592     0.59472655     0.81233601
c     0.13252409     0.40527344     0.18766396
o     0.93996489     0.96547432     0.27878589
o     0.06003512     0.03452568     0.72121408
o     0.93996489     0.53452568     0.77878591
o     0.06003512     0.46547431     0.22121407
c     0.89461003     0.81045081     0.31915381
c     0.10538998     0.18954919     0.68084617
c     0.89461002     0.68954919     0.81915383
c     0.10538998     0.31045080     0.18084615
c     0.00775017     0.76439954     0.28767128
c     0.99224983     0.23560046     0.71232870
c     0.00775017     0.73560046     0.78767129
c     0.99224984     0.26439953     0.21232869
c     0.00114728     0.67365005     0.29447022
c     0.99885273     0.32634994     0.70552976
c     0.00114728     0.82634995     0.79447023
c     0.99885273     0.17365005     0.20552975
c     0.88509773     0.63118771     0.33324584
c     0.11490227     0.36881228     0.66675414
c     0.88509773     0.86881229     0.83324586
c     0.11490228     0.13118771     0.16675412
c     0.77114769     0.67814980     0.36533118
c     0.22885232     0.32185019     0.63466879
c     0.77114768     0.82185020     0.86533120
c     0.22885233     0.17814980     0.13466878
c     0.77861322     0.76785435     0.35781721
c     0.22138679     0.23214564     0.64218276
c     0.77861322     0.73214564     0.85781723
c     0.22138679     0.26785435     0.14218275
c     0.67589776     0.83428819     0.38165276
c     0.32410225     0.16571180     0.61834721
c     0.67589775     0.66571180     0.88165278
c     0.32410226     0.33428819     0.11834720
o     0.56176244     0.82528484     0.42034874
o     0.43823756     0.17471515     0.57965123
o     0.56176244     0.67471516     0.92034876
o     0.43823757     0.32528484     0.07965122
h     0.74430311     0.16605992     0.92479375
h     0.25569690     0.83394007     0.07520623
h     0.74430310     0.33394008     0.42479377
h     0.25569691     0.66605991     0.57520621
h     0.62907210     0.24037605     0.01481026
h     0.37092791     0.75962395     0.98518972
h     0.62907209     0.25962395     0.51481027
h     0.37092791     0.74037604     0.48518970
h     0.56755130     0.14680896     0.87888034
h     0.43244870     0.85319103     0.12111964
h     0.56755130     0.35319104     0.37888036
h     0.43244871     0.64680896     0.62111962
h     0.55847281     0.97933585     0.35610799
h     0.44152720     0.02066414     0.64389199
h     0.55847281     0.52066415     0.85610801
h     0.44152720     0.47933585     0.14389197
h     0.70469828     0.01837217     0.65635133
h     0.29530173     0.98162783     0.34364865
h     0.70469828     0.48162783     0.15635134
h     0.29530173     0.51837216     0.84364863
h     0.65862277     0.11317185     0.52048221
h     0.34137724     0.88682815     0.47951777
h     0.65862276     0.38682815     0.02048222
h     0.34137725     0.61317184     0.97951775
h     0.82323424     0.06806084     0.52617906
h     0.17676577     0.93193915     0.47382092
h     0.82323424     0.43193915     0.02617907
h     0.17676577     0.56806084     0.97382090
h     0.09748598     0.79776472     0.25674320
h     0.90251402     0.20223527     0.74325678
h     0.09748598     0.70223527     0.75674322
h     0.90251403     0.29776472     0.24325676
h     0.08660246     0.63472706     0.26743000
h     0.91339754     0.36527293     0.73256998
h     0.08660246     0.86527294     0.76743002
h     0.91339755     0.13472706     0.23256996
h     0.88454388     0.56070406     0.33922804
h     0.11545613     0.43929593     0.66077194
h     0.88454387     0.93929593     0.83922805
h     0.11545614     0.06070406     0.16077193
h     0.68104937     0.64493557     0.39520279
h     0.31895064     0.35506442     0.60479718
h     0.68104936     0.85506442     0.89520281
h     0.31895065     0.14493557     0.10479717

K_POINTS automatic
2 2 2 1 1 1

CELL_PARAMETERS cubic
   19.011243000000     0.000000000000     0.050516000000
    0.000000000000    29.108389000000     0.000000000000
   -1.935355000000     0.000000000000    13.127287000000
