%nprocs=4
%mem=4GB
#p pbepbe aug-cc-pvtz output=wfx scf=(conver=6) int=(grid=ultrafine)

title

0 1
b 0.000000000000000 0.000000000000000 0.000000000000000
f 0.658367044128779 -1.140325170459985 0.000000000000000
f 0.658367044128779 1.140325170459985 0.000000000000000
f -1.316734088257559 0.000000000000000 0.000000000000000

BF3.wfx

