%nprocs=4
%mem=4GB
#p pbepbe aug-cc-pvtz output=wfx scf=(conver=6) int=(grid=ultrafine)

title

0 1
b 0.000000000000000 0.000000000000000 2.089753434308435
p 0.000000000000000 0.000000000000000 0.006736574565115
c 0.847764568995182 -1.468371306356384 -0.689514782155717
c 0.847764568995182 1.468371306356384 -0.689514782155717
c -1.695529137990365 0.000000000000000 -0.689514782155717
f -0.667795326539709 1.156655434623828 2.446985962938927
f 1.335590653079418 0.000000000000000 2.446985962938927
f -0.667795326539709 -1.156655434623828 2.446985962938927
h -2.221462139599436 -0.886786119236109 -0.335114371696532
h -2.221462139599436 0.886786119236109 -0.335114371696532
h -1.678872675782486 0.000000000000000 -1.786072440347995
h 0.342751762817833 2.367235706056497 -0.335114371696532
h 1.878710376781604 1.480449586820388 -0.335114371696532
h 0.839436337891246 1.453946386947187 -1.786072440347995
h 0.839436337891246 -1.453946386947187 -1.786072440347995
h 1.878710376781604 -1.480449586820388 -0.335114371696532
h 0.342751762817833 -2.367235706056497 -0.335114371696532

BF3PMe3.wfx

