%nprocs=4
%mem=4GB
#p pbepbe aug-cc-pvtz output=wfx scf=(conver=6) int=(grid=ultrafine)

title

0 1
h 0.000000000000000 0.000000000000000 0.372662809425897
h 0.000000000000000 0.000000000000000 -0.372662809425897

h2.wfx

