&control
 title='crystal',
 prefix='crystal',
 pseudo_dir='.',
 calculation='vc-relax',
/
&system
 ibrav=0,
 celldm(1)=1.0,
 nat=    62,
 ntyp=  3,
 ecutwfc=60.0,
 ecutrho=600.0,
 xdm=.true.,
 xdm_a1=0.4073,
 xdm_a2=2.4150,
/
&electrons
 conv_thr = 1d-8,
/
&ions
/
&cell
/
ATOMIC_SPECIES
h      1.007940 h.UPF
c     12.010700 c.UPF
o     15.999400 o.UPF

ATOMIC_POSITIONS crystal
o     0.92310299     0.05585071     0.50441254
o     0.07689701     0.55585071     0.49558746
o     0.98344716     0.82710020     0.06197447
o     0.01655284     0.32710020     0.93802553
o     0.28708016     0.78969853     0.83414231
o     0.71291985     0.28969854     0.16585769
o     0.64256920     0.89002266     0.84131059
o     0.35743081     0.39002266     0.15868941
o     0.03973209     0.80460110     0.44987038
o     0.96026792     0.30460111     0.55012962
o     0.85397810     0.07167465     0.10836672
o     0.14602190     0.57167466     0.89163328
c     0.73972044     0.99457969     0.76496352
c     0.26027957     0.49457969     0.23503648
c     0.81610608     0.95249963     0.57236597
c     0.18389393     0.45249964     0.42763403
c     0.96448969     0.84462078     0.62330534
c     0.03551031     0.34462079     0.37669466
c     0.91794210     0.03682772     0.92792081
c     0.08205791     0.53682772     0.07207919
c     0.14277393     0.88705211     0.78763477
c     0.85722607     0.38705212     0.21236523
c     0.07206231     0.93113474     0.97749549
c     0.92793770     0.43113475     0.02250451
c     0.57521257     0.08904887     0.68222196
c     0.42478744     0.58904887     0.31777804
c     0.61525564     0.93165567     0.42589021
c     0.38474437     0.43165567     0.57410979
c     0.48330419     0.04314277     0.46642483
c     0.51669582     0.54314277     0.53357517
h     0.99356177     0.11503339     0.87011222
h     0.00643824     0.61503340     0.12988778
h     0.88525343     0.76706228     0.67903092
h     0.11474658     0.26706229     0.32096908
h     0.20455314     0.96383601     0.08630542
h     0.79544687     0.46383602     0.91369458
h     0.21428845     0.96557238     0.72589169
h     0.78571156     0.46557239     0.27410831
h     0.99927581     0.83557568     0.21094767
h     0.00072420     0.33557569     0.78905233
h     0.42418467     0.82517070     0.83401246
h     0.57581534     0.32517070     0.16598754
h     0.79369383     0.15654960     0.09943295
h     0.20630617     0.65654960     0.90056705
h     0.90997087     0.04919350     0.35582440
h     0.09002913     0.54919351     0.64417560
h     0.54821371     0.84433986     0.46287307
h     0.45178630     0.34433987     0.53712693
h     0.46409701     0.09499830     0.78091581
h     0.53590299     0.59499831     0.21908419
h     0.06949746     0.71452937     0.46353615
h     0.93050255     0.21452937     0.53646385
h     0.64281858     0.18104819     0.67894540
h     0.35718143     0.68104819     0.32105460
h     0.32375413     0.01643840     0.45190390
h     0.67624588     0.51643841     0.54809610
h     0.63543474     0.92697110     0.26970937
h     0.36456526     0.42697111     0.73029063
h     0.48979614     0.11722929     0.35755814
h     0.51020387     0.61722929     0.64244186
h     0.75083045     0.84831226     0.94102531
h     0.24916956     0.34831227     0.05897469

K_POINTS automatic
2 2 2 1 1 1

CELL_PARAMETERS cubic
   12.686810000000     0.000000000000     0.289966000000
    0.000000000000    20.438163000000     0.000000000000
   -2.748871000000     0.000000000000    12.526551000000
