%nprocs=4
%mem=4GB
#p pbepbe aug-cc-pvtz output=wfx scf=(conver=6) int=(grid=ultrafine)

title

0 2
s 0.000000000000000 0.000000000000000 -0.674872333036195
h 0.000000000000000 0.000000000000000 0.674872333036195

137.wfx

