%nprocs=4
%mem=4GB
#p pbepbe aug-cc-pvtz output=wfx scf=(conver=6) int=(grid=ultrafine)

title

0 2
p 0.000000000000000 0.000000000000000 0.662398728843086
h -1.023712074653861 0.000000000000000 -0.331199364421540
h 1.023712074653861 0.000000000000000 -0.331199364421540

19.wfx

