%nprocs=4
%mem=4GB
#p pbepbe aug-cc-pvtz output=wfx scf=(conver=6) int=(grid=ultrafine)

title

0 1
p 0.000000000000000 0.000000000000000 0.949282546163348
p 0.000000000000000 0.000000000000000 -0.949282546163348

43.wfx

