%nprocs=4
%mem=4GB
#p pbepbe aug-cc-pvtz output=wfx scf=(conver=6) int=(grid=ultrafine)

title

1 1
b 0.000000000000000 0.000000000000000 0.000000000000000

b+.wfx

