%nprocs=4
%mem=4GB
#p pbepbe aug-cc-pvtz output=wfx scf=(conver=6) int=(grid=ultrafine)

title

1 2
f 0.051116162418968 0.000000000000000 0.000000000000000
h -0.963446630455831 0.000000000000000 0.000000000000000

IP_63.wfx

