%nprocs=4
%mem=4GB
#p pbepbe aug-cc-pvtz output=wfx scf=(conver=6) int=(grid=ultrafine)

title

1 2
p 0.045282277347862 0.000000000000000 0.000000000000000
h -1.391474153116881 0.000000000000000 0.000000000000000

IP_65.wfx

