%nprocs=4
%mem=4GB
#p pbepbe aug-cc-pvtz output=wfx scf=(conver=6) int=(grid=ultrafine)

title

1 1
p 0.000000000000000 0.000000000000000 0.663446348579331
h 1.028598091757684 0.000000000000000 -0.331723239230462
h -1.028598091757684 0.000000000000000 -0.331723239230462

IP_66.wfx

