%nprocs=4
%mem=4GB
#p pbepbe aug-cc-pvtz output=wfx scf=(conver=6) int=(grid=ultrafine)

title

1 2
cl 0.969384331961565 0.000000000000000 0.000000000000000
cl -0.969384331961565 0.000000000000000 0.000000000000000

IP_78.wfx

