%nprocs=4
%mem=4GB
#p pbepbe aug-cc-pvtz output=wfx scf=(conver=6) int=(grid=ultrafine)

title

1 2
c 0.633664136558027 0.000000000000000 0.000000000000000
o -0.475707526145912 0.000000000000000 0.000000000000000

IP_73.wfx

