&control
 title='crystal',
 prefix='crystal',
 pseudo_dir='..',
 calculation='vc-relax',
 etot_conv_thr=1.0D-5,
/
&system
 ibrav=0,
 celldm(1)=1.0,
 nat=    64,
 ntyp=  4,
 ecutwfc=80.0,
 ecutrho=800.0,
 xdm=.true.,
 xdm_a1=0.6512,
 xdm_a2=1.4633,
/
&electrons
 conv_thr = 1d-8,
/
&ions
/
&cell
/
ATOMIC_SPECIES
h      1.007940 h.UPF
c     12.010700 c.UPF
n     14.006700 n.UPF
o     15.999400 o.UPF

ATOMIC_POSITIONS crystal
n        0.954156789   0.645064543   0.483345808
n        0.645064920   0.954157154   0.016653852
n        0.045843211   0.354935457   0.516654192
n        0.354935080   0.045842846   0.983346148
c        0.022839635   0.714900735   0.636034585
c        0.714901349   0.022839980   0.863965160
c        0.977160365   0.285099265   0.363965415
c        0.285098651   0.977160020   0.136034840
c        0.132498613   0.642802667   0.798760376
c        0.642803799   0.132499346   0.701238150
c        0.867501387   0.357197333   0.201239624
c        0.357196201   0.867500654   0.298761850
o        0.130226017   0.522229258   0.786749363
o        0.522227726   0.130225807   0.713250689
o        0.869773983   0.477770742   0.213250637
o        0.477772274   0.869774193   0.286749311
o        0.221126521   0.711975401   0.931592975
o        0.711974324   0.221125078   0.568407914
o        0.778873479   0.288024599   0.068407025
o        0.288025676   0.778874922   0.431592086
c        0.850200899   0.652833287   0.671761118
c        0.652833793   0.850201010   0.828239009
c        0.149799101   0.347166713   0.328238882
c        0.347166207   0.149798990   0.171760991
c        0.756389556   0.742770349   0.519518294
c        0.742770192   0.756389416   0.980481586
c        0.243610444   0.257229651   0.480481706
c        0.257229808   0.243610584   0.019518414
o        0.811600495   0.847438146   0.380146662
o        0.847437682   0.811600443   0.119852589
o        0.188399505   0.152561854   0.619853338
o        0.152562318   0.188399557   0.880147411
o        0.613861515   0.700682960   0.550298135
o        0.700682184   0.613860819   0.949701771
o        0.386138485   0.299317040   0.449701865
o        0.299317816   0.386139181   0.050298229
h        0.077449231   0.697661169   0.456655967
h        0.697661312   0.077449194   0.043343788
h        0.922550769   0.302338831   0.543344033
h        0.302338688   0.922550806   0.956656212
h        0.850931040   0.487987673   0.506583990
h        0.487988002   0.850931130   0.993415571
h        0.149068960   0.512012327   0.493416010
h        0.512011998   0.149068870   0.006584429
h        0.890449406   0.702869286   0.370434433
h        0.702869893   0.890449865   0.129565208
h        0.109550594   0.297130714   0.629565567
h        0.297130107   0.109550135   0.870434792
h        0.134422228   0.879513214   0.601992749
h        0.879514094   0.134422414   0.898007195
h        0.865577772   0.120486786   0.398007251
h        0.120485906   0.865577586   0.101992805
h        0.733216272   0.488510957   0.706137845
h        0.488511374   0.733216689   0.793862338
h        0.266783728   0.511489043   0.293862155
h        0.511488626   0.266783311   0.206137662
h        0.906288257   0.702576968   0.786992767
h        0.702577319   0.906287970   0.713007436
h        0.093711743   0.297423032   0.213007233
h        0.297422681   0.093712030   0.286992564
h        0.556581664   0.769517955   0.441799518
h        0.769517724   0.556581476   0.058201111
h        0.443418336   0.230482045   0.558200482
h        0.230482276   0.443418524   0.941798889

K_POINTS automatic
4 4 4 1 1 1

CELL_PARAMETERS cubic
  19.230584270  -0.100085852   0.086680210
 -14.178463967  12.992185486  -0.086678308
  -9.024070564   3.536337916  14.364881412
