&control
 title='crystal',
 prefix='crystal',
 pseudo_dir='.',
 calculation='vc-relax',
/
&system
 ibrav=0,
 celldm(1)=1.0,
 nat=    64,
 ntyp=  4,
 ecutwfc=60.0,
 ecutrho=600.0,
 xdm=.true.,
 xdm_a1=0.4073,
 xdm_a2=2.4150,
/
&electrons
 conv_thr = 1d-8,
/
&ions
/
&cell
/
ATOMIC_SPECIES
h      1.007940 h.UPF
c     12.010700 c.UPF
n     14.006700 n.UPF
o     15.999400 o.UPF

ATOMIC_POSITIONS crystal
n     0.95415684     0.64506457     0.48334582
n     0.04584323     0.35493546     0.51665420
n     0.64506496     0.95415720     0.01665384
n     0.35493511     0.04584283     0.98334618
c     0.02283966     0.71490075     0.63603459
c     0.97716041     0.28509928     0.36396544
c     0.71490114     0.02284002     0.86396507
c     0.28509893     0.97716001     0.13603495
c     0.13249865     0.64280268     0.79876038
c     0.86750143     0.35719735     0.20123964
c     0.64280307     0.13249901     0.70123927
c     0.35719700     0.86750103     0.29876075
o     0.13022605     0.52222927     0.78674938
o     0.86977402     0.47777076     0.21325064
o     0.52222965     0.13022641     0.71325028
o     0.47777042     0.86977362     0.28674974
o     0.22112657     0.71197542     0.93159299
o     0.77887351     0.28802461     0.06840703
o     0.71197581     0.22112693     0.56840667
o     0.28802426     0.77887311     0.43159335
c     0.85020096     0.65283331     0.67176114
c     0.14979912     0.34716672     0.32823889
c     0.65283370     0.85020131     0.82823852
c     0.34716637     0.14979872     0.17176150
c     0.75638961     0.74277038     0.51951830
c     0.24361047     0.25722965     0.48048172
c     0.74277077     0.75638996     0.98048136
c     0.25722930     0.24361007     0.01951866
o     0.81160055     0.84743818     0.38014667
o     0.18839953     0.15256185     0.61985336
o     0.84743857     0.81160090     0.11985299
o     0.15256150     0.18839913     0.88014703
o     0.61386156     0.70068299     0.55029815
o     0.38613851     0.29931705     0.44970187
o     0.70068337     0.61386192     0.94970151
o     0.29931670     0.38613811     0.05029851
h     0.07744926     0.69766120     0.45665596
h     0.92255082     0.30233884     0.54334406
h     0.69766158     0.07744962     0.04334370
h     0.30233849     0.92255041     0.95665633
h     0.85093109     0.48798770     0.50658401
h     0.14906899     0.51201234     0.49341601
h     0.48798808     0.85093145     0.99341565
h     0.51201199     0.14906858     0.00658437
h     0.89044945     0.70286932     0.37043444
h     0.10955062     0.29713071     0.62956558
h     0.70286971     0.89044981     0.12956522
h     0.29713037     0.10955022     0.87043480
h     0.13442227     0.87951324     0.60199275
h     0.86557781     0.12048679     0.39800727
h     0.87951363     0.13442262     0.89800691
h     0.12048644     0.86557741     0.10199311
h     0.73321632     0.48851097     0.70613786
h     0.26678376     0.51148906     0.29386216
h     0.48851136     0.73321668     0.79386180
h     0.51148871     0.26678335     0.20613822
h     0.90628832     0.70257699     0.78699278
h     0.09371176     0.29742304     0.21300724
h     0.70257738     0.90628867     0.71300687
h     0.29742269     0.09371136     0.28699315
h     0.55658171     0.76951798     0.44179952
h     0.44341837     0.23048205     0.55820050
h     0.76951837     0.55658207     0.05820014
h     0.23048170     0.44341797     0.94179989

K_POINTS automatic
2 2 2 1 1 1

CELL_PARAMETERS cubic
   19.230584000000    -0.100086000000     0.086680000000
  -14.178464000000    12.992185000000    -0.086678000000
   -9.024071000000     3.536338000000    14.364881000000
