&control
 title='crystal',
 prefix='crystal',
 pseudo_dir='.',
 calculation='vc-relax',
/
&system
 ibrav=0,
 celldm(1)=1.0,
 nat=    66,
 ntyp=  5,
 ecutwfc=60.0,
 ecutrho=600.0,
 xdm=.true.,
 xdm_a1=0.4073,
 xdm_a2=2.4150,
/
&electrons
 conv_thr = 1d-8,
/
&ions
/
&cell
/
ATOMIC_SPECIES
h      1.007940 h.UPF
c     12.010700 c.UPF
n     14.006700 n.UPF
o     15.999400 o.UPF
s     32.065000 s.UPF

ATOMIC_POSITIONS crystal
s     0.03269784     0.37690697     0.61069449
o     0.68584046     0.24070607     0.21598851
o     0.50102545     0.36970100     0.07771166
o     0.58469279     0.66483431     0.65583810
o     0.34940384     0.75445072     0.51991573
o     0.12163976     0.24371219     0.66671656
o     0.81552648     0.35520582     0.56315557
n     0.12443553     0.40889079     0.49767704
c     0.55474154     0.23817656     0.11238449
h     0.74020437     0.36269024     0.25861634
h     0.63058695     0.79432143     0.69186831
h     0.04151177     0.47820566     0.44252740
h     0.43654375     0.95276766     0.58172065
h     0.58696059     0.54524202     0.14684197
h     0.83162538     0.05790301     0.24767317
c     0.48412519     0.06766612     0.04545027
h     0.54078581     0.96492920     0.08828890
c     0.35408668     0.03940872     0.93743060
h     0.30195518     0.14888234     0.90107970
c     0.27538749     0.87532043     0.86351033
c     0.33451895     0.72356438     0.89635073
h     0.44139347     0.72505028     0.98057628
c     0.25882451     0.57023186     0.82166530
h     0.30594146     0.45343653     0.84675259
c     0.12080302     0.56769995     0.71339642
c     0.05758568     0.71599304     0.67988358
h     0.95052127     0.71083368     0.59524377
c     0.13507970     0.86919830     0.75435461
h     0.08909685     0.98594978     0.72824750
c     0.42588362     0.63882265     0.56442572
c     0.34290540     0.45086529     0.51478583
h     0.41304501     0.37186895     0.57667001
c     0.39272397     0.41049953     0.39835269
h     0.34690855     0.27365554     0.36749863
h     0.55543194     0.44530624     0.41133544
h     0.31471683     0.48048907     0.33233709
s     0.10370984     0.98307597     0.19891031
o     0.48125412     0.07613927     0.62137071
o     0.70122159     0.96939888     0.75706843
o     0.64570512     0.67106174     0.18779217
o     0.83930628     0.54779001     0.32407002
o     0.07991214     0.12425631     0.13183215
o     0.29615562     0.97831687     0.28053716
n     0.93230757     0.97927210     0.27119529
c     0.62493567     0.09166371     0.72075656
c     0.68556331     0.26498290     0.78510086
h     0.60862083     0.35991258     0.74425906
c     0.82997258     0.30435395     0.88811888
h     0.90134662     0.20229338     0.92358068
c     0.90013473     0.47252974     0.95834362
c     0.82361612     0.61680364     0.92290400
h     0.71200004     0.60560935     0.83919371
c     0.88945731     0.77420731     0.99310368
h     0.82979594     0.88469541     0.96449854
c     0.03491955     0.78896483     0.10047687
c     0.11816219     0.64972687     0.13589984
h     0.23450572     0.66648360     0.21846888
c     0.05053513     0.49205343     0.06501143
h     0.11312400     0.38246722     0.09243816
c     0.79127789     0.67710577     0.28315505
c     0.89791076     0.85460188     0.34807074
h     0.04355673     0.83853620     0.40305902
c     0.77026245     0.91760601     0.42521786
h     0.85348437     0.03628079     0.48143474
h     0.73668213     0.82251345     0.48090556
h     0.62709808     0.93984986     0.37144101

K_POINTS automatic
2 2 2 1 1 1

CELL_PARAMETERS cubic
   13.205345000000     0.027742000000    -0.003664000000
   -2.452695000000    14.977789000000    -0.041382000000
   -5.615808000000    -3.130168000000    21.531912000000
