%nprocs=4
%mem=2GB
#p b3lyp aug-cc-pvtz output=wfx scf=(conver=6) int=(grid=ultrafine)

title

0 1
 geometry
 O       -0.084889000     0.056804000     0.055200000
 H        0.710375000     0.517729000     0.413970000
 H       -0.890958000     0.498588000     0.414270000
 O        4.422945000    -0.026001000    -0.007200000
 H        4.446575000    -0.955128000     0.320950000
 H        4.445532000    -0.084110000    -0.991960000

01a_water_di12.wfx

