%nprocs=4
%mem=2GB
#p b3lyp aug-cc-pvtz output=wfx scf=(conver=6) int=(grid=ultrafine)

title

0 1
 O        2.074088000     0.498855000    10.583520000
 C        2.169454000     0.154280000    11.741160000
 H        2.970226000    -0.523067000    12.072240000
 H        1.470340000     0.502963000    12.512300000

02a_formaldehyde_mon3.wfx

