%nprocs=4
%mem=2GB
#p b3lyp aug-cc-pvtz output=wfx scf=(conver=6) int=(grid=ultrafine)

title

0 1
aldehyde #1, B3LYP-D*/TZP geometry       
 O        2.074088000     0.498855000     1.635520000
 C        2.169454000     0.154280000     2.793160000
 H        2.970226000    -0.523067000     3.124240000
 H        1.470340000     0.502963000     3.564300000
 O        2.074088000     0.498855000     6.109520000
 C        2.169454000     0.154280000     7.267160000
 H        2.970226000    -0.523067000     7.598240000
 H        1.470340000     0.502963000     8.038300000

02a_formaldehyde_di12.wfx

