%nprocs=4
%mem=2GB
#p b3lyp aug-cc-pvtz output=wfx scf=(conver=6) int=(grid=ultrafine)

title

0 1
O   3.211523  12.095308   13.09220
H   4.065726  12.592587   13.07324
C   3.425896  10.840226   13.75150
H   4.053811  10.192498   13.13525
H   2.456381  10.363499   13.88341
H   3.894402  10.968294   14.72926
O   0.929023  13.503692   13.23780
H   1.783226  13.006413   13.25676
C   1.143396  14.758774   12.57850
H   1.771311  15.406502   13.19475
H   0.173881  15.235501   12.44659
H   1.611902  14.630706   11.60074
O   5.494023  13.503692   13.23780
H   6.348226  13.006413   13.25676
C   5.708396  14.758774   12.57850
H   6.336311  15.406502   13.19475
H   4.738881  15.235501   12.44659
H   6.176902  14.630706   11.60074

03a_methanol_ethyne.wfx

