%nprocs=4
%mem=2GB
#p b3lyp aug-cc-pvtz output=wfx scf=(conver=6) int=(grid=ultrafine)

title

0 1
 O        5.494023000    13.503692000    13.237800000
 H        6.348226000    13.006413000    13.256760000
 C        5.708396000    14.758774000    12.578500000
 H        6.336311000    15.406502000    13.194750000
 H        4.738881000    15.235501000    12.446590000
 H        6.176902000    14.630706000    11.600740000

03a_methanol_ethyne_mon3.wfx

