%nprocs=4
%mem=2GB
#p b3lyp aug-cc-pvtz output=wfx scf=(conver=6) int=(grid=ultrafine)

title

0 1
 C        0.779291000     3.917890000    17.349890000
 H        0.128231000     3.290130000    17.922700000
 C        1.513982000     4.636857000    16.730610000
 H        2.154680000     5.288095000    16.182020000

03c_methanol_ethyne_mon3.wfx

