%nprocs=4
%mem=2GB
#p b3lyp aug-cc-pvtz output=wfx scf=(conver=6) int=(grid=ultrafine)

title

0 1
 C        7.494334000     0.374714000     5.869170000
 C        8.224749000     1.234463000     6.783810000
 H        6.868330000     0.979664000     5.211750000
 H        8.190434000    -0.212622000     5.269750000
 H        6.864275000    -0.304501000     6.443320000
 N        8.798330000     1.912024000     7.518150000

04b_acetonitrile_mon3.wfx

