%nprocs=4
%mem=2GB
#p b3lyp aug-cc-pvtz output=wfx scf=(conver=6) int=(grid=ultrafine)

title

0 1
 C        6.774062000     3.760286000     9.793620000
 C        7.504477000     2.900537000    10.708250000
 H        6.148058000     3.155336000     9.136200000
 H        7.470162000     4.347622000     9.194200000
 H        6.144004000     4.439501000    10.367770000
 N        8.078059000     2.222976000    11.442600000

04b_acetonitrile_mon1.wfx

