%nprocs=4
%mem=2GB
#p b3lyp aug-cc-pvtz output=wfx scf=(conver=6) int=(grid=ultrafine)

title

0 1
 N        0.000000000     2.948624000     3.227910000
 C        0.000000000     3.814977000     3.987670000
 C        0.000000000     4.914003000     4.935920000
 H        0.000000000     5.861066000     4.396290000
 H       -0.889258000     4.858701000     5.563410000
 H        0.889258000     4.858701000     5.563410000

04c_acetonitrile_mon2.wfx

