%nprocs=4
%mem=2GB
#p b3lyp aug-cc-pvtz output=wfx scf=(conver=6) int=(grid=ultrafine)

title

0 1
N   0.000000   7.615376    7.17141
C   0.000000   5.649997    8.87942
C   0.000000   6.749023    7.93117
H   0.000000   4.702934    8.33979
H   0.889258   5.705299    9.50691
H  -0.889258   5.705299    9.50691
N   0.000000   2.948624    3.22791
C   0.000000   4.914003    4.93592
C   0.000000   3.814977    3.98767
H   0.000000   5.861066    4.39629
H  -0.889258   4.858701    5.56341
H   0.889258   4.858701    5.56341
N   0.000000   8.230624   11.11491
C   0.000000  10.196003   12.82292
C   0.000000   9.096977   11.87467
H   0.000000  11.143066   12.28329
H  -0.889258  10.140701   13.45041
H   0.889258  10.140701   13.45041

04c_acetonitrile.wfx

