%nprocs=4
%mem=2GB
#p b3lyp aug-cc-pvtz output=wfx scf=(conver=6) int=(grid=ultrafine)

title

0 1
12] of Acetonitrile #3, B3LYP-D*/TZP geometry       
 N        0.000000000     7.615376000     7.171410000
 C        0.000000000     6.749023000     7.931170000
 C        0.000000000     5.649997000     8.879420000
 H        0.000000000     4.702934000     8.339790000
 H        0.889258000     5.705299000     9.506910000
 H       -0.889258000     5.705299000     9.506910000
 N        0.000000000     2.948624000     3.227910000
 C        0.000000000     3.814977000     3.987670000
 C        0.000000000     4.914003000     4.935920000
 H        0.000000000     5.861066000     4.396290000
 H       -0.889258000     4.858701000     5.563410000
 H        0.889258000     4.858701000     5.563410000

04c_acetonitrile_di12.wfx

