%nprocs=4
%mem=2GB
#p b3lyp aug-cc-pvtz output=wfx scf=(conver=6) int=(grid=ultrafine)

title

0 1
 C        4.493684000     9.733150000     9.588495000
 N        3.316378000     8.817559000     9.581349000
 H        4.707773000     9.972526000    10.621925000
 H        5.321106000     9.177247000     9.151575000
 H        4.258129000    10.601341000     8.987731000
 O        2.524939000     8.890033000     8.646004000
 O        3.210604000     8.016853000    10.497383000

05a_nitromethane_mon3.wfx

