%nprocs=4
%mem=2GB
#p b3lyp aug-cc-pvtz output=wfx scf=(conver=6) int=(grid=ultrafine)

title

0 1
 C        5.876316000    12.851650000    11.679005000
 N        7.053622000    11.936059000    11.686151000
 H        5.662227000    13.091026000    10.645575000
 H        5.048894000    12.295747000    12.115925000
 H        6.111871000    13.719841000    12.279769000
 O        7.845061000    12.008533000    12.621496000
 O        7.159396000    11.135353000    10.770117000
 C        3.283816000     8.977850000    13.841995000
 N        4.461122000     9.893441000    13.834849000
 H        3.069727000     8.738474000    14.875425000
 H        2.456394000     9.533753000    13.405075000
 H        3.519371000     8.109659000    13.241231000
 O        5.252561000     9.820967000    12.899504000
 O        4.566896000    10.694147000    14.750883000

05a_nitromethane_di12.wfx

