%nprocs=4
%mem=2GB
#p b3lyp aug-cc-pvtz output=wfx scf=(conver=6) int=(grid=ultrafine)

title

0 1
O   4.919921   3.501003    0.03083
H   4.228836   3.730734   -0.66079
O   3.244878   2.374710    0.97372
C   4.411108   2.756810    0.99804
C   5.385992   2.434653    2.08607
H   4.892304   1.876253    2.87443
H   6.206877   1.846360    1.67565
H   5.815635   3.352282    2.48348
O   4.919921   3.501003    5.79283
H   4.228836   3.730734    5.10121
O   3.244878   2.374710    6.73572
C   4.411108   2.756810    6.76004
C   5.385992   2.434653    7.84807
H   4.892304   1.876253    8.63643
H   6.206877   1.846360    7.43765
H   5.815635   3.352282    8.24548
O   1.655579   1.539503    2.91183
H   2.346664   1.769234    2.22021
O   3.330622   0.413210    3.85472
C   2.164392   0.795310    3.87904
C   1.189508   0.473153    4.96707
H   1.683196  -0.085247    5.75543
H   0.368623  -0.115140    4.55665
H   0.759865   1.390782    5.36448

06a_acetic_acid.wfx

