%nprocs=4
%mem=2GB
#p b3lyp aug-cc-pvtz output=wfx scf=(conver=6) int=(grid=ultrafine)

title

0 1
 C       -1.953003000     3.017605000     2.441750000
 O       -2.584787000     3.637150000     3.277850000
 O       -2.454420000     2.333279000     1.451040000
 C       -0.415475000     2.997395000     2.451140000
 H       -3.453591000     2.371173000     1.488710000
 O        0.216308000     2.377850000     1.615050000
 O        0.085942000     3.681721000     3.441860000
 H        1.085112000     3.643827000     3.404180000
 C       -4.321482000     3.017605000     7.334640000
 O       -4.953265000     3.637150000     8.170740000
 O       -4.822899000     2.333279000     6.343930000
 C       -2.783954000     2.997395000     7.344040000
 H       -5.822069000     2.371173000     6.381610000
 O       -2.152170000     2.377850000     6.507940000
 O       -2.282537000     3.681721000     8.334750000
 H       -1.283366000     3.643827000     8.297070000

07a_oxalic_acid_di13.wfx

