%nprocs=4
%mem=2GB
#p b3lyp aug-cc-pvtz output=wfx scf=(conver=6) int=(grid=ultrafine)

title

0 1
 O       -1.061967000    -1.393698000     3.865970000
 C       -0.393630000    -0.508179000     4.356350000
 O       -0.219281000    -0.272646000     5.628600000
 C        0.393630000     0.508179000     3.496050000
 H       -0.688540000    -0.914709000     6.221060000
 O        1.061967000     1.393698000     3.986430000
 O        0.219281000     0.272646000     2.223800000
 H        0.688540000     0.914709000     1.631340000

07b_oxalic_acid_mon1.wfx

