%nprocs=4
%mem=2GB
#p b3lyp aug-cc-pvtz output=wfx scf=(conver=6) int=(grid=ultrafine)

title

0 1
 O       15.336533000    10.534698000    11.838830000
 C       16.004870000     9.649179000    11.348450000
 O       16.179219000     9.413646000    10.076200000
 C       16.792130000     8.632821000    12.208750000
 H       15.709960000    10.055709000     9.483740000
 O       17.460467000     7.747302000    11.718370000
 O       16.617781000     8.868354000    13.481000000
 H       17.087040000     8.226291000    14.073460000

07c_oxalic_acid_mon3.wfx

