%nprocs=4
%mem=2GB
#p b3lyp aug-cc-pvtz output=wfx scf=(conver=6) int=(grid=ultrafine)

title

0 1
 C       10.244426000    11.065790000     6.284242000
 C       10.863089000    11.661970000     7.289886000
 H        9.982757000    10.049297000     6.062101000
 O        9.908104000    12.034491000     5.337777000
 H       11.288627000    11.327218000     8.214970000
 O       10.943780000    13.026507000     7.006107000
 C       10.330630000    13.228856000     5.814889000
 O       10.181175000    14.292296000     5.282904000
 C        6.614426000    15.309211000     6.284242000
 C        7.233089000    14.713030000     7.289886000
 H        6.352757000    16.325703000     6.062101000
 O        6.278104000    14.340510000     5.337777000
 H        7.658627000    15.047782000     8.214970000
 O        7.313780000    13.348493000     7.006107000
 C        6.700630000    13.146144000     5.814889000
 O        6.551175000    12.082704000     5.282904000

08b_vinylene_carbonate_di23.wfx

