%nprocs=4
%mem=2GB
#p b3lyp aug-cc-pvtz output=wfx scf=(conver=6) int=(grid=ultrafine)

title

0 1
 C        7.061072000    10.034211000     7.907066000
 C        6.442408000     9.438030000     6.901422000
 H        7.322740000    11.050703000     8.129207000
 O        7.397394000     9.065510000     8.853531000
 H        6.016871000     9.772782000     5.976338000
 O        6.361718000     8.073493000     7.185201000
 C        6.974868000     7.871144000     8.376420000
 O        7.124323000     6.807704000     8.908405000

08b_vinylene_carbonate_mon2.wfx

