%nprocs=4
%mem=2GB
#p b3lyp aug-cc-pvtz output=wfx scf=(conver=6) int=(grid=ultrafine)

title

0 1
 C        1.292572000    10.034211000     3.176630000
 C        0.673909000     9.438030000     2.170986000
 H        1.554241000    11.050703000     3.398771000
 O        1.628895000     9.065510000     4.123095000
 H        0.248372000     9.772782000     1.245902000
 O        0.593219000     8.073493000     2.454765000
 C        1.206368000     7.871144000     3.645984000
 O        1.355824000     6.807704000     4.177968000
 C        2.984426000    11.065790000     6.284242000
 C        3.603089000    11.661970000     7.289886000
 H        2.722757000    10.049297000     6.062101000
 O        2.648104000    12.034491000     5.337777000
 H        4.028627000    11.327218000     8.214970000
 O        3.683780000    13.026507000     7.006107000
 C        3.070630000    13.228856000     5.814889000
 O        2.921175000    14.292296000     5.282904000

08c_vinylene_carbonate_di13.wfx

