%nprocs=4
%mem=2GB
#p b3lyp aug-cc-pvtz output=wfx scf=(conver=6) int=(grid=ultrafine)

title

0 1
ent[ 19 20 23 24 21 25 22 27 26] of Imidazole #1, B3LYP-D*/TZP geometry            
 N        1.588037000     3.575902000     7.757860000
 C        2.498625000     4.174319000     6.961200000
 C        1.190435000     2.422749000     7.128800000
 H        1.194042000     3.955654000     8.644730000
 N        2.714220000     3.473197000     5.858730000
 H        2.978655000     5.107788000     7.197730000
 C        1.894912000     2.370431000     5.958700000
 H        0.455412000     1.755916000     7.539280000
 H        1.845941000     1.621444000     5.190690000
 N       -1.152747000     0.892902000     5.069430000
 C       -2.063336000     1.491319000     5.866090000
 C       -0.755146000    -0.260251000     5.698480000
 H       -0.758752000     1.272654000     4.182550000
 N       -2.278930000     0.790197000     6.968550000
 H       -2.543365000     2.424788000     5.629550000
 C       -1.459623000    -0.312569000     6.868580000
 H       -0.020123000    -0.927084000     5.288010000
 H       -1.410652000    -1.061556000     7.636590000

10a_imidazole_di23.wfx

