%nprocs=4
%mem=2GB
#p b3lyp aug-cc-pvtz output=wfx scf=(conver=6) int=(grid=ultrafine)

title

0 1
 N        1.225156000     1.790098000     0.793670000
 C        0.314568000     1.191681000     1.590330000
 C        1.622758000     2.943251000     1.422720000
 H        1.619151000     1.410346000    -0.093210000
 N        0.098973000     1.892803000     2.692790000
 H       -0.165462000     0.258212000     1.353790000
 C        0.918281000     2.995570000     2.592820000
 H        2.357781000     3.610084000     1.012240000
 H        0.967252000     3.744556000     3.360830000
 N       -3.530651000     1.790098000     9.345190000
 C       -4.441239000     1.191681000    10.141850000
 C       -3.133049000     2.943251000     9.974240000
 H       -3.136656000     1.410346000     8.458310000
 N       -4.656834000     1.892803000    11.244310000
 H       -4.921269000     0.258212000     9.905310000
 C       -3.837526000     2.995570000    11.144340000
 H       -2.398026000     3.610084000     9.563770000
 H       -3.788555000     3.744556000    11.912350000

10c_imidazole_di12.wfx

