%nprocs=4
%mem=2GB
#p b3lyp aug-cc-pvtz output=wfx scf=(conver=6) int=(grid=ultrafine)

title

0 1
 O        0.492354000    17.073364000     2.537440000
 N        1.798473000    16.694123000     2.876900000
 C        0.452423000    18.416167000     2.466510000
 C        2.471400000    17.819028000     3.017690000
 C        1.656726000    18.954747000     2.752060000
 H       -0.503537000    18.832499000     2.208670000
 O        3.748782000    17.852113000     3.372030000
 H        1.933991000    19.992652000     2.790030000
 H        4.054562000    16.938298000     3.666930000
 O        0.447832000    18.976136000     6.080160000
 N        1.753952000    19.355377000     6.419620000
 C        0.407901000    17.633333000     6.009230000
 C        2.426879000    18.230472000     6.560410000
 C        1.612204000    17.094753000     6.294780000
 H       -0.548059000    17.217001000     5.751390000
 O        3.704261000    18.197387000     6.914750000
 H        1.889469000    16.056848000     6.332750000
 H        4.010041000    19.111202000     7.209650000

11a_isoxazole_di12.wfx

