%nprocs=4
%mem=2GB
#p b3lyp aug-cc-pvtz output=wfx scf=(conver=6) int=(grid=ultrafine)

title

0 1
 O        5.679703000    14.970636000     4.548000000
 N        4.373584000    15.349877000     4.208540000
 C        5.719634000    13.627833000     4.618930000
 C        3.700657000    14.224972000     4.067750000
 C        4.515331000    13.089253000     4.333380000
 H        6.675595000    13.211501000     4.876770000
 O        2.423275000    14.191887000     3.713410000
 H        4.238066000    12.051348000     4.295410000
 H        2.117495000    15.105702000     3.418510000
 O        0.492354000    17.073364000     2.537440000
 N        1.798473000    16.694123000     2.876900000
 C        0.452423000    18.416167000     2.466510000
 C        2.471400000    17.819028000     3.017690000
 C        1.656726000    18.954747000     2.752060000
 H       -0.503537000    18.832499000     2.208670000
 O        3.748782000    17.852113000     3.372030000
 H        1.933991000    19.992652000     2.790030000
 H        4.054562000    16.938298000     3.666930000

11a_isoxazole_di23.wfx

