%nprocs=4
%mem=2GB
#p b3lyp aug-cc-pvtz output=wfx scf=(conver=6) int=(grid=ultrafine)

title

0 1
 O        5.679703000     6.959636000     4.548000000
 N        4.373584000     7.338877000     4.208540000
 C        5.719634000     5.616833000     4.618930000
 C        3.700657000     6.213972000     4.067750000
 C        4.515331000     5.078253000     4.333380000
 H        6.675595000     5.200501000     4.876770000
 O        2.423275000     6.180887000     3.713410000
 H        4.238066000     4.040348000     4.295410000
 H        2.117495000     7.094702000     3.418510000
 O        0.492354000     9.062364000     2.537440000
 N        1.798473000     8.683123000     2.876900000
 C        0.452423000    10.405167000     2.466510000
 C        2.471400000     9.808028000     3.017690000
 C        1.656726000    10.943747000     2.752060000
 H       -0.503537000    10.821499000     2.208670000
 O        3.748782000     9.841113000     3.372030000
 H        1.933991000    11.981652000     2.790030000
 H        4.054562000     8.927298000     3.666930000

11c_isoxazole_di23.wfx

