%nprocs=4
%mem=2GB
#p b3lyp aug-cc-pvtz output=wfx scf=(conver=6) int=(grid=ultrafine)

title

0 1
 C        5.922353000     2.348921000     6.261980000
 C        5.048807000     1.377253000     6.773810000
 H        5.722353000     3.102313000     5.520470000
 N        7.127429000     2.256777000     6.826910000
 C        5.801878000     0.678241000     7.695750000
 H        4.020061000     1.210588000     6.514270000
 N        7.033572000     1.229218000     7.696360000
 H        5.554540000    -0.141615000     8.345620000
 H        7.837666000     1.037377000     8.313720000

12b_pyrazole_mon2.wfx

