%nprocs=4
%mem=2GB
#p b3lyp aug-cc-pvtz output=wfx scf=(conver=6) int=(grid=ultrafine)

title

0 1
 C       14.722016000     7.008998000    14.349950000
 C       15.571074000     7.744138000    13.507600000
 H       14.935612000     6.129349000    14.932570000
 N       13.499905000     7.544240000    14.382330000
 C       14.783278000     8.770815000    13.023940000
 H       16.605061000     7.553681000    13.287340000
 N       13.556334000     8.615227000    13.561580000
 H       15.012516000     9.576825000    12.351310000
 H       12.724312000     9.223983000    13.475420000
 C       14.722016000    11.873002000    10.963450000
 C       15.571074000    11.137862000    10.121100000
 H       14.935612000    12.752651000    11.546070000
 N       13.499905000    11.337760000    10.995830000
 C       14.783278000    10.111185000     9.637440000
 H       16.605061000    11.328319000     9.900840000
 N       13.556334000    10.266773000    10.175080000
 H       15.012516000     9.305175000     8.964810000
 H       12.724312000     9.658017000    10.088920000

12c_pyrazole_di12.wfx

