%nprocs=4
%mem=2GB
#p b3lyp aug-cc-pvtz output=wfx scf=(conver=6) int=(grid=ultrafine)

title

0 1
gment[ 1 2 3 5 7 4 8 9 6] of Triazine #2, B3LYP-D*/TZP geometry               
 C        0.650015000    10.013537000     7.887750000
 N        1.367752000    11.139396000     7.887750000
 H        1.191067000     9.076408000     7.887750000
 N       -0.683876000     9.954888000     7.887750000
 C        0.650015000    12.265255000     7.887750000
 C       -1.300030000    11.139396000     7.887750000
 N       -0.683876000    12.323904000     7.887750000
 H        1.191067000    13.202384000     7.887750000
 H       -2.382134000    11.139396000     7.887750000
 C       -3.523470000     8.354547000     9.101250000
 N       -4.139624000     7.170039000     9.101250000
 H       -2.441366000     8.354547000     9.101250000
 N       -4.139624000     9.539055000     9.101250000
 C       -5.473515000     7.228688000     9.101250000
 C       -5.473515000     9.480406000     9.101250000
 N       -6.191252000     8.354547000     9.101250000
 H       -6.014567000     6.291559000     9.101250000
 H       -6.014567000    10.417535000     9.101250000

13b_triazine_di13.wfx

