%nprocs=4
%mem=2GB
#p b3lyp aug-cc-pvtz output=wfx scf=(conver=6) int=(grid=ultrafine)

title

0 1
 C       -3.523470000     8.354547000     9.101250000
 N       -4.139624000     7.170039000     9.101250000
 H       -2.441366000     8.354547000     9.101250000
 N       -4.139624000     9.539055000     9.101250000
 C       -5.473515000     7.228688000     9.101250000
 C       -5.473515000     9.480406000     9.101250000
 N       -6.191252000     8.354547000     9.101250000
 H       -6.014567000     6.291559000     9.101250000
 H       -6.014567000    10.417535000     9.101250000

13b_triazine_mon1.wfx

