%nprocs=4
%mem=2GB
#p b3lyp aug-cc-pvtz output=wfx scf=(conver=6) int=(grid=ultrafine)

title

0 1
 C        0.650015000    10.013537000     7.887750000
 N        1.367752000    11.139396000     7.887750000
 H        1.191067000     9.076408000     7.887750000
 N       -0.683876000     9.954888000     7.887750000
 C        0.650015000    12.265255000     7.887750000
 C       -1.300030000    11.139396000     7.887750000
 N       -0.683876000    12.323904000     7.887750000
 H        1.191067000    13.202384000     7.887750000
 H       -2.382134000    11.139396000     7.887750000

13b_triazine_mon3.wfx

