%nprocs=4
%mem=2GB
#p b3lyp aug-cc-pvtz output=wfx scf=(conver=6) int=(grid=ultrafine)

title

0 1
 C       -3.523470000    13.924245000     6.674250000
 N       -4.139624000    12.739737000     6.674250000
 H       -2.441366000    13.924245000     6.674250000
 N       -4.139624000    15.108753000     6.674250000
 C       -5.473515000    12.798386000     6.674250000
 C       -5.473515000    15.050104000     6.674250000
 N       -6.191252000    13.924245000     6.674250000
 H       -6.014567000    11.861257000     6.674250000
 H       -6.014567000    15.987233000     6.674250000

13c_triazine_mon1.wfx

