%nprocs=4
%mem=2GB
#p b3lyp aug-cc-pvtz output=wfx scf=(conver=6) int=(grid=ultrafine)

title

0 1
 11 12 14 16 13 17 18 15] of Triazine #3, B3LYP-D*/TZP geometry               
 C       -3.523470000    13.924245000     6.674250000
 N       -4.139624000    12.739737000     6.674250000
 H       -2.441366000    13.924245000     6.674250000
 N       -4.139624000    15.108753000     6.674250000
 C       -5.473515000    12.798386000     6.674250000
 C       -5.473515000    15.050104000     6.674250000
 N       -6.191252000    13.924245000     6.674250000
 H       -6.014567000    11.861257000     6.674250000
 H       -6.014567000    15.987233000     6.674250000
 C       -4.173485000    12.798386000    10.314750000
 N       -3.455748000    13.924245000    10.314750000
 H       -3.632433000    11.861257000    10.314750000
 N       -5.507376000    12.739737000    10.314750000
 C       -4.173485000    15.050104000    10.314750000
 C       -6.123530000    13.924245000    10.314750000
 N       -5.507376000    15.108753000    10.314750000
 H       -3.632433000    15.987233000    10.314750000
 H       -7.205634000    13.924245000    10.314750000

13c_triazine_di12.wfx

