%nprocs=4
%mem=2GB
#p b3lyp aug-cc-pvtz output=wfx scf=(conver=6) int=(grid=ultrafine)

title

0 1
C  -3.523470  13.924245    6.67425
N  -4.139624  12.739737    6.67425
H  -2.441366  13.924245    6.67425
C  -5.473515  15.050104    6.67425
N  -4.139624  15.108753    6.67425
H  -6.014567  15.987233    6.67425
C  -5.473515  12.798386    6.67425
N  -6.191252  13.924245    6.67425
H  -6.014567  11.861257    6.67425
C  -4.173485  12.798386   10.31475
N  -3.455748  13.924245   10.31475
H  -3.632433  11.861257   10.31475
C  -6.123530  13.924245   10.31475
N  -5.507376  12.739737   10.31475
H  -7.205634  13.924245   10.31475
C  -4.173485  15.050104   10.31475
N  -5.507376  15.108753   10.31475
H  -3.632433  15.987233   10.31475
C   0.650015  10.013537    7.88775
N   1.367752  11.139396    7.88775
H   1.191067   9.076408    7.88775
C  -1.300030  11.139396    7.88775
N  -0.683876   9.954888    7.88775
H  -2.382134  11.139396    7.88775
C   0.650015  12.265255    7.88775
N  -0.683876  12.323904    7.88775
H   1.191067  13.202384    7.88775

13c_triazine.wfx

