%nprocs=4
%mem=2GB
#p b3lyp aug-cc-pvtz output=wfx scf=(conver=6) int=(grid=ultrafine)

title

0 1
 C       -4.173485000    12.798386000    10.314750000
 N       -3.455748000    13.924245000    10.314750000
 H       -3.632433000    11.861257000    10.314750000
 N       -5.507376000    12.739737000    10.314750000
 C       -4.173485000    15.050104000    10.314750000
 C       -6.123530000    13.924245000    10.314750000
 N       -5.507376000    15.108753000    10.314750000
 H       -3.632433000    15.987233000    10.314750000
 H       -7.205634000    13.924245000    10.314750000

13c_triazine_mon2.wfx

