%nprocs=4
%mem=2GB
#p b3lyp aug-cc-pvtz output=wfx scf=(conver=6) int=(grid=ultrafine)

title

0 1
 C        2.712508000    16.885489000     6.368138000
 C        2.199576000    15.555103000     5.799531000
 N        2.203727000    17.976476000     5.788601000
 O        3.504903000    16.911923000     7.313138000
 C        2.839569000    14.413417000     6.423138000
 H        2.351814000    15.490712000     4.721686000
 H        1.121642000    15.473767000     5.957336000
 H        2.523751000    18.891506000     6.112956000
 H        1.586888000    17.904765000     4.987234000
 N        3.344448000    13.505572000     6.915663000
 C        4.078580000    17.004511000     2.842545000
 C        3.565648000    18.334897000     2.273937000
 N        3.569799000    15.913524000     2.263008000
 O        4.870975000    16.978077000     3.787545000
 C        4.205641000    19.476583000     2.897544000
 H        3.717885000    18.399288000     1.196093000
 H        2.487714000    18.416233000     2.431743000
 H        3.889823000    14.998494000     2.587362000
 H        2.952960000    15.985235000     1.461640000
 N        4.710520000    20.384428000     3.390070000

14b_cyanoacetamide_di12.wfx

