%nprocs=4
%mem=2GB
#p b3lyp aug-cc-pvtz output=wfx scf=(conver=6) int=(grid=ultrafine)

title

0 1
N   3.187601   4.376465   -1.49664
C   2.374574   4.877151   -0.82232
N   1.447054   5.487370   -0.15837
C   1.185537   5.156956    1.11676
N   1.867065   4.229109    1.79793
N   0.206646   5.817607    1.73302
H   1.540497   3.957310    2.71772
H   2.611069   3.685335    1.37757
H  -0.007785   5.587082    2.69695
H  -0.346843   6.494360    1.20798
N   1.420831   6.588365    7.39729
C   2.233857   7.089051    6.72297
N   3.161378   7.699270    6.05903
C   3.422894   7.368856    4.78389
N   2.741366   6.441009    4.10272
N   4.401785   8.029507    4.16763
H   3.067935   6.169210    3.18293
H   1.997363   5.897235    4.52309
H   4.616216   7.798982    3.20370
H   4.955274   8.706260    4.69267
N   0.356682   4.471135    4.40401
C  -0.456344   3.970449    5.07834
N  -1.383864   3.360230    5.74228
C  -1.645381   3.690644    7.01741
N  -0.963853   4.618491    7.69858
N  -2.624272   3.029993    7.63367
H  -1.290422   4.890290    8.61837
H  -0.219850   5.162265    7.27822
H  -2.838703   3.260518    8.59760
H  -3.177761   2.353240    7.10863

15a_cyanoguanidine.wfx

