%nprocs=4
%mem=2GB
#p b3lyp aug-cc-pvtz output=wfx scf=(conver=6) int=(grid=ultrafine)

title

0 1
 N        1.420831000     2.164565000     7.397290000
 C        2.233857000     2.665251000     6.722970000
 N        3.161378000     3.275470000     6.059030000
 C        3.422894000     2.945056000     4.783890000
 N        2.741366000     2.017209000     4.102720000
 N        4.401785000     3.605707000     4.167630000
 H        3.067935000     1.745410000     3.182930000
 H        1.997363000     1.473435000     4.523090000
 H        4.616216000     3.375182000     3.203700000
 H        4.955274000     4.282460000     4.692670000

15c_cyanoguanidine_mon2.wfx

