%nprocs=4
%mem=2GB
#p b3lyp aug-cc-pvtz output=wfx scf=(conver=6) int=(grid=ultrafine)

title

0 1
 N        4.758199000    16.903650000     2.170500000
 N        5.216569000    15.900980000     1.297390000
 C        4.256265000    17.923919000     1.428930000
 H        5.310494000    17.110082000     3.012280000
 C        4.802650000    16.219380000     0.033730000
 H        5.163831000    14.936932000     1.625960000
 N        4.279392000    17.492314000     0.119490000
 O        3.856001000    19.016772000     1.835030000
 O        4.890880000    15.542910000    -0.986570000
 H        3.862617000    18.004684000    -0.673230000
 N        8.220199000    16.903650000     2.170500000
 N        8.678569000    15.900980000     1.297390000
 C        7.718265000    17.923919000     1.428930000
 H        8.772494000    17.110082000     3.012280000
 C        8.264650000    16.219380000     0.033730000
 H        8.625831000    14.936932000     1.625960000
 N        7.741392000    17.492314000     0.119490000
 O        7.318001000    19.016772000     1.835030000
 O        8.352880000    15.542910000    -0.986570000
 H        7.324617000    18.004684000    -0.673230000

16a_triazolidinedione_di23.wfx

