%nprocs=4
%mem=2GB
#p b3lyp aug-cc-pvtz output=wfx scf=(conver=6) int=(grid=ultrafine)

title

0 1
 N        1.296199000    16.903650000     2.170500000
 N        1.754569000    15.900980000     1.297390000
 C        0.794265000    17.923919000     1.428930000
 H        1.848494000    17.110082000     3.012280000
 C        1.340650000    16.219380000     0.033730000
 H        1.701831000    14.936932000     1.625960000
 N        0.817392000    17.492314000     0.119490000
 O        0.394001000    19.016772000     1.835030000
 O        1.428880000    15.542910000    -0.986570000
 H        0.400617000    18.004684000    -0.673230000
 N        4.758199000    16.903650000     2.170500000
 N        5.216569000    15.900980000     1.297390000
 C        4.256265000    17.923919000     1.428930000
 H        5.310494000    17.110082000     3.012280000
 C        4.802650000    16.219380000     0.033730000
 H        5.163831000    14.936932000     1.625960000
 N        4.279392000    17.492314000     0.119490000
 O        3.856001000    19.016772000     1.835030000
 O        4.890880000    15.542910000    -0.986570000
 H        3.862617000    18.004684000    -0.673230000

16a_triazolidinedione_di12.wfx

