%nprocs=4
%mem=2GB
#p b3lyp aug-cc-pvtz output=wfx scf=(conver=6) int=(grid=ultrafine)

title

0 1
 N        1.196054000     2.122350000     8.781650000
 N        0.737684000     3.125021000     9.654760000
 C        1.697988000     1.102081000     9.523220000
 H        0.643759000     1.915918000     7.939870000
 C        1.151603000     2.806620000    10.918420000
 H        0.790422000     4.089068000     9.326200000
 N        1.674861000     1.533686000    10.832660000
 O        2.098252000     0.009228000     9.117120000
 O        1.063373000     3.483090000    11.938720000
 H        2.091636000     1.021316000    11.625380000
 N        2.542325000     6.878850000     7.646570000
 N        3.000696000     7.881521000     6.773470000
 C        2.040392000     5.858581000     6.905000000
 H        3.094620000     6.672418000     8.488360000
 C        2.586777000     7.563120000     5.509810000
 H        2.947958000     8.845568000     7.102030000
 N        2.063518000     6.290186000     5.595560000
 O        1.640127000     4.765728000     7.311110000
 O        2.675006000     8.239590000     4.489510000
 H        1.646744000     5.777816000     4.802850000

16b_triazolidinedione_di13.wfx

