%nprocs=4
%mem=2GB
#p b3lyp aug-cc-pvtz output=wfx scf=(conver=6) int=(grid=ultrafine)

title

0 1
 N        1.196054000    11.635350000     8.781650000
 N        0.737684000    12.638020000     9.654760000
 C        1.697988000    10.615081000     9.523220000
 H        0.643759000    11.428918000     7.939870000
 C        1.151603000    12.319620000    10.918420000
 H        0.790422000    13.602068000     9.326200000
 N        1.674861000    11.046686000    10.832660000
 O        2.098252000     9.522228000     9.117120000
 O        1.063373000    12.996090000    11.938720000
 H        2.091636000    10.534316000    11.625380000
 N       -0.050072000    12.147150000     3.305580000
 N       -0.508443000    11.144479000     4.178680000
 C        0.451861000    13.167419000     4.047150000
 H       -0.602367000    12.353582000     2.463800000
 C       -0.094523000    11.462880000     5.442340000
 H       -0.455705000    10.180432000     3.850120000
 N        0.428735000    12.735814000     5.356590000
 O        0.852126000    14.260272000     3.641040000
 O       -0.182753000    10.786410000     6.462650000
 H        0.845509000    13.248184000     6.149300000

16c_triazolidinedione_di13.wfx

