%nprocs=4
%mem=2GB
#p b3lyp aug-cc-pvtz output=wfx scf=(conver=6) int=(grid=ultrafine)

title

0 1
12 15 18 13 19 14 17 16 20] of Triazolidinedone #3, B3LYP-D*/TZP geometry   
 N       -0.050072000    12.147150000     3.305580000
 N       -0.508443000    11.144479000     4.178680000
 C        0.451861000    13.167419000     4.047150000
 H       -0.602367000    12.353582000     2.463800000
 C       -0.094523000    11.462880000     5.442340000
 H       -0.455705000    10.180432000     3.850120000
 N        0.428735000    12.735814000     5.356590000
 O        0.852126000    14.260272000     3.641040000
 O       -0.182753000    10.786410000     6.462650000
 H        0.845509000    13.248184000     6.149300000
 N        3.411928000    12.147150000     3.305580000
 N        2.953557000    11.144479000     4.178680000
 C        3.913861000    13.167419000     4.047150000
 H        2.859633000    12.353582000     2.463800000
 C        3.367477000    11.462880000     5.442340000
 H        3.006295000    10.180432000     3.850120000
 N        3.890735000    12.735814000     5.356590000
 O        4.314126000    14.260272000     3.641040000
 O        3.279247000    10.786410000     6.462650000
 H        4.307509000    13.248184000     6.149300000

16c_triazolidinedione_di12.wfx

