%nprocs=4
%mem=2GB
#p b3lyp aug-cc-pvtz output=wfx scf=(conver=6) int=(grid=ultrafine)

title

0 1
 C        1.825983000     1.210221000     9.795900000
 C        1.852144000     3.273264000     8.717760000
 H        1.029707000     1.621230000     7.777830000
 C        2.266349000     2.322413000    10.763010000
 H        2.630180000     0.519250000     9.547780000
 H        0.986979000     0.640085000    10.190830000
 O        2.441991000     3.496894000     9.920670000
 O        1.766543000     4.165741000     7.882150000
 H        1.504131000     2.561870000    11.502910000
 H        3.209898000     2.121702000    11.257110000

17a_oxazolidinone_mon2.wfx

