%nprocs=4
%mem=2GB
#p b3lyp aug-cc-pvtz output=wfx scf=(conver=6) int=(grid=ultrafine)

title

0 1
 N        8.750652000     7.674945000     8.637450000
 C        9.143983000     6.883221000     9.795900000
 C        9.170144000     8.946264000     8.717760000
 H        8.347707000     7.294230000     7.777830000
 C        9.584349000     7.995413000    10.763010000
 H        9.948180000     6.192250000     9.547780000
 H        8.304979000     6.313085000    10.190830000
 O        9.759991000     9.169894000     9.920670000
 O        9.084543000     9.838741000     7.882150000
 H        8.822131000     8.234870000    11.502910000
 H       10.527898000     7.794702000    11.257110000

17b_oxazolidinone_mon2.wfx

