%nprocs=4
%mem=2GB
#p b3lyp aug-cc-pvtz output=wfx scf=(conver=6) int=(grid=ultrafine)

title

0 1
N   7.885048   4.838445    5.37044
O   6.875708   6.333394    4.08722
O   7.551157   7.002241    6.12574
C   7.491717   4.046721    4.21199
C   7.051351   5.158913    3.24488
C   7.465555   6.109764    5.29013
H   8.287993   4.457730    6.23006
H   6.687519   3.355750    4.46011
H   8.330720   3.476585    3.81706
H   7.813568   5.398370    2.50498
H   6.107802   4.958202    2.75078
N   4.978186   2.001945   -0.70114
O   5.987525   3.496894    0.58207
O   5.312076   4.165741   -1.45645
C   5.371517   1.210221    0.45731
C   5.811882   2.322413    1.42442
C   5.397678   3.273264   -0.62083
H   4.575240   1.621230   -1.56076
H   6.175714   0.519250    0.20918
H   4.532513   0.640085    0.85224
H   5.049665   2.561870    2.16431
H   6.755431   2.121702    1.91852
N  10.523419   6.507555    3.96815
O  11.532758   5.012606    5.25137
O  10.857310   4.343759    3.21285
C  10.916750   7.299279    5.12661
C  11.357116   6.187087    6.09371
C  10.942911   5.236236    4.04847
H  10.120473   6.888270    3.10854
H  11.720947   7.990250    4.87848
H  10.077746   7.869415    5.52154
H  10.594898   5.947630    6.83361
H  12.300665   6.387798    6.58782

17c_oxazolidinone.wfx

