%nprocs=4
%mem=2GB
#p b3lyp aug-cc-pvtz output=wfx scf=(conver=6) int=(grid=ultrafine)

title

0 1
 N        4.978186000     2.001945000    -0.701140000
 C        5.371517000     1.210221000     0.457310000
 C        5.397678000     3.273264000    -0.620830000
 H        4.575240000     1.621230000    -1.560760000
 C        5.811882000     2.322413000     1.424420000
 H        6.175714000     0.519250000     0.209180000
 H        4.532513000     0.640085000     0.852240000
 O        5.987525000     3.496894000     0.582070000
 O        5.312076000     4.165741000    -1.456450000
 H        5.049665000     2.561870000     2.164310000
 H        6.755431000     2.121702000     1.918520000

17c_oxazolidinone_mon2.wfx

