%nprocs=4
%mem=2GB
#p b3lyp aug-cc-pvtz output=wfx scf=(conver=6) int=(grid=ultrafine)

title

0 1
O             8.283701000     1.247560000    10.220655000
O             7.420089000     1.800274000     8.226152000
O             8.665671000     0.447837000    12.276282000
C             7.308933000     1.166794000     9.233983000
C             6.220124000     0.225430000     9.672661000
C             6.647384000    -0.247572000    11.060514000
C             7.948435000     0.465551000    11.318173000
H             5.272356000     0.761343000     9.680066000
H             6.127530000    -0.570006000     8.936711000
H             6.819889000    -1.321087000    11.123636000
H             5.938151000     0.017222000    11.843364000
O            11.005451000     2.267090000    13.288345000
O            10.141839000     1.714376000    15.282848000
O            11.387421000     3.066813000    11.232718000
C            10.030683000     2.347856000    14.275017000
C             8.941874000     3.289220000    13.836339000
C             9.369134000     3.762222000    12.448486000
C            10.670185000     3.049099000    12.190827000
H             7.994106000     2.753307000    13.828934000
H             8.849280000     4.084656000    14.572289000
H             9.541639000     4.835737000    12.385364000
H             8.659901000     3.497428000    11.665636000
O             8.046799000     4.762210000     7.411095000
O             8.910411000     5.314924000     9.405598000
O             7.664829000     3.962487000     5.355468000
C             9.021567000     4.681444000     8.397767000
C            10.110376000     3.740080000     7.959089000
C             9.683116000     3.267078000     6.571236000
C             8.382065000     3.980201000     6.313577000
H            11.058144000     4.275993000     7.951684000
H            10.202970000     2.944644000     8.695039000
H             9.510611000     2.193563000     6.508114000
H            10.392349000     3.531872000     5.788386000

18a_succinic_anhydride.wfx

