%nprocs=4
%mem=2GB
#p b3lyp aug-cc-pvtz output=wfx scf=(conver=6) int=(grid=ultrafine)

title

0 1
C  14.171733  20.025411    6.67944
C  13.705640  19.092508    7.60181
C  15.173718  19.675303    5.77837
H  13.746682  21.020351    6.65947
H  12.924382  19.352746    8.30371
H  15.516834  20.398010    5.05255
C  15.248667  17.459389    6.71936
C  15.714760  18.392292    5.79699
C  14.246682  17.809497    7.62043
H  15.673718  16.464449    6.73933
H  16.496018  18.132054    5.09509
H  13.903566  17.086790    8.34625
C  10.494183  12.773789    6.71936
C  10.028090  13.706692    5.79699
C  11.496168  13.123897    7.62043
H  10.069132  11.778849    6.73933
H   9.246832  13.446454    5.09509
H  11.839284  12.401190    8.34625
C  11.571117  15.339811    6.67944
C  12.037210  14.406908    7.60181
C  10.569132  14.989703    5.77837
H  11.996168  16.334751    6.65947
H  12.818468  14.667146    8.30371
H  10.226016  15.712410    5.05255
C  11.571117  17.459389   10.02914
C  12.037210  18.392292   10.95151
C  10.569132  17.809497    9.12807
H  11.996168  16.464449   10.00917
H  12.818468  18.132054   11.65340
H  10.226016  17.086790    8.40225
C  10.494183  20.025411   10.06906
C  10.028090  19.092508    9.14669
C  11.496168  19.675303   10.97013
H  10.069132  21.020351   10.08903
H   9.246832  19.352746    8.44479
H  11.839284  20.398010   11.69595

19a_benzene.wfx

