%nprocs=4
%mem=2GB
#p b3lyp aug-cc-pvtz output=wfx scf=(conver=6) int=(grid=ultrafine)

title

0 1
 C       10.494183000    12.773789000     6.719360000
 C       10.028090000    13.706692000     5.796990000
 C       11.496168000    13.123897000     7.620430000
 H       10.069132000    11.778849000     6.739330000
 H        9.246832000    13.446454000     5.095090000
 C       10.569132000    14.989703000     5.778370000
 H       11.839284000    12.401190000     8.346250000
 C       12.037210000    14.406908000     7.601810000
 C       11.571117000    15.339811000     6.679440000
 H       10.226016000    15.712410000     5.052550000
 H       12.818468000    14.667146000     8.303710000
 H       11.996168000    16.334751000     6.659470000

19a_benzene_mon2.wfx

