%nprocs=4
%mem=2GB
#p b3lyp aug-cc-pvtz output=wfx scf=(conver=6) int=(grid=ultrafine)

title

0 1
 C       15.248667000    15.339811000    10.069060000
 C       15.714760000    14.406908000     9.146690000
 C       14.246682000    14.989703000    10.970130000
 H       15.673718000    16.334751000    10.089030000
 H       16.496018000    14.667146000     8.444790000
 C       15.173718000    13.123897000     9.128070000
 H       13.903566000    15.712410000    11.695950000
 C       13.705640000    13.706692000    10.951510000
 C       14.171733000    12.773789000    10.029140000
 H       15.516834000    12.401190000     8.402250000
 H       12.924382000    13.446454000    11.653400000
 H       13.746682000    11.778849000    10.009170000

19b_benzene_mon2.wfx

