%nprocs=4
%mem=2GB
#p b3lyp aug-cc-pvtz output=wfx scf=(conver=6) int=(grid=ultrafine)

title

0 1
 C        4.216017000    17.459389000    10.029140000
 C        4.682110000    18.392292000    10.951510000
 C        3.214032000    17.809497000     9.128070000
 H        4.641068000    16.464449000    10.009170000
 H        5.463368000    18.132054000    11.653400000
 C        4.141068000    19.675303000    10.970130000
 H        2.870916000    17.086790000     8.402250000
 C        2.672990000    19.092508000     9.146690000
 C        3.139083000    20.025411000    10.069060000
 H        4.484184000    20.398010000    11.695950000
 H        1.891732000    19.352746000     8.444790000
 H        2.714032000    21.020351000    10.089030000
 C       -0.538467000    20.025411000     6.679440000
 C       -1.004560000    19.092508000     7.601810000
 C        0.463518000    19.675303000     5.778370000
 H       -0.963518000    21.020351000     6.659470000
 H       -1.785818000    19.352746000     8.303710000
 C       -0.463518000    17.809497000     7.620430000
 H        0.806634000    20.398010000     5.052550000
 C        1.004560000    18.392292000     5.796990000
 C        0.538467000    17.459389000     6.719360000
 H       -0.806634000    17.086790000     8.346250000
 H        1.785818000    18.132054000     5.095090000
 H        0.963518000    16.464449000     6.739330000

19c_benzene_di13.wfx

