%nprocs=4
%mem=2GB
#p b3lyp aug-cc-pvtz output=wfx scf=(conver=6) int=(grid=ultrafine)

title

0 1
C   0.320145   1.506583    4.74190
C  -0.886058   0.648358    4.67959
H  -0.672920  -0.411968    4.61410
C  -2.169644   1.023617    4.67206
H  -2.904729   0.233566    4.59374
C  -2.803159   2.366825    4.77570
O   1.420340   0.806792    4.83739
H   2.244696   1.386069    4.83976
O   0.312161   2.739160    4.68407
O  -2.093922   3.469710    4.81025
H  -1.096782   3.296855    4.72192
O  -4.027847   2.452950    4.84965
C   7.795045   1.506583    4.74190
C   6.588842   0.648358    4.67959
H   6.801980  -0.411968    4.61410
C   5.305256   1.023617    4.67206
H   4.570171   0.233566    4.59374
C   4.671741   2.366825    4.77570
O   8.895240   0.806792    4.83739
H   9.719596   1.386069    4.83976
O   7.787061   2.739160    4.68407
O   5.380978   3.469710    4.81025
H   6.378118   3.296855    4.72192
O   3.447053   2.452950    4.84965
C  15.269945   1.506583    4.74190
C  14.063742   0.648358    4.67959
H  14.276880  -0.411968    4.61410
C  12.780156   1.023617    4.67206
H  12.045071   0.233566    4.59374
C  12.146641   2.366825    4.77570
O  16.370140   0.806792    4.83739
H  17.194496   1.386069    4.83976
O  15.261961   2.739160    4.68407
O  12.855878   3.469710    4.81025
H  13.853018   3.296855    4.72192
O  10.921953   2.452950    4.84965

20b_maleic_acid.wfx

