%nprocs=4
%mem=2GB
#p b3lyp aug-cc-pvtz output=wfx scf=(conver=6) int=(grid=ultrafine)

title

0 1
[ 13 14 19 21 15 16 20 17 18 22 24 23] of Maleic acid #2, B3LYP-D*/TZP geometry       
 C        0.320145000     1.506583000     4.741900000
 C       -0.886058000     0.648358000     4.679590000
 O        1.420340000     0.806792000     4.837390000
 O        0.312161000     2.739160000     4.684070000
 H       -0.672920000    -0.411968000     4.614100000
 C       -2.169644000     1.023617000     4.672060000
 H        2.244696000     1.386069000     4.839760000
 H       -2.904729000     0.233566000     4.593740000
 C       -2.803159000     2.366825000     4.775700000
 O       -2.093922000     3.469710000     4.810250000
 O       -4.027847000     2.452950000     4.849650000
 H       -1.096782000     3.296855000     4.721920000
 C        7.795045000     1.506583000     4.741900000
 C        6.588842000     0.648358000     4.679590000
 O        8.895240000     0.806792000     4.837390000
 O        7.787061000     2.739160000     4.684070000
 H        6.801980000    -0.411968000     4.614100000
 C        5.305256000     1.023617000     4.672060000
 H        9.719596000     1.386069000     4.839760000
 H        4.570171000     0.233566000     4.593740000
 C        4.671741000     2.366825000     4.775700000
 O        5.380978000     3.469710000     4.810250000
 O        3.447053000     2.452950000     4.849650000
 H        6.378118000     3.296855000     4.721920000

20b_maleic_acid_di12.wfx

