%nprocs=4
%mem=2GB
#p b3lyp aug-cc-pvtz output=wfx scf=(conver=6) int=(grid=ultrafine)

title

0 1
 C        2.045747000    10.845738000     6.203200000
 O        1.542040000    10.135432000     5.220310000
 O        1.941684000    12.068249000     6.162720000
 C        2.737502000    10.207203000     7.360270000
 H        1.648986000     9.136168000     5.373170000
 H        3.133355000    10.946547000     8.044090000
 C        2.940772000     8.923996000     7.681770000
 H        3.486444000     8.720057000     8.594700000
 C        2.500849000     7.714058000     6.945300000
 O        2.868786000     6.606276000     7.535470000
 O        1.850802000     7.729101000     5.897320000
 H        2.515947000     5.797481000     7.049020000
 C        5.739047000    10.845738000     6.203200000
 O        5.235340000    10.135432000     5.220310000
 O        5.634984000    12.068249000     6.162720000
 C        6.430802000    10.207203000     7.360270000
 H        5.342286000     9.136168000     5.373170000
 H        6.826655000    10.946547000     8.044090000
 C        6.634072000     8.923996000     7.681770000
 H        7.179744000     8.720057000     8.594700000
 C        6.194149000     7.714058000     6.945300000
 O        6.562086000     6.606276000     7.535470000
 O        5.544102000     7.729101000     5.897320000
 H        6.209247000     5.797481000     7.049020000

20c_maleic_acid_di13.wfx

