%nprocs=4
%mem=2GB
#p b3lyp aug-cc-pvtz output=wfx scf=(conver=6) int=(grid=ultrafine)

title

0 1
 O       -0.523827000     4.615452000    11.003574000
 C       -1.114956000     5.611060000    10.601234000
 C       -0.586228000     6.970135000    10.859253000
 C       -2.387966000     5.487692000     9.851849000
 H        0.338454000     7.039199000    11.418622000
 C       -1.238923000     8.054308000    10.427374000
 H       -2.743176000     4.478881000     9.674947000
 C       -3.040660000     6.571865000     9.419969000
 C       -2.511932000     7.930940000     9.677989000
 H       -0.883713000     9.063119000    10.604276000
 H       -3.965342000     6.502801000     8.860601000
 O       -3.103061000     8.926548000     9.275649000

21a_p-benzoquinone_mon2.wfx

