%nprocs=4
%mem=2GB
#p b3lyp aug-cc-pvtz output=wfx scf=(conver=6) int=(grid=ultrafine)

title

0 1
 O       10.962173000     4.615452000    11.003574000
 C       10.371044000     5.611060000    10.601234000
 C       10.899772000     6.970135000    10.859253000
 C        9.098034000     5.487692000     9.851849000
 H       11.824454000     7.039199000    11.418622000
 C       10.247077000     8.054308000    10.427374000
 H        8.742824000     4.478881000     9.674947000
 C        8.445340000     6.571865000     9.419969000
 C        8.974068000     7.930940000     9.677989000
 H       10.602287000     9.063119000    10.604276000
 H        7.520658000     6.502801000     8.860601000
 O        8.382939000     8.926548000     9.275649000

21b_p-benzoquinone_mon3.wfx

