%nprocs=4
%mem=2GB
#p b3lyp aug-cc-pvtz output=wfx scf=(conver=6) int=(grid=ultrafine)

title

0 1
 O        0.685136000     4.615452000     4.243833000
 C        0.094007000     5.611060000     3.841493000
 C        0.622735000     6.970135000     4.099513000
 C       -1.179003000     5.487692000     3.092108000
 H        1.547417000     7.039199000     4.658881000
 C       -0.029960000     8.054308000     3.667633000
 H       -1.534213000     4.478881000     2.915206000
 C       -1.831698000     6.571865000     2.660228000
 C       -1.302969000     7.930940000     2.918248000
 H        0.325250000     9.063119000     3.844535000
 H       -2.756379000     6.502801000     2.100860000
 O       -1.894099000     8.926548000     2.515908000
 O        0.080654000    12.312048000     7.623703000
 C       -0.510475000    11.316440000     7.221364000
 C        0.018253000     9.957365000     7.479383000
 C       -1.783484000    11.439808000     6.471979000
 H        0.942935000     9.888301000     8.038752000
 C       -0.634441000     8.873192000     7.047503000
 H       -2.138694000    12.448619000     6.295076000
 C       -2.436179000    10.355635000     6.040099000
 C       -1.907451000     8.996560000     6.298118000
 H       -0.279231000     7.864381000     7.224406000
 H       -3.360861000    10.424699000     5.480730000
 O       -2.498580000     8.000952000     5.895778000

21c_p-benzoquinone_di23.wfx

