%nprocs=4
%mem=2GB
#p b3lyp aug-cc-pvtz output=wfx scf=(conver=6) int=(grid=ultrafine)

title

0 1
 C       -1.957828000     2.590668000     6.301430000
 N       -0.597309000     2.691780000     6.440160000
 N       -2.423802000     1.295520000     6.285530000
 O       -2.699031000     3.549066000     6.204640000
 C        0.211588000     1.606034000     6.552090000
 H       -0.293856000     3.470230000     6.403270000
 C       -1.672370000     0.153091000     6.382380000
 H       -3.284651000     1.172007000     6.172430000
 C       -0.264624000     0.353582000     6.529760000
 H        1.143843000     1.811846000     6.624070000
 O       -2.240633000    -0.953695000     6.334330000
 H        0.282003000    -0.398507000     6.582050000

22a_uracil_mon1.wfx

