%nprocs=4
%mem=2GB
#p b3lyp aug-cc-pvtz output=wfx scf=(conver=6) int=(grid=ultrafine)

title

0 1
2 23 16 18 14 19 15 17 24 20] of Uracil #1, B3LYP-D*/TZP geometry   
 C       -1.957828000     2.590668000     6.301430000
 N       -0.597309000     2.691780000     6.440160000
 N       -2.423802000     1.295520000     6.285530000
 O       -2.699031000     3.549066000     6.204640000
 C        0.211588000     1.606034000     6.552090000
 H       -0.293856000     3.470230000     6.403270000
 C       -1.672370000     0.153091000     6.382380000
 H       -3.284651000     1.172007000     6.172430000
 C       -0.264624000     0.353582000     6.529760000
 H        1.143843000     1.811846000     6.624070000
 O       -2.240633000    -0.953695000     6.334330000
 H        0.282003000    -0.398507000     6.582050000
 C        0.418444000     8.778668000     6.244160000
 N       -0.942075000     8.879780000     6.105440000
 N        0.884418000     7.483520000     6.260060000
 O        1.159647000     9.737066000     6.340950000
 C       -1.750972000     7.794034000     5.993500000
 H       -1.245528000     9.658230000     6.142320000
 C        0.132986000     6.341091000     6.163210000
 H        1.745268000     7.360007000     6.373160000
 C       -1.274760000     6.541582000     6.015830000
 H       -2.683227000     7.999846000     5.921520000
 O        0.701249000     5.234305000     6.211260000
 H       -1.821387000     5.789493000     5.963550000

22a_uracil_di12.wfx

