%nprocs=4
%mem=2GB
#p b3lyp aug-cc-pvtz output=wfx scf=(conver=6) int=(grid=ultrafine)

title

0 1
C  13.734364   2.590668    0.02864
C  14.019822   0.153091    0.10959
C  15.427568   0.353582    0.25696
C  15.903780   1.606034    0.27930
H  16.836035   1.811846    0.35128
H  15.398336   3.470230    0.13047
H  12.407540   1.172007   -0.10036
H  15.974195  -0.398507    0.30925
N  15.094883   2.691780    0.16736
N  13.268390   1.295520    0.01273
O  12.993161   3.549066   -0.06815
O  13.451559  -0.953695    0.06154
C  11.857268   2.590668    3.16503
C  12.142726   0.153091    3.24599
C  13.550472   0.353582    3.39336
C  14.026684   1.606034    3.41569
H  14.958939   1.811846    3.48768
H  13.521240   3.470230    3.26687
H  10.530444   1.172007    3.03603
H  14.097099  -0.398507    3.44565
N  13.217787   2.691780    3.30376
N  11.391294   1.295520    3.14913
O  11.116065   3.549066    3.06825
O  11.574463  -0.953695    3.19794
C   9.980172   2.590668    6.30143
C  10.265630   0.153091    6.38238
C  11.673376   0.353582    6.52976
C  12.149588   1.606034    6.55209
H  13.081843   1.811846    6.62407
H  11.644144   3.470230    6.40327
H   8.653349   1.172007    6.17243
H  12.220003  -0.398507    6.58205
N  11.340691   2.691780    6.44016
N   9.514198   1.295520    6.28553
O   9.238969   3.549066    6.20464
O   9.697367  -0.953695    6.33433

22b_uracil.wfx

