%nprocs=4
%mem=2GB
#p b3lyp aug-cc-pvtz output=wfx scf=(conver=6) int=(grid=ultrafine)

title

0 1
C   0.418444   8.778668    6.24416
C   0.132986   6.341091    6.16321
C  -1.274760   6.541582    6.01583
C  -1.750972   7.794034    5.99350
H  -2.683227   7.999846    5.92152
H  -1.245528   9.658230    6.14232
H   1.745268   7.360007    6.37316
H  -1.821387   5.789493    5.96355
N  -0.942075   8.879780    6.10544
N   0.884418   7.483520    6.26006
O   1.159647   9.737066    6.34095
O   0.701249   5.234305    6.21126
C   8.264540   9.785332    3.10776
C   7.979082  12.222909    3.02681
C   6.571336  12.022418    2.87943
C   6.095124  10.769966    2.85710
H   5.162869  10.564154    2.78512
H   6.600568   8.905770    3.00592
H   9.591364  11.203993    3.23676
H   6.024709  12.774507    2.82715
N   6.904021   9.684220    2.96904
N   8.730514  11.080480    3.12366
O   9.005743   8.826934    3.20455
O   8.547345  13.329695    3.07486
C   6.387444   9.785332    6.24416
C   6.101986  12.222909    6.16321
C   4.694240  12.022418    6.01583
C   4.218028  10.769966    5.99350
H   3.285773  10.564154    5.92152
H   4.723472   8.905770    6.14232
H   7.714268  11.203993    6.37316
H   4.147613  12.774507    5.96355
N   5.026925   9.684220    6.10544
N   6.853418  11.080480    6.26006
O   7.128647   8.826934    6.34095
O   6.670249  13.329695    6.21126

22c_uracil.wfx

