%nprocs=4
%mem=2GB
#p b3lyp aug-cc-pvtz output=wfx scf=(conver=6) int=(grid=ultrafine)

title

0 1
 C        0.418444000     8.778668000     6.244160000
 N       -0.942075000     8.879780000     6.105440000
 N        0.884418000     7.483520000     6.260060000
 O        1.159647000     9.737066000     6.340950000
 C       -1.750972000     7.794034000     5.993500000
 H       -1.245528000     9.658230000     6.142320000
 C        0.132986000     6.341091000     6.163210000
 H        1.745268000     7.360007000     6.373160000
 C       -1.274760000     6.541582000     6.015830000
 H       -2.683227000     7.999846000     5.921520000
 O        0.701249000     5.234305000     6.211260000
 H       -1.821387000     5.789493000     5.963550000

22c_uracil_mon1.wfx

