%nprocs=4
%mem=2GB
#p b3lyp aug-cc-pvtz output=wfx scf=(conver=6) int=(grid=ultrafine)

title

0 1
 C        0.033625000     6.706119000    19.311940000
 C        0.959973000     6.409193000    18.375834000
 O       -0.055444000     8.081564000    19.396240000
 H       -0.613956000     6.162872000    19.973661000
 C        1.844713000     5.563213000    17.469053000
 C        1.468218000     7.630170000    17.861517000
 C        0.836376000     8.641449000    18.494783000
 C        2.428737000     6.928222000    16.911667000
 H        1.303334000     4.976352000    16.727678000
 H        2.566915000     4.929195000    17.981144000
 H        0.854554000     9.715243000    18.490137000
 H        2.250375000     7.094996000    15.852837000
 H        3.484034000     7.081902000    17.126143000
 C        0.081769000     8.061381000    14.472680000
 C        1.008117000     8.358307000    13.536573000
 O       -0.007300000     6.685936000    14.556980000
 H       -0.565812000     8.604628000    15.134400000
 C        1.892857000     9.204287000    12.629792000
 C        1.516362000     7.137330000    13.022256000
 C        0.884521000     6.126051000    13.655522000
 C        2.476881000     7.839278000    12.072406000
 H        1.351478000     9.791148000    11.888418000
 H        2.615059000     9.838305000    13.141883000
 H        0.902698000     5.052257000    13.650876000
 H        2.298519000     7.672504000    11.013576000
 H        3.532179000     7.685598000    12.286882000

23c_cyclobutylfuran_di12.wfx

