&control
 title='crystal',
 prefix='crystal',
 pseudo_dir='../..',
 forc_conv_thr=1.0D-4,
 etot_conv_thr=1.0D-5,
/
&system
 ibrav=0,
 nat=    48,
 ntyp=  3,
 ecutwfc=80.0,
 ecutrho=800.0,
 vdw_corr='xdm',
 nosym=.true.,
/
&electrons
 conv_thr = 1d-10,
/
&ions
/
&cell
 press_conv_thr=0.01,
/
ATOMIC_SPECIES
O    15.999400 o.UPF
C    12.010700 c.UPF
H     1.007940 h.UPF

ATOMIC_POSITIONS crystal
O             0.8434264564        0.6371235370        0.6096658357
O             0.6482537243        0.9737658805        0.6447495036
O             0.2687792985        0.7329468431        0.5616091786
O             0.1589402117        0.3614508119        0.3906949383
O             0.3541097490        0.0248049008        0.3556093130
O             0.7335821121        0.2656261087        0.4387509425
C             0.9475985325        0.8393203550        0.5959076582
C             0.7866499231        0.9558458882        0.5342732568
C             0.1132777912        0.8283526533        0.4913305342
C             0.0547657324        0.1592542149        0.4044522012
C             0.2157120902        0.0427246172        0.4660845580
C             0.8890839871        0.1702192813        0.5090284127
H             0.8547362351        0.6297972208        0.7242633299
H             0.0270178779        0.9204221068        0.7135131433
H             0.5120373668        0.8736276628        0.6089967234
H             0.6962945431        0.8701942677        0.4209259784
H             0.2348052951        0.5864594516        0.5097958795
H             0.0392357907        0.7356620515        0.3754920802
H             0.1476447290        0.3687742219        0.2760970108
H             0.9753468968        0.0781524516        0.2868471343
H             0.4903228743        0.1249486154        0.3913620544
H             0.3060670241        0.1283719671        0.5794329733
H             0.7675546316        0.4121131969        0.4905644355
H             0.9631219536        0.2629047984        0.6248696960
O             0.2646371508        0.7869376749        0.0850896927
O             0.1143136180        0.3611920628        0.0848022242
O             0.7023447490        0.9092541242        0.1045050765
O             0.7377653505        0.2116163547        0.9152753178
O             0.8880885622        0.6373674709        0.9155612347
O             0.3000612923        0.0893013714        0.8958571750
C             0.3980543520        0.6432158294        0.0863279027
C             0.2762294330        0.4319991678        0.0012506494
C             0.5864696959        0.7215234991        0.0113314093
C             0.6043503726        0.3553403893        0.9140384833
C             0.7261751064        0.5665568555        0.9991142880
C             0.4159339723        0.2770315768        0.9890335208
H             0.2970327444        0.8799023108        0.1911289447
H             0.4520620581        0.6322334636        0.2102971558
H             0.9819996035        0.3001723875        0.0109178936
H             0.2072759804        0.4456788238        0.8810898252
H             0.7107972222        0.0183738620        0.0388322686
H             0.5310213719        0.7463076811        0.8910885223
H             0.7053560249        0.1186477112        0.8092371444
H             0.5503434931        0.3663247869        0.7900694462
H             0.0204038166        0.6983822142        0.9894451715
H             0.7951304608        0.5528777932        0.1192747127
H             0.2916073965        0.9801805982        0.9615291029
H             0.4713803159        0.2522455665        0.1092762863

K_POINTS automatic
4 4 3  1 1 1

CELL_PARAMETERS bohr
  12.600332464   0.014843877  -0.017390789
  -2.538498188  12.474711770   0.009345849
  -2.246357570  -2.680480170  16.024430455
