%nprocs=4
%mem=4GB
#p pbepbe aug-cc-pvtz output=wfx scf=(conver=6) int=(grid=ultrafine)

title

0 1
c -0.594059968177788 -0.608477829863256 -1.075294463952686
o -0.503848942784800 -1.456375567987113 0.000000000000000
c 1.351469578358919 0.166456648423312 -0.701273428936687
c -1.373535485659251 0.513395830482570 -0.687330809310473
c -0.594059968177788 -0.608477829863256 1.075294463952686
c 1.351469578358919 0.166456648423312 0.701273428936687
c -1.373535485659251 0.513395830482570 0.687330809310473
h -0.565140301487622 -1.091114803687142 -2.041112199302948
h 1.862712906568702 -0.634063737286920 -1.224166801463369
h 1.318840111859033 1.105107649953786 -1.240909952600669
h -1.748362370069609 1.276884025971223 -1.352179628823560
h -0.565140301487622 -1.091114803687142 2.041112199302948
h 1.862712906568702 -0.634063737286920 1.224166801463369
h 1.318840111859033 1.105107649953786 1.240909952600669
h -1.748362370069609 1.276884025971223 1.352179628823560

04ts.wfx

