%nprocs=4
%mem=4GB
#p pbepbe aug-cc-pvtz output=wfx scf=(conver=6) int=(grid=ultrafine)

title

0 1
n 0.000000000000000 0.000000000000000 1.142716120853543
c -1.124157315654149 0.000000000000000 0.352901899094538
c 1.124157315654149 0.000000000000000 0.352901899094538
c -0.711897199895288 0.000000000000000 -0.960066469570726
c 0.711897199895288 0.000000000000000 -0.960066469570726
h 0.000000000000000 0.000000000000000 2.148336403259788
h -2.111454592878586 0.000000000000000 0.785258020476367
h 2.111454592878586 0.000000000000000 0.785258020476367
h -1.358538381466833 0.000000000000000 -1.823619712056839
h 1.358538381466833 0.000000000000000 -1.823619712056839

05r.wfx

