%nprocs=4
%mem=4GB
#p pbepbe aug-cc-pvtz output=wfx scf=(conver=6) int=(grid=ultrafine)

title

0 1
c -0.713554700393679 0.000000000000000 -0.699766236390357
c -1.240984954242465 0.000000000000000 0.558894425077278
s 0.000000000000000 0.000000000000000 1.769134981511272
c 1.240984954242465 0.000000000000000 0.558894425077278
c 0.713554700393679 0.000000000000000 -0.699766236390357
h -1.318135497951294 0.000000000000000 -1.597059696460362
h -2.278819398781436 0.000000000000000 0.853364017017813
h 2.278819398781436 0.000000000000000 0.853364017017813
h 1.318135497951294 0.000000000000000 -1.597059696460362

09r.wfx

