%nprocs=4
%mem=4GB
#p pbepbe aug-cc-pvtz output=wfx scf=(conver=6) int=(grid=ultrafine)

title

0 1
n 0.000000000000000 0.000000000000000 -0.368755134556198
h 0.000000000000000 0.000000000000000 -1.383787057613171
c 1.225774406743755 0.000000000000000 0.157840060556166
h 1.339315188513864 0.000000000000000 1.229867259476558
h 2.068094103415371 0.000000000000000 -0.511436223948037
c -1.225774406743755 0.000000000000000 0.157840060556166
h -1.339315188513864 0.000000000000000 1.229867259476558
h -2.068094103415371 0.000000000000000 -0.511436223948037

13r_9.wfx

