%nprocs=4
%mem=4GB
#p pbepbe aug-cc-pvtz output=wfx scf=(conver=6) int=(grid=ultrafine)

title

0 1
c 0.967458182176690 -0.116367082601650 0.000000000000000
n -0.309972026355058 -0.089859690271996 0.000000000000000
c -1.521107182487495 -0.220124109923167 0.000000000000000
h 1.500981007233061 -0.128124845069628 0.941776928973823
h 1.500981007233061 -0.128124845069628 -0.941776928973823
h -2.138340987800270 0.682600572936068 0.000000000000000

13r_6.wfx

