%nprocs=4
%mem=4GB
#p pbepbe aug-cc-pvtz output=wfx scf=(conver=6) int=(grid=ultrafine)

title

0 1
c -1.118928110641711 -0.393006906790558 0.060459013396225
c -1.069615510589077 0.985691716602858 -0.033341541570607
o 1.043519026478602 1.356272963701682 -0.214293510244416
n 1.478529385754692 0.225737436451668 0.229416218063999
c 0.957822945876324 -0.898680997004258 -0.272131967414450
h -1.245945050727878 -0.861330341916359 1.030671449523313
h -1.488017173264209 -0.974148544665372 -0.777212772717447
h -1.094619684568429 1.610147804955747 0.849160151123569
h -1.266449155701456 1.488442846762253 -0.970259316156489
h 1.753171541021647 0.204283660534366 1.214433168196128
h 0.820896945596653 -0.920131281939515 -1.343184602385066
h 1.229634840764843 -1.823278356692532 0.226283710185219

13ts_7a.wfx

