%nprocs=4
%mem=4GB
#p pbepbe aug-cc-pvtz output=wfx scf=(conver=6) int=(grid=ultrafine)

title

0 1
c 1.276090301362880 -0.773273384250669 0.000000000000000
c 1.231347135924199 0.589053344050639 0.000000000000000
c -1.181923692388516 1.073249645872762 0.000000000000000
n -1.494351801270036 -0.199055455993085 0.000000000000000
c -1.066385111852469 -1.338401609137458 0.000000000000000
h 1.420158041266546 -1.330848750683283 -0.917089277986508
h 1.420158041266546 -1.330848750683283 0.917089277986508
h 1.345361895977221 1.150220140475284 -0.919567814713757
h 1.345361895977221 1.150220140475284 0.919567814713757
h -1.300314405032753 1.619324173250887 0.929003473756839
h -1.300314405032753 1.619324173250887 -0.929003473756839
h -1.695187896198098 -2.228963666627971 0.000000000000000

13ts_6a.wfx

