%nprocs=4
%mem=4GB
#p pbepbe aug-cc-pvtz output=wfx scf=(conver=6) int=(grid=ultrafine)

title

0 1
h 2.522255708235293 -0.956120268473225 1.181673331807262
c 1.833155514739814 -0.284678079936012 0.669299187935466
c -1.806194507169315 0.514195144383121 0.000000000000000
c 0.903097253584658 0.514195144383121 1.564210439221543
h -0.237769066764226 -0.956120268473225 2.775174779253556
h 0.621787174594360 1.453060408011232 1.076966302406111
h 1.434144402699724 0.790149221869484 2.484011697496588
c -0.336948094613143 -0.284678079936012 1.922208539745403
c -1.496208420126956 -0.284678079936012 1.252909351809937
h -0.237769066764226 -0.956120268473225 -2.775174779253556
c -0.336948094613143 -0.284678079936012 -1.922208539745403
h -2.868289805399732 0.790149221869484 0.000000000000000
c 0.903097253584658 0.514195144383121 -1.564210439221543
h 2.522255708235293 -0.956120268473225 -1.181673331807262
h 0.621787174594360 1.453060408011232 -1.076966302406111
h 1.434144402699724 0.790149221869484 -2.484011697496588
c 1.833155514739814 -0.284678079936012 -0.669299187935466
h -2.284486641471067 -0.956120268473225 1.593501447446294
h -1.243574349188720 1.453060408011232 0.000000000000000
c -1.496208420126956 -0.284678079936012 -1.252909351809937
h -2.284486641471067 -0.956120268473225 -1.593501447446294

Cyclonona-1_4_7-triene.wfx

