%nprocs=4
%mem=4GB
#p pbepbe aug-cc-pvtz output=wfx scf=(conver=6) int=(grid=ultrafine)

title

0 1
c -0.318563089450735 -0.698255196066154 -1.192312334794636
c 0.318563089450735 0.698255196066154 -1.192312334794636
c -0.110725031090969 1.498944420895207 0.047937013460443
c 0.110725031090969 -1.498944420895207 0.047937013460443
c -0.056999016005002 0.666078187031031 1.306095366744273
c 0.056999016005002 -0.666078187031031 1.306095366744273
h -1.412587396646638 -0.593439166634398 -1.192983334983046
h 1.412587396646638 0.593439166634398 -1.192983334983046
h -0.053601015050867 -1.244612349480188 -2.105884591320615
h 0.053601015050867 1.244612349480188 -2.105884591320615
h 0.526617147871147 2.386746670185114 0.163847046007336
h -0.526617147871147 -2.386746670185114 0.163847046007336
h -1.132133317896703 1.888891530390175 -0.089974025264204
h 1.132133317896703 -1.888891530390175 -0.089974025264204
h -0.112069031468358 1.199545336825623 2.254680633101711
h 0.112069031468358 -1.199545336825623 2.254680633101711

Cyclohexene.wfx

