%nprocs=4
%mem=4GB
#p pbepbe aug-cc-pvtz output=wfx scf=(conver=6) int=(grid=ultrafine)

title

0 1
c 0.015864004454525 -0.906955254667961 1.309420367677913
c 0.015864004454525 -0.906955254667961 -1.309420367677913
c 0.015864004454525 0.507865142605692 1.211640340221828
c 0.015864004454525 0.507865142605692 -1.211640340221828
c -0.142456040000861 1.185505332883265 0.000000000000000
h 0.498374139940670 -1.206145338678862 0.000000000000000
h 0.515504144750678 -1.333655374482966 2.181680612603710
h 0.515504144750678 -1.333655374482966 -2.181680612603710
h -0.896696251787292 -1.451815407661643 1.068700300085067
h -0.896696251787292 -1.451815407661643 -1.068700300085067
h 0.405514113866093 1.091195306401537 2.046030574513941
h 0.405514113866093 1.091195306401537 -2.046030574513941
h -0.073006020499680 2.270755637615478 0.000000000000000

TS4.wfx

