&control
 title='crystal',
 prefix='crystal',
 pseudo_dir='.',
 calculation='vc-relax',
/
&system
 ibrav=0,
 celldm(1)=1.0,
 nat=    50,
 ntyp=  4,
 ecutwfc=60.0,
 ecutrho=600.0,
 xdm=.true.,
 xdm_a1=0.4073,
 xdm_a2=2.4150,
/
&electrons
 conv_thr = 1d-8,
/
&ions
/
&cell
/
ATOMIC_SPECIES
h      1.007940 h.UPF
c     12.010700 c.UPF
n     14.006700 n.UPF
o     15.999400 o.UPF

ATOMIC_POSITIONS crystal
h     0.99205516     0.45404409     0.44348532
h     0.00794492     0.95404409     0.55651467
h     0.84838912     0.26387451     0.48895114
h     0.15161096     0.76387451     0.51104886
h     0.20981187     0.16844839     0.87111309
h     0.79018821     0.66844839     0.12888690
h     0.60808442     0.66111599     0.77998108
h     0.39191566     0.16111599     0.22001892
h     0.21562411     0.29962077     0.72482107
h     0.78437597     0.79962077     0.27517893
h     0.09547047     0.55559508     0.63173713
h     0.90452961     0.05559508     0.36826286
h     0.52475331     0.92116406     0.66928357
h     0.47524677     0.42116406     0.33071643
h     0.93776750     0.40417303     0.78329327
h     0.06223258     0.90417303     0.21670673
h     0.43203612     0.36622720     0.54846548
h     0.56796396     0.86622720     0.45153452
h     0.66179167     0.61676908     0.55076436
h     0.33820840     0.11676908     0.44923564
h     0.00216984     0.65293844     0.93350944
h     0.99783024     0.15293844     0.06649055
c     0.07826805     0.05851209     0.84922577
c     0.92173202     0.55851209     0.15077422
c     0.86435479     0.05895621     0.76088376
c     0.13564529     0.55895621     0.23911623
c     0.95905208     0.76598634     0.88565639
c     0.04094799     0.26598634     0.11434360
c     0.69297837     0.91603944     0.73737564
c     0.30702170     0.41603944     0.26262436
c     0.12378868     0.91058807     0.91064078
c     0.87621140     0.41058807     0.08935922
c     0.74089721     0.77135810     0.79929666
c     0.25910286     0.27135810     0.20070334
c     0.33951266     0.90918531     0.00148659
c     0.66048741     0.40918531     0.99851340
n     0.51203479     0.90897253     0.07732801
n     0.48796529     0.40897253     0.92267198
o     0.80920745     0.19161783     0.69238754
o     0.19079263     0.69161783     0.30761246
c     0.98990996     0.33720919     0.71153877
c     0.01009011     0.83720919     0.28846123
c     0.94638076     0.44972491     0.61336839
c     0.05361932     0.94972491     0.38663161
c     0.00987529     0.36169812     0.50971973
c     0.99012478     0.86169812     0.49028027
o     0.28202042     0.28081643     0.52250941
o     0.71797966     0.78081643     0.47749058
o     0.65812814     0.51278481     0.59621538
o     0.34187193     0.01278481     0.40378461

K_POINTS automatic
2 2 2 1 1 1

CELL_PARAMETERS cubic
    8.905336000000     0.000000000000     0.243489000000
    0.000000000000    15.040274000000     0.000000000000
   -3.632159000000     0.000000000000    23.334385000000
