&control
 title='crystal',
 prefix='crystal',
 pseudo_dir='.',
 calculation='vc-relax',
/
&system
 ibrav=0,
 celldm(1)=1.0,
 nat=    46,
 ntyp=  5,
 ecutwfc=60.0,
 ecutrho=600.0,
 xdm=.true.,
 xdm_a1=0.4073,
 xdm_a2=2.4150,
/
&electrons
 conv_thr = 1d-8,
/
&ions
/
&cell
/
ATOMIC_SPECIES
h      1.007940 h.UPF
c     12.010700 c.UPF
n     14.006700 n.UPF
o     15.999400 o.UPF
cl    35.453000 cl.UPF

ATOMIC_POSITIONS crystal
cl    0.88794911     0.90987019     0.25478582
cl    0.11205090     0.09012980     0.74521420
cl    0.59531355     0.78526982     0.64632841
cl    0.40468646     0.21473016     0.35367161
cl    0.16808054     0.62269225     0.44410811
cl    0.83191947     0.37730773     0.55589191
n     0.47603568     0.74697751     0.08340012
n     0.52396433     0.25302247     0.91659990
h     0.58749452     0.82730939     0.05900822
h     0.41250549     0.17269059     0.94099180
o     0.97306444     0.74499575     0.95207247
o     0.02693557     0.25500423     0.04792755
h     0.89371394     0.84794207     0.95411828
h     0.10628607     0.15205792     0.04588174
o     0.23358959     0.00627962     0.04272981
o     0.76641042     0.99372036     0.95727021
c     0.16192518     0.82824092     0.99797442
c     0.83807483     0.17175907     0.00202560
c     0.28775949     0.68606330     0.98593105
c     0.71224052     0.31393668     0.01406897
h     0.20710601     0.54345412     0.99471127
h     0.79289400     0.45654587     0.00528875
c     0.31231485     0.66754905     0.85016972
c     0.68768517     0.33245093     0.14983030
h     0.39790212     0.56229155     0.83808117
h     0.60209789     0.43770843     0.16191885
h     0.38880851     0.80834080     0.83712827
h     0.61119150     0.19165919     0.16287175
h     0.17046124     0.61614547     0.77540648
h     0.82953877     0.38385452     0.22459354
c     0.49872541     0.75765933     0.21351443
c     0.50127461     0.24234066     0.78648559
c     0.68541812     0.82859537     0.30610078
c     0.31458189     0.17140461     0.69389924
c     0.71369090     0.83492448     0.43697794
c     0.28630911     0.16507551     0.56302208
h     0.85909950     0.88868977     0.50563112
h     0.14090051     0.11131022     0.49436891
c     0.55552295     0.77218025     0.48195868
c     0.44447706     0.22781973     0.51804134
c     0.36924763     0.70140862     0.39262421
c     0.63075238     0.29859136     0.60737581
c     0.34146174     0.69351360     0.26088311
c     0.65853827     0.30648638     0.73911691
h     0.19429408     0.63509152     0.19516075
h     0.80570593     0.36490846     0.80483927

K_POINTS automatic
2 2 2 1 1 1

CELL_PARAMETERS cubic
   13.897128000000     0.005606000000    -0.042038000000
   -2.835403000000    13.223605000000    -0.041178000000
   -5.383295000000    -4.107293000000    19.531778000000
