&control
 title='crystal',
 prefix='crystal',
 pseudo_dir='.',
 calculation='vc-relax',
/
&system
 ibrav=0,
 celldm(1)=1.0,
 nat=    80,
 ntyp=  5,
 ecutwfc=60.0,
 ecutrho=600.0,
 xdm=.true.,
 xdm_a1=0.4073,
 xdm_a2=2.4150,
/
&electrons
 conv_thr = 1d-8,
/
&ions
/
&cell
/
ATOMIC_SPECIES
h      1.007940 h.UPF
c     12.010700 c.UPF
n     14.006700 n.UPF
o     15.999400 o.UPF
se    78.960000 se.UPF

ATOMIC_POSITIONS crystal
se    0.84798736     0.92814029     0.12376896
se    0.15201260     0.07185965     0.87623105
se    0.34798737     0.57185963     0.12376895
se    0.65201259     0.42814031     0.87623106
o     0.49725606     0.93708094     0.37674530
o     0.50274390     0.06291900     0.62325471
o     0.99725607     0.56291898     0.37674529
o     0.00274390     0.43708096     0.62325472
o     0.67937112     0.66683408     0.43642089
o     0.32062885     0.33316586     0.56357913
o     0.17937112     0.83316584     0.43642088
o     0.82062884     0.16683411     0.56357913
n     0.86293707     0.06555361     0.40883450
n     0.13706290     0.93444634     0.59116551
n     0.36293708     0.43444631     0.40883450
n     0.63706289     0.56555363     0.59116551
c     0.66122149     0.01780029     0.06249424
c     0.33877848     0.98219965     0.93750577
c     0.16122149     0.48219963     0.06249423
c     0.83877847     0.51780031     0.93750578
c     0.82958338     0.10964032     0.22779378
c     0.17041659     0.89035963     0.77220623
c     0.32958339     0.39035960     0.22779377
c     0.67041658     0.60964034     0.77220624
c     0.72789733     0.95216832     0.27006407
c     0.27210263     0.04783162     0.72993594
c     0.22789734     0.54783160     0.27006406
c     0.77210262     0.45216835     0.72993595
c     0.72274405     0.06813966     0.35544643
c     0.27725591     0.93186028     0.64455359
c     0.22274406     0.43186026     0.35544642
c     0.77725591     0.56813968     0.64455359
c     0.62587314     0.87736601     0.39384386
c     0.37412683     0.12263394     0.60615615
c     0.12587315     0.62263391     0.39384386
c     0.87412682     0.37736603     0.60615616
h     0.85395637     0.09423827     0.46989597
h     0.14604360     0.90576167     0.53010405
h     0.35395638     0.40576165     0.46989596
h     0.64604359     0.59423829     0.53010405
h     0.92270436     0.23646323     0.39376637
h     0.07729561     0.76353672     0.60623364
h     0.42270437     0.26353670     0.39376636
h     0.57729560     0.73646325     0.60623365
h     0.91308418     0.86788277     0.40310550
h     0.08691579     0.13211718     0.59689451
h     0.41308419     0.63211715     0.40310550
h     0.58691578     0.36788279     0.59689452
h     0.68562612     0.29093143     0.35314357
h     0.31437385     0.70906851     0.64685644
h     0.18562612     0.20906849     0.35314356
h     0.81437384     0.79093146     0.64685645
h     0.75604649     0.72296412     0.27555567
h     0.24395347     0.27703582     0.72444434
h     0.25604650     0.77703580     0.27555567
h     0.74395347     0.22296415     0.72444434
h     0.62277264     0.96611594     0.23338932
h     0.37722733     0.03388401     0.76661069
h     0.12277265     0.53388398     0.23338932
h     0.87722732     0.46611596     0.76661070
h     0.93503551     0.10432500     0.26389480
h     0.06496446     0.89567494     0.73610521
h     0.43503552     0.39567492     0.26389479
h     0.56496445     0.60432502     0.73610522
h     0.80206556     0.33598785     0.21448614
h     0.19793441     0.66401210     0.78551388
h     0.30206557     0.16401207     0.21448613
h     0.69793440     0.83598787     0.78551388
h     0.65575505     0.93585083     0.00065690
h     0.34424492     0.06414912     0.99934311
h     0.15575506     0.56414909     0.00065690
h     0.84424491     0.43585085     0.99934312
h     0.58303356     0.90965967     0.08973033
h     0.41696640     0.09034028     0.91026969
h     0.08303357     0.59034025     0.08973032
h     0.91696639     0.40965969     0.91026969
h     0.64487001     0.25128845     0.06149690
h     0.35512996     0.74871150     0.93850311
h     0.14487002     0.24871147     0.06149690
h     0.85512995     0.75128847     0.93850311

K_POINTS automatic
2 2 2 1 1 1

CELL_PARAMETERS cubic
   18.644122000000     0.000000000000     0.069850000000
    0.000000000000     8.765873000000     0.000000000000
   -6.371788000000     0.000000000000    31.020183000000
