&control
 title='crystal',
 prefix='crystal',
 pseudo_dir='.',
 calculation='vc-relax',
/
&system
 ibrav=0,
 celldm(1)=1.0,
 nat=    80,
 ntyp=  4,
 ecutwfc=60.0,
 ecutrho=600.0,
 xdm=.true.,
 xdm_a1=0.4073,
 xdm_a2=2.4150,
/
&electrons
 conv_thr = 1d-8,
/
&ions
/
&cell
/
ATOMIC_SPECIES
h      1.007940 h.UPF
c     12.010700 c.UPF
n     14.006700 n.UPF
o     15.999400 o.UPF

ATOMIC_POSITIONS crystal
n     0.04112748     0.20118313     0.37771897
n     0.95887251     0.79881693     0.62228096
n     0.95887439     0.70118347     0.12228238
n     0.04112559     0.29881660     0.87771756
c     0.17552300     0.28592015     0.40604399
c     0.82447699     0.71407992     0.59395594
c     0.82448197     0.78592339     0.09396112
c     0.17551802     0.21407668     0.90603881
c     0.20384219     0.44326234     0.51742362
c     0.79615780     0.55673772     0.48257631
c     0.79617366     0.94326404     0.98256228
c     0.20382632     0.05673602     0.01743765
o     0.15961968     0.45141529     0.62218195
o     0.84038030     0.54858477     0.37781799
o     0.84038249     0.95141499     0.87783580
o     0.15961749     0.04858507     0.12216413
n     0.28728577     0.56304231     0.49954142
n     0.71271422     0.43695775     0.50045851
n     0.71271611     0.06304698     0.00046344
n     0.28728388     0.93695308     0.99953650
c     0.33941495     0.71006186     0.61133117
c     0.66058504     0.28993820     0.38866876
c     0.66058518     0.21006215     0.88866486
c     0.33941480     0.78993791     0.11133507
c     0.47764694     0.77851739     0.62063763
c     0.52235304     0.22148267     0.37936231
c     0.52235651     0.27851765     0.87936923
c     0.47764347     0.72148241     0.12063070
c     0.23018332     0.85704456     0.56693994
c     0.76981666     0.14295550     0.43305999
c     0.76981806     0.35704464     0.93305124
c     0.23018193     0.64295542     0.06694869
o     0.26015021     0.97275232     0.67648076
o     0.73984978     0.02724774     0.32351917
o     0.73985060     0.47274896     0.82351263
o     0.26014938     0.52725110     0.17648730
o     0.11752350     0.85643751     0.42431570
o     0.88247648     0.14356255     0.57568423
o     0.88247936     0.35643613     0.07567684
o     0.11752062     0.64356393     0.92432309
h     0.01720392     0.23802098     0.47158235
h     0.98279607     0.76197908     0.52841758
h     0.98279747     0.73802134     0.02841863
h     0.01720251     0.26197872     0.97158131
h     0.95839592     0.23957923     0.26055759
h     0.04160406     0.76042084     0.73944235
h     0.04160858     0.73957677     0.23944344
h     0.95839140     0.26042329     0.76055649
h     0.05448106     0.06650029     0.38482053
h     0.94551892     0.93349977     0.61517940
h     0.94551941     0.56650103     0.11517880
h     0.05448057     0.43349903     0.88482113
h     0.17056803     0.31607236     0.28539674
h     0.82943196     0.68392771     0.71460319
h     0.82943825     0.81607510     0.21460721
h     0.17056173     0.18392496     0.78539273
h     0.26333684     0.19525452     0.47306690
h     0.73666315     0.80474555     0.52693304
h     0.73666539     0.69526125     0.02693671
h     0.26333460     0.30473881     0.97306322
h     0.30055275     0.55779371     0.39358320
h     0.69944723     0.44220635     0.60641673
h     0.69944999     0.05779494     0.10641283
h     0.30054999     0.94220512     0.89358711
h     0.36018144     0.66536765     0.73630359
h     0.63981854     0.33463241     0.26369634
h     0.63981149     0.16536691     0.76369323
h     0.36018849     0.83463315     0.23630670
h     0.51587221     0.88768274     0.70717910
h     0.48412777     0.11231732     0.29282084
h     0.48412985     0.38768491     0.79282724
h     0.51587014     0.61231515     0.20717270
h     0.55972661     0.67833296     0.66644086
h     0.44027337     0.32166711     0.33355907
h     0.44027632     0.17833378     0.83356717
h     0.55972366     0.82166628     0.16643277
h     0.45990274     0.82258110     0.49674372
h     0.54009724     0.17741896     0.50325622
h     0.54010638     0.32257914     0.00326445
h     0.45989361     0.67742092     0.99673549

K_POINTS automatic
2 2 2 1 1 1

CELL_PARAMETERS cubic
   20.121925000000    -0.000058000000    -0.008619000000
   -0.000040000000    14.690724000000     0.000022000000
   -8.089571000000     0.000038000000    15.039452000000
