&control
 title='crystal',
 prefix='crystal',
 pseudo_dir='.',
 calculation='vc-relax',
/
&system
 ibrav=0,
 celldm(1)=1.0,
 nat=    84,
 ntyp=  5,
 ecutwfc=60.0,
 ecutrho=600.0,
 xdm=.true.,
 xdm_a1=0.4073,
 xdm_a2=2.4150,
/
&electrons
 conv_thr = 1d-8,
/
&ions
/
&cell
/
ATOMIC_SPECIES
h      1.007940 h.UPF
c     12.010700 c.UPF
n     14.006700 n.UPF
o     15.999400 o.UPF
s     32.065000 s.UPF

ATOMIC_POSITIONS crystal
s     0.56430607     0.18805853     0.58117427
s     0.43569396     0.81194145     0.41882571
s     0.06430606     0.31194146     0.08117428
s     0.93569398     0.68805851     0.91882570
o     0.77536422     0.32662452     0.63087916
o     0.22463581     0.67337546     0.36912082
o     0.27536420     0.17337546     0.13087917
o     0.72463583     0.82662450     0.86912081
n     0.66765280     0.60262785     0.55631793
n     0.33234724     0.39737212     0.44368206
n     0.16765278     0.89737213     0.05631794
n     0.83234725     0.10262783     0.94368205
c     0.66990165     0.38351311     0.58866416
c     0.33009839     0.61648686     0.41133583
c     0.16990163     0.11648687     0.08866417
c     0.83009841     0.88351309     0.91133582
c     0.78162100     0.71055704     0.55993725
c     0.21837903     0.28944293     0.44006273
c     0.28162099     0.78944294     0.05993726
c     0.71837905     0.21055702     0.94006272
c     0.84876465     0.53212133     0.63111814
c     0.15123539     0.46787864     0.36888184
c     0.34876463     0.96787865     0.13111815
c     0.65123541     0.03212132     0.86888183
c     0.82836973     0.74376460     0.44682715
c     0.17163030     0.25623537     0.55317283
c     0.32836972     0.75623538     0.94682716
c     0.67163032     0.24376458     0.05317282
c     0.88422050     0.94843569     0.42050230
c     0.11577954     0.05156428     0.57949769
c     0.38422048     0.55156429     0.92050230
c     0.61577956     0.44843568     0.07949768
c     0.93121886     0.97645460     0.31769363
c     0.06878118     0.02354538     0.68230635
c     0.43121884     0.52354538     0.81769364
c     0.56878120     0.47645458     0.18230634
c     0.92134206     0.80138720     0.23997017
c     0.07865798     0.19861277     0.76002981
c     0.42134204     0.69861278     0.73997018
c     0.57865799     0.30138719     0.26002980
c     0.86403694     0.59803245     0.26510112
c     0.13596310     0.40196752     0.73489887
c     0.36403692     0.90196753     0.76510112
c     0.63596312     0.09803244     0.23489886
c     0.81838975     0.56898909     0.36821545
c     0.18161029     0.43101088     0.63178453
c     0.31838973     0.93101089     0.86821546
c     0.68161031     0.06898907     0.13178452
h     0.59692255     0.67164402     0.51496761
h     0.40307749     0.32835595     0.48503237
h     0.09692253     0.82835596     0.01496762
h     0.90307751     0.17164401     0.98503236
h     0.77750272     0.87699530     0.60183119
h     0.22249732     0.12300467     0.39816880
h     0.27750270     0.62300468     0.10183119
h     0.72249733     0.37699528     0.89816879
h     0.93101297     0.48204086     0.59723224
h     0.06898707     0.51795911     0.40276775
h     0.43101295     0.01795912     0.09723224
h     0.56898708     0.98204084     0.90276774
h     0.86185307     0.58614789     0.71659437
h     0.13814697     0.41385209     0.28340561
h     0.36185305     0.91385210     0.21659438
h     0.63814699     0.08614787     0.78340560
h     0.89043462     0.08561207     0.48105162
h     0.10956541     0.91438790     0.51894836
h     0.39043461     0.41438791     0.98105163
h     0.60956543     0.58561205     0.01894835
h     0.97360092     0.13660894     0.29655978
h     0.02639912     0.86339103     0.70344021
h     0.47360090     0.36339104     0.79655978
h     0.52639914     0.63660892     0.20344020
h     0.95652805     0.82424516     0.15926658
h     0.04347198     0.17575481     0.84073340
h     0.45652804     0.67575482     0.65926659
h     0.54347200     0.32424514     0.34073339
h     0.85441949     0.46199088     0.20432157
h     0.14558054     0.53800909     0.79567842
h     0.35441948     0.03800910     0.70432157
h     0.64558056     0.96199087     0.29567841
h     0.77311253     0.41038936     0.38641320
h     0.22688751     0.58961061     0.61358678
h     0.27311251     0.08961062     0.88641321
h     0.72688752     0.91038934     0.11358677

K_POINTS automatic
2 2 2 1 1 1

CELL_PARAMETERS cubic
   21.969107000000     0.000000000000    -0.155684000000
    0.000000000000    10.986633000000     0.000000000000
   -0.577193000000     0.000000000000    23.089164000000
