## FHIaims input file generated by critic2.
lattice_vector 4.0279999944       0.0000000000       0.0000000000       
lattice_vector -2.0140000028      3.4883503248       0.0000000000       
lattice_vector 0.0000000000       0.0000000000       6.6180000000       
atom_frac  0.3333323500       0.6666661700       0.1933363600       Te
atom_frac  0.6666675600       0.3333337800       0.8066636400       Te
atom_frac  0.0000000000       0.0000000000       0.0000000000       Pd
