## FHIaims input file generated by critic2.
lattice_vector 2.5099999970       0.0000000000       0.0000000000       
lattice_vector -1.2550000015      2.1737237626       0.0000000000       
lattice_vector 0.0000000000       0.0000000000       10.6900000000      
atom_frac  0.3333312200       0.6666656100       0.2500000000       B 
atom_frac  0.6666670500       0.3333335200       0.7500000000       B 
atom_frac  0.6666670500       0.3333335200       0.2500000000       N 
atom_frac  0.3333312200       0.6666656100       0.7500000000       N 
