%nprocs=4
%mem=4GB
#p pbepbe aug-cc-pvtz output=wfx scf=(conver=6) int=(grid=ultrafine)

title

0 1
O 3.784000000000000 1.428000000000000 -0.288000000000000
C 3.373000000000000 0.316000000000000 -0.054000000000000
O 3.709000000000000 -0.743000000000000 -0.797000000000000
H 3.297000000000000 -1.549000000000000 -0.404000000000000
C 2.449000000000000 0.007000000000000 1.121000000000000
H 2.226000000000000 0.936000000000000 1.633000000000000
H 2.973000000000000 -0.667000000000000 1.802000000000000
N 1.200000000000000 -0.623000000000000 0.734000000000000
H 0.377000000000000 -0.051000000000000 0.603000000000000
C 1.159000000000000 -1.921000000000000 0.393000000000000
O 2.172000000000000 -2.629000000000000 0.337000000000000
C -0.195000000000000 -2.514000000000000 0.069000000000000
H -0.232000000000000 -3.486000000000000 0.561000000000000
H -0.243000000000000 -2.687000000000000 -1.006000000000000
N -1.315000000000000 -1.684000000000000 0.416000000000000
H -1.487000000000000 -1.375000000000000 1.363000000000000
C -2.248000000000000 -1.318000000000000 -0.499000000000000
O -2.210000000000000 -1.617000000000000 -1.686000000000000
C -3.354000000000000 -0.430000000000000 0.057000000000000
N -3.332000000000000 -0.401000000000000 1.521000000000000
H -3.816000000000000 -1.212000000000000 1.889000000000000
H -3.846000000000000 0.405000000000000 1.856000000000000
H -4.289000000000000 -0.822000000000000 -0.352000000000000
C -3.153000000000000 0.978000000000000 -0.526000000000000
H -3.358000000000000 0.914000000000000 -1.594000000000000
H -3.904000000000000 1.640000000000000 -0.087000000000000
C -1.775000000000000 1.542000000000000 -0.320000000000000
C -0.814000000000000 1.426000000000000 -1.332000000000000
H -1.075000000000000 0.914000000000000 -2.250000000000000
C 0.462000000000000 1.965000000000000 -1.171000000000000
H 1.195000000000000 1.872000000000000 -1.961000000000000
C 0.798000000000000 2.630000000000000 0.008000000000000
H 1.789000000000000 3.045000000000000 0.125000000000000
C -0.147000000000000 2.737000000000000 1.029000000000000
H 0.103000000000000 3.253000000000000 1.947000000000000
C -1.421000000000000 2.195000000000000 0.866000000000000
H -2.152000000000000 2.300000000000000 1.658000000000000

FGG114.wfx

