%nprocs=4
%mem=4GB
#p pbepbe aug-cc-pvtz output=wfx scf=(conver=6) int=(grid=ultrafine)

title

0 1
O 3.265000000000000 -1.219000000000000 1.576000000000000
C 3.119000000000000 -0.448000000000000 0.655000000000000
O 3.192000000000000 -0.839000000000000 -0.620000000000000
H 2.963000000000000 -0.071000000000000 -1.200000000000000
C 2.850000000000000 1.038000000000000 0.863000000000000
H 3.638000000000000 1.611000000000000 0.370000000000000
H 2.875000000000000 1.233000000000000 1.929000000000000
N 1.561000000000000 1.466000000000000 0.349000000000000
H 0.813000000000000 1.756000000000000 0.979000000000000
C 1.335000000000000 1.600000000000000 -0.964000000000000
O 2.155000000000000 1.278000000000000 -1.836000000000000
C 0.002000000000000 2.238000000000000 -1.332000000000000
H -0.044000000000000 2.273000000000000 -2.415000000000000
H -0.008000000000000 3.256000000000000 -0.939000000000000
N -1.167000000000000 1.542000000000000 -0.837000000000000
H -1.755000000000000 0.999000000000000 -1.455000000000000
C -1.581000000000000 1.622000000000000 0.439000000000000
O -0.938000000000000 2.182000000000000 1.335000000000000
C -2.910000000000000 0.948000000000000 0.730000000000000
N -3.684000000000000 0.789000000000000 -0.499000000000000
H -4.068000000000000 1.684000000000000 -0.783000000000000
H -4.477000000000000 0.182000000000000 -0.325000000000000
H -3.395000000000000 1.579000000000000 1.480000000000000
C -2.643000000000000 -0.421000000000000 1.381000000000000
H -2.182000000000000 -0.236000000000000 2.352000000000000
H -3.612000000000000 -0.892000000000000 1.567000000000000
C -1.763000000000000 -1.327000000000000 0.568000000000000
C -0.420000000000000 -1.504000000000000 0.921000000000000
H -0.030000000000000 -1.007000000000000 1.801000000000000
C 0.416000000000000 -2.331000000000000 0.172000000000000
H 1.443000000000000 -2.473000000000000 0.474000000000000
C -0.081000000000000 -2.979000000000000 -0.957000000000000
H 0.568000000000000 -3.616000000000000 -1.542000000000000
C -1.417000000000000 -2.816000000000000 -1.318000000000000
H -1.813000000000000 -3.330000000000000 -2.184000000000000
C -2.252000000000000 -2.002000000000000 -0.556000000000000
H -3.292000000000000 -1.897000000000000 -0.835000000000000

FGG224.wfx

