%nprocs=4
%mem=4GB
#p pbepbe aug-cc-pvtz output=wfx scf=(conver=6) int=(grid=ultrafine)

title

0 1
O -2.543000000000000 -2.593000000000000 0.779000000000000
C -2.741000000000000 -1.438000000000000 0.481000000000000
O -3.262000000000000 -0.560000000000000 1.343000000000000
H -3.401000000000000 0.299000000000000 0.875000000000000
C -2.440000000000000 -0.887000000000000 -0.911000000000000
H -3.392000000000000 -0.653000000000000 -1.393000000000000
H -1.937000000000000 -1.666000000000000 -1.473000000000000
N -1.600000000000000 0.298000000000000 -0.920000000000000
H -0.655000000000000 0.254000000000000 -1.293000000000000
C -2.067000000000000 1.500000000000000 -0.550000000000000
O -3.201000000000000 1.674000000000000 -0.081000000000000
C -1.101000000000000 2.660000000000000 -0.736000000000000
H -1.602000000000000 3.555000000000000 -0.383000000000000
H -0.870000000000000 2.764000000000000 -1.798000000000000
N 0.138000000000000 2.483000000000000 -0.009000000000000
H 0.339000000000000 3.003000000000000 0.833000000000000
C 1.144000000000000 1.732000000000000 -0.500000000000000
O 1.054000000000000 1.083000000000000 -1.545000000000000
C 2.383000000000000 1.683000000000000 0.375000000000000
N 2.486000000000000 2.897000000000000 1.185000000000000
H 2.852000000000000 3.664000000000000 0.632000000000000
H 3.139000000000000 2.749000000000000 1.944000000000000
H 3.224000000000000 1.519000000000000 -0.304000000000000
C 2.273000000000000 0.478000000000000 1.325000000000000
H 3.200000000000000 0.437000000000000 1.906000000000000
H 1.458000000000000 0.672000000000000 2.025000000000000
C 2.050000000000000 -0.825000000000000 0.616000000000000
C 3.060000000000000 -1.384000000000000 -0.172000000000000
H 4.019000000000000 -0.885000000000000 -0.246000000000000
C 2.849000000000000 -2.574000000000000 -0.861000000000000
H 3.640000000000000 -2.993000000000000 -1.467000000000000
C 1.620000000000000 -3.225000000000000 -0.765000000000000
H 1.456000000000000 -4.154000000000000 -1.295000000000000
C 0.607000000000000 -2.686000000000000 0.026000000000000
H -0.346000000000000 -3.187000000000000 0.127000000000000
C 0.825000000000000 -1.489000000000000 0.709000000000000
H 0.040000000000000 -1.078000000000000 1.333000000000000

FGG380.wfx

