%nprocs=4
%mem=4GB
#p pbepbe aug-cc-pvtz output=wfx scf=(conver=6) int=(grid=ultrafine)

title

0 1
O -1.243000000000000 -1.485000000000000 0.285000000000000
C -2.219000000000000 -2.010000000000000 -0.204000000000000
O -2.452000000000000 -3.335000000000000 -0.158000000000000
H -1.710000000000000 -3.723000000000000 0.330000000000000
C -3.321000000000000 -1.296000000000000 -0.962000000000000
H -4.273000000000000 -1.610000000000000 -0.541000000000000
H -3.287000000000000 -1.624000000000000 -1.999000000000000
N -3.194000000000000 0.130000000000000 -0.882000000000000
H -2.474000000000000 0.582000000000000 -1.437000000000000
C -3.456000000000000 0.717000000000000 0.325000000000000
O -4.071000000000000 0.162000000000000 1.224000000000000
C -2.830000000000000 2.095000000000000 0.475000000000000
H -3.290000000000000 2.600000000000000 1.317000000000000
H -2.951000000000000 2.687000000000000 -0.431000000000000
N -1.412000000000000 1.922000000000000 0.726000000000000
H -1.081000000000000 1.666000000000000 1.648000000000000
C -0.556000000000000 1.637000000000000 -0.277000000000000
O -0.863000000000000 1.697000000000000 -1.470000000000000
C 0.842000000000000 1.240000000000000 0.188000000000000
N 0.763000000000000 0.680000000000000 1.535000000000000
H 1.697000000000000 0.574000000000000 1.913000000000000
H 0.364000000000000 -0.253000000000000 1.475000000000000
H 1.426000000000000 2.163000000000000 0.253000000000000
C 1.492000000000000 0.329000000000000 -0.863000000000000
H 0.879000000000000 -0.568000000000000 -0.962000000000000
H 1.481000000000000 0.844000000000000 -1.822000000000000
C 2.890000000000000 -0.033000000000000 -0.460000000000000
C 3.159000000000000 -1.233000000000000 0.205000000000000
H 2.350000000000000 -1.933000000000000 0.375000000000000
C 4.450000000000000 -1.541000000000000 0.633000000000000
H 4.640000000000000 -2.477000000000000 1.141000000000000
C 5.492000000000000 -0.646000000000000 0.404000000000000
H 6.495000000000000 -0.884000000000000 0.733000000000000
C 5.238000000000000 0.553000000000000 -0.259000000000000
H 6.045000000000000 1.249000000000000 -0.448000000000000
C 3.947000000000000 0.855000000000000 -0.685000000000000
H 3.756000000000000 1.785000000000000 -1.207000000000000

FGG300.wfx

