%nprocs=4
%mem=4GB
#p pbepbe aug-cc-pvtz output=wfx scf=(conver=6) int=(grid=ultrafine)

title

0 1
O -3.542000000000000 1.728000000000000 0.307000000000000
C -3.284000000000000 0.574000000000000 0.058000000000000
O -3.757000000000000 -0.441000000000000 0.787000000000000
H -3.443000000000000 -1.290000000000000 0.394000000000000
C -2.406000000000000 0.162000000000000 -1.121000000000000
H -2.065000000000000 1.061000000000000 -1.621000000000000
H -3.009000000000000 -0.433000000000000 -1.809000000000000
N -1.246000000000000 -0.624000000000000 -0.738000000000000
H -0.355000000000000 -0.166000000000000 -0.618000000000000
C -1.357000000000000 -1.918000000000000 -0.396000000000000
O -2.445000000000000 -2.503000000000000 -0.332000000000000
C -0.070000000000000 -2.652000000000000 -0.073000000000000
H -0.129000000000000 -3.626000000000000 -0.558000000000000
H -0.040000000000000 -2.816000000000000 1.004000000000000
N 1.123000000000000 -1.939000000000000 -0.436000000000000
H 1.436000000000000 -1.861000000000000 -1.394000000000000
C 2.011000000000000 -1.501000000000000 0.493000000000000
O 1.881000000000000 -1.658000000000000 1.700000000000000
C 3.187000000000000 -0.720000000000000 -0.093000000000000
N 3.099000000000000 -0.642000000000000 -1.551000000000000
H 2.594000000000000 0.196000000000000 -1.819000000000000
H 4.024000000000000 -0.566000000000000 -1.954000000000000
H 4.083000000000000 -1.284000000000000 0.167000000000000
C 3.244000000000000 0.648000000000000 0.620000000000000
H 3.385000000000000 0.469000000000000 1.685000000000000
H 4.110000000000000 1.194000000000000 0.243000000000000
C 1.984000000000000 1.435000000000000 0.391000000000000
C 0.901000000000000 1.312000000000000 1.273000000000000
H 1.002000000000000 0.679000000000000 2.145000000000000
C -0.293000000000000 1.990000000000000 1.035000000000000
H -1.120000000000000 1.893000000000000 1.726000000000000
C -0.431000000000000 2.798000000000000 -0.094000000000000
H -1.366000000000000 3.311000000000000 -0.272000000000000
C 0.642000000000000 2.939000000000000 -0.972000000000000
H 0.555000000000000 3.582000000000000 -1.838000000000000
C 1.841000000000000 2.266000000000000 -0.727000000000000
H 2.684000000000000 2.416000000000000 -1.392000000000000

FGG357.wfx

