%nprocs=4
%mem=4GB
#p pbepbe aug-cc-pvtz output=wfx scf=(conver=6) int=(grid=ultrafine)

title

0 1
O -2.447000000000000 0.883000000000000 1.775000000000000
C -2.938000000000000 0.993000000000000 0.676000000000000
O -3.762000000000000 2.004000000000000 0.328000000000000
H -3.856000000000000 2.552000000000000 1.122000000000000
C -2.717000000000000 0.061000000000000 -0.480000000000000
H -2.303000000000000 0.635000000000000 -1.314000000000000
H -3.681000000000000 -0.319000000000000 -0.820000000000000
N -1.847000000000000 -1.008000000000000 -0.082000000000000
H -1.362000000000000 -0.963000000000000 0.808000000000000
C -1.536000000000000 -1.979000000000000 -0.971000000000000
O -2.023000000000000 -2.045000000000000 -2.095000000000000
C -0.512000000000000 -2.983000000000000 -0.459000000000000
H -0.462000000000000 -3.796000000000000 -1.176000000000000
H -0.819000000000000 -3.365000000000000 0.515000000000000
N 0.801000000000000 -2.387000000000000 -0.322000000000000
H 1.518000000000000 -2.495000000000000 -1.025000000000000
C 1.152000000000000 -1.689000000000000 0.771000000000000
O 0.390000000000000 -1.472000000000000 1.717000000000000
C 2.598000000000000 -1.195000000000000 0.775000000000000
N 3.202000000000000 -1.359000000000000 -0.546000000000000
H 2.985000000000000 -0.548000000000000 -1.117000000000000
H 4.209000000000000 -1.398000000000000 -0.467000000000000
H 3.124000000000000 -1.859000000000000 1.465000000000000
C 2.656000000000000 0.233000000000000 1.350000000000000
H 2.164000000000000 0.226000000000000 2.322000000000000
H 3.706000000000000 0.496000000000000 1.498000000000000
C 2.002000000000000 1.231000000000000 0.439000000000000
C 0.641000000000000 1.534000000000000 0.565000000000000
H 0.068000000000000 1.082000000000000 1.364000000000000
C 0.033000000000000 2.430000000000000 -0.311000000000000
H -1.013000000000000 2.681000000000000 -0.189000000000000
C 0.767000000000000 3.026000000000000 -1.337000000000000
H 0.290000000000000 3.720000000000000 -2.015000000000000
C 2.123000000000000 2.739000000000000 -1.467000000000000
H 2.707000000000000 3.211000000000000 -2.246000000000000
C 2.734000000000000 1.853000000000000 -0.580000000000000
H 3.798000000000000 1.661000000000000 -0.663000000000000

FGG470.wfx

