%nprocs=4
%mem=4GB
#p pbepbe aug-cc-pvtz output=wfx scf=(conver=6) int=(grid=ultrafine)

title

0 1
O 3.751000000000000 -1.438000000000000 -0.404000000000000
C 3.370000000000000 -0.309000000000000 -0.200000000000000
O 3.725000000000000 0.719000000000000 -0.980000000000000
H 3.322000000000000 1.542000000000000 -0.615000000000000
C 2.465000000000000 0.063000000000000 0.969000000000000
H 2.993000000000000 0.774000000000000 1.607000000000000
H 2.246000000000000 -0.836000000000000 1.531000000000000
N 1.212000000000000 0.667000000000000 0.548000000000000
H 0.363000000000000 0.120000000000000 0.570000000000000
C 1.171000000000000 1.960000000000000 0.191000000000000
O 2.190000000000000 2.654000000000000 0.084000000000000
C -0.195000000000000 2.572000000000000 -0.040000000000000
H -0.063000000000000 3.376000000000000 -0.761000000000000
H -0.525000000000000 3.004000000000000 0.906000000000000
N -1.217000000000000 1.655000000000000 -0.469000000000000
H -1.263000000000000 1.323000000000000 -1.422000000000000
C -2.254000000000000 1.299000000000000 0.332000000000000
O -2.344000000000000 1.596000000000000 1.516000000000000
C -3.315000000000000 0.450000000000000 -0.357000000000000
N -3.172000000000000 0.496000000000000 -1.814000000000000
H -3.746000000000000 -0.227000000000000 -2.232000000000000
H -3.531000000000000 1.376000000000000 -2.167000000000000
H -4.274000000000000 0.843000000000000 -0.005000000000000
C -3.196000000000000 -0.991000000000000 0.160000000000000
H -3.552000000000000 -0.997000000000000 1.189000000000000
H -3.880000000000000 -1.617000000000000 -0.421000000000000
C -1.806000000000000 -1.566000000000000 0.126000000000000
C -1.142000000000000 -1.844000000000000 -1.076000000000000
H -1.626000000000000 -1.624000000000000 -2.017000000000000
C 0.139000000000000 -2.394000000000000 -1.071000000000000
H 0.644000000000000 -2.593000000000000 -2.006000000000000
C 0.771000000000000 -2.700000000000000 0.134000000000000
H 1.766000000000000 -3.122000000000000 0.130000000000000
C 0.118000000000000 -2.429000000000000 1.336000000000000
H 0.594000000000000 -2.666000000000000 2.278000000000000
C -1.152000000000000 -1.851000000000000 1.330000000000000
H -1.651000000000000 -1.633000000000000 2.266000000000000

FGG80.wfx

