%nprocs=4
%mem=4GB
#p pbepbe aug-cc-pvtz output=wfx scf=(conver=6) int=(grid=ultrafine)

title

0 1
O -0.544820000000000 0.901210000000000 5.358870000000000
C -0.740050000000000 0.204650000000000 4.392210000000000
O -1.970060000000000 -0.165560000000000 4.014860000000000
H -1.903420000000000 -0.716870000000000 3.200160000000000
C 0.392300000000000 -0.341120000000000 3.512690000000000
C 1.748360000000000 0.080730000000000 4.035000000000000
H 2.537300000000000 -0.340940000000000 3.415180000000000
H 1.830660000000000 1.165500000000000 4.033360000000000
H 1.874780000000000 -0.257450000000000 5.059060000000000
H 0.298300000000000 -1.431100000000000 3.511310000000000
N 0.244520000000000 0.109790000000000 2.132630000000000
H 0.939720000000000 0.740490000000000 1.732970000000000
C -0.624210000000000 -0.453480000000000 1.281130000000000
O -1.488480000000000 -1.271710000000000 1.625190000000000
C -0.462940000000000 0.004220000000000 -0.167610000000000
H -0.465300000000000 1.098350000000000 -0.168120000000000
N 0.818640000000000 -0.414040000000000 -0.703190000000000
H 0.872930000000000 -1.126320000000000 -1.421830000000000
C 1.939300000000000 0.310570000000000 -0.532910000000000
O 2.037000000000000 1.251900000000000 0.259570000000000
C 3.107550000000000 -0.127500000000000 -1.398040000000000
H 3.793770000000000 -0.675120000000000 -0.752330000000000
H 3.618910000000000 0.786330000000000 -1.706590000000000
N 2.677090000000000 -1.003320000000000 -2.484500000000000
H 3.459660000000000 -1.529790000000000 -2.847480000000000
H 2.304110000000000 -0.459120000000000 -3.253380000000000
C -1.587830000000000 -0.522210000000000 -1.052830000000000
H -1.637650000000000 -1.606750000000000 -0.954230000000000
H -2.531490000000000 -0.128310000000000 -0.676500000000000
C -1.355520000000000 -0.122950000000000 -2.482330000000000
C -0.911880000000000 -1.056060000000000 -3.422770000000000
H -0.804870000000000 -2.094190000000000 -3.131160000000000
C -0.617580000000000 -0.670750000000000 -4.730230000000000
H -0.282520000000000 -1.408630000000000 -5.446760000000000
C -0.763630000000000 0.660830000000000 -5.112670000000000
H -0.539720000000000 0.963250000000000 -6.126370000000000
C -1.213610000000000 1.600300000000000 -4.184920000000000
H -1.339530000000000 2.633710000000000 -4.477840000000000
C -1.505960000000000 1.209060000000000 -2.881310000000000
H -1.857390000000000 1.943720000000000 -2.166510000000000

GFA07.wfx

