%nprocs=4
%mem=4GB
#p pbepbe aug-cc-pvtz output=wfx scf=(conver=6) int=(grid=ultrafine)

title

0 1
O -3.023860000000000 0.549220000000000 -1.567800000000000
C -3.013800000000000 1.266740000000000 -0.593070000000000
O -4.129870000000000 1.691690000000000 0.030700000000000
H -4.870170000000000 1.314070000000000 -0.468540000000000
C -1.772850000000000 1.831160000000000 0.052610000000000
C -1.655130000000000 3.327690000000000 -0.231670000000000
H -2.508790000000000 3.862760000000000 0.178570000000000
H -0.744280000000000 3.696120000000000 0.232600000000000
H -1.603600000000000 3.500640000000000 -1.305400000000000
H -1.836550000000000 1.677240000000000 1.131310000000000
N -0.648020000000000 1.085170000000000 -0.461850000000000
H -0.858710000000000 0.409420000000000 -1.183160000000000
C 0.467420000000000 0.937390000000000 0.288120000000000
O 0.699340000000000 1.607270000000000 1.292180000000000
C 1.392580000000000 -0.179570000000000 -0.147560000000000
H 1.253240000000000 -0.423290000000000 -1.201570000000000
N 2.751610000000000 0.245680000000000 0.047510000000000
H 2.964840000000000 0.917550000000000 0.773110000000000
C 3.771900000000000 -0.385460000000000 -0.572580000000000
O 3.621150000000000 -1.291790000000000 -1.387220000000000
C 5.154660000000000 0.108110000000000 -0.177950000000000
H 5.745590000000000 0.142130000000000 -1.095510000000000
H 5.587740000000000 -0.671280000000000 0.448610000000000
N 5.111700000000000 1.352630000000000 0.584290000000000
H 5.970720000000000 1.480050000000000 1.100760000000000
H 5.028230000000000 2.144560000000000 -0.039770000000000
C 1.063720000000000 -1.432040000000000 0.699050000000000
H 1.713390000000000 -2.234980000000000 0.350560000000000
H 1.315000000000000 -1.199700000000000 1.734800000000000
C -0.383720000000000 -1.802570000000000 0.577890000000000
C -0.848540000000000 -2.493630000000000 -0.545610000000000
H -0.137210000000000 -2.837320000000000 -1.287700000000000
C -2.208960000000000 -2.742450000000000 -0.715600000000000
H -2.553770000000000 -3.275910000000000 -1.590810000000000
C -3.123990000000000 -2.304580000000000 0.240030000000000
H -4.179630000000000 -2.499060000000000 0.108400000000000
C -2.672010000000000 -1.620540000000000 1.367760000000000
H -3.375640000000000 -1.285980000000000 2.118790000000000
C -1.310810000000000 -1.370830000000000 1.532310000000000
H -0.958390000000000 -0.831930000000000 2.404020000000000

GFA03.wfx

