%nprocs=4
%mem=4GB
#p pbepbe aug-cc-pvtz output=wfx scf=(conver=6) int=(grid=ultrafine)

title

0 1
O 1.715300000000000 1.459650000000000 -2.020420000000000
C 2.312050000000000 0.431120000000000 -2.233750000000000
O 3.539890000000000 0.383070000000000 -2.791720000000000
H 3.794210000000000 1.305150000000000 -2.948480000000000
C 1.782470000000000 -0.971280000000000 -1.984040000000000
C 1.213100000000000 -1.533060000000000 -3.281130000000000
H 0.375330000000000 -0.921730000000000 -3.617800000000000
H 1.974160000000000 -1.543680000000000 -4.057070000000000
H 0.859870000000000 -2.549030000000000 -3.118470000000000
H 2.618860000000000 -1.577020000000000 -1.640230000000000
N 0.757330000000000 -0.959130000000000 -0.971390000000000
H -0.202160000000000 -0.872000000000000 -1.276240000000000
C 1.066400000000000 -0.483140000000000 0.265110000000000
O 2.221960000000000 -0.271380000000000 0.615840000000000
C -0.124690000000000 -0.217720000000000 1.167940000000000
H -0.780540000000000 -1.090630000000000 1.189280000000000
N 0.372400000000000 0.017050000000000 2.492840000000000
H 1.352820000000000 0.224660000000000 2.630280000000000
C -0.443240000000000 -0.098910000000000 3.559130000000000
O -1.637580000000000 -0.381180000000000 3.474340000000000
C 0.217720000000000 0.172640000000000 4.900540000000000
H -0.220360000000000 -0.532610000000000 5.609640000000000
H -0.102970000000000 1.169020000000000 5.204270000000000
N 1.674890000000000 0.154250000000000 4.818770000000000
H 2.018840000000000 -0.796170000000000 4.861340000000000
H 2.080110000000000 0.645230000000000 5.603180000000000
C -0.953740000000000 0.983300000000000 0.649970000000000
H -1.572550000000000 1.301350000000000 1.489140000000000
H -0.277970000000000 1.797460000000000 0.384420000000000
C -1.833980000000000 0.615370000000000 -0.509690000000000
C -1.600600000000000 1.110190000000000 -1.797110000000000
H -0.775030000000000 1.790620000000000 -1.958810000000000
C -2.406960000000000 0.715050000000000 -2.864750000000000
H -2.218390000000000 1.109700000000000 -3.854430000000000
C -3.453690000000000 -0.181850000000000 -2.658460000000000
H -4.078110000000000 -0.488610000000000 -3.486390000000000
C -3.697940000000000 -0.675040000000000 -1.376650000000000
H -4.515120000000000 -1.363070000000000 -1.207270000000000
C -2.894700000000000 -0.277950000000000 -0.310580000000000
H -3.087850000000000 -0.651220000000000 0.688810000000000

GFA04.wfx

