%nprocs=4
%mem=4GB
#p pbepbe aug-cc-pvtz output=wfx scf=(conver=6) int=(grid=ultrafine)

title

0 1
O -5.152720000000000 0.538490000000000 -0.153880000000000
C -4.003270000000000 0.907130000000000 -0.150950000000000
O -3.600850000000000 1.989070000000000 0.528660000000000
H -2.630250000000000 2.102410000000000 0.402060000000000
C -2.892390000000000 0.191990000000000 -0.931050000000000
C -3.435500000000000 -0.987310000000000 -1.708580000000000
H -4.224990000000000 -0.660420000000000 -2.378700000000000
H -2.640220000000000 -1.452870000000000 -2.287380000000000
H -3.862800000000000 -1.721640000000000 -1.028880000000000
H -2.448230000000000 0.930610000000000 -1.603860000000000
N -1.832490000000000 -0.264430000000000 -0.039310000000000
H -1.775890000000000 -1.250880000000000 0.219790000000000
C -0.896020000000000 0.558230000000000 0.449760000000000
O -0.935350000000000 1.789820000000000 0.304750000000000
C 0.203370000000000 -0.141690000000000 1.257020000000000
H -0.303670000000000 -0.579210000000000 2.122810000000000
N 0.821430000000000 -1.230460000000000 0.523980000000000
H 1.756900000000000 -1.117910000000000 0.146300000000000
C 0.279600000000000 -2.452810000000000 0.398230000000000
O -0.856710000000000 -2.752790000000000 0.779750000000000
C 1.183800000000000 -3.480570000000000 -0.261200000000000
H 0.555570000000000 -4.063160000000000 -0.937070000000000
H 1.501800000000000 -4.155220000000000 0.533190000000000
N 2.359720000000000 -2.873540000000000 -0.875820000000000
H 3.127640000000000 -3.528590000000000 -0.906770000000000
H 2.167300000000000 -2.602830000000000 -1.831140000000000
C 1.279190000000000 0.838140000000000 1.740770000000000
H 0.776470000000000 1.747890000000000 2.063770000000000
H 1.769600000000000 0.393570000000000 2.607020000000000
C 2.318130000000000 1.145200000000000 0.694840000000000
C 3.527460000000000 0.440440000000000 0.693220000000000
H 3.717640000000000 -0.287980000000000 1.472800000000000
C 4.491610000000000 0.669780000000000 -0.286880000000000
H 5.420580000000000 0.116270000000000 -0.268290000000000
C 4.258230000000000 1.615930000000000 -1.281250000000000
H 5.004680000000000 1.801490000000000 -2.041340000000000
C 3.060790000000000 2.330690000000000 -1.284350000000000
H 2.877780000000000 3.074350000000000 -2.048220000000000
C 2.096250000000000 2.097360000000000 -0.307280000000000
H 1.165290000000000 2.646060000000000 -0.313220000000000

GFA11.wfx

