%nprocs=4
%mem=4GB
#p pbepbe aug-cc-pvtz output=wfx scf=(conver=6) int=(grid=ultrafine)

title

0 1
O -0.403680000000000 1.134680000000000 3.868890000000000
C 0.385120000000000 0.340670000000000 3.419660000000000
O 1.418150000000000 -0.172190000000000 4.129860000000000
H 1.359880000000000 0.235500000000000 5.007270000000000
C 0.404610000000000 -0.185550000000000 1.998560000000000
H 0.560050000000000 -1.263080000000000 2.043990000000000
N -0.850750000000000 0.046100000000000 1.345860000000000
H -1.050350000000000 0.964020000000000 0.958000000000000
C -1.643760000000000 -0.976510000000000 0.942890000000000
O -1.455290000000000 -2.155350000000000 1.227050000000000
C -2.757160000000000 -0.521450000000000 0.008210000000000
H -3.262790000000000 0.356060000000000 0.409750000000000
H -3.463980000000000 -1.336320000000000 -0.108260000000000
N -2.198790000000000 -0.177140000000000 -1.284170000000000
H -2.065300000000000 -0.867880000000000 -2.011500000000000
C -1.568460000000000 0.991700000000000 -1.497670000000000
O -1.507970000000000 1.909770000000000 -0.674420000000000
C -0.879880000000000 1.100420000000000 -2.844620000000000
H 0.183820000000000 1.167710000000000 -2.616040000000000
H -1.171310000000000 2.057880000000000 -3.277860000000000
N -1.132300000000000 -0.047190000000000 -3.713760000000000
H -0.271200000000000 -0.359640000000000 -4.139080000000000
H -1.771170000000000 0.191540000000000 -4.459150000000000
C 1.548410000000000 0.499440000000000 1.242210000000000
H 1.376160000000000 1.579290000000000 1.260150000000000
H 2.476860000000000 0.317560000000000 1.787280000000000
C 1.712090000000000 0.056210000000000 -0.190770000000000
C 2.439550000000000 0.872430000000000 -1.064490000000000
H 2.816770000000000 1.823480000000000 -0.708350000000000
C 2.693730000000000 0.477960000000000 -2.375830000000000
H 3.270410000000000 1.119480000000000 -3.028730000000000
C 2.204610000000000 -0.742560000000000 -2.842030000000000
H 2.410960000000000 -1.061060000000000 -3.855560000000000
C 1.457550000000000 -1.552130000000000 -1.988650000000000
H 1.067780000000000 -2.498120000000000 -2.340140000000000
C 1.215220000000000 -1.159120000000000 -0.671670000000000
H 0.641930000000000 -1.814450000000000 -0.029030000000000

GGF04.wfx

