%nprocs=4
%mem=4GB
#p pbepbe aug-cc-pvtz output=wfx scf=(conver=6) int=(grid=ultrafine)

title

0 1
O -4.269340000000000 -0.603130000000000 -1.303180000000000
C -3.491690000000000 -0.173380000000000 -0.483790000000000
O -3.890320000000000 0.462140000000000 0.621360000000000
H -3.101150000000000 0.696900000000000 1.170240000000000
C -1.985130000000000 -0.393920000000000 -0.629410000000000
H -1.835540000000000 -0.696740000000000 -1.662280000000000
N -1.179160000000000 0.804870000000000 -0.444130000000000
H -0.539800000000000 1.076940000000000 -1.192760000000000
C -0.962450000000000 1.399460000000000 0.737700000000000
O -1.603280000000000 1.155750000000000 1.771180000000000
C 0.144590000000000 2.444250000000000 0.716390000000000
H 0.171930000000000 2.911930000000000 1.694900000000000
H -0.094340000000000 3.195720000000000 -0.038570000000000
N 1.444670000000000 1.879510000000000 0.423370000000000
H 2.158840000000000 1.784200000000000 1.132910000000000
C 1.830240000000000 1.556130000000000 -0.822300000000000
O 1.094220000000000 1.622180000000000 -1.812230000000000
C 3.279070000000000 1.124510000000000 -0.943790000000000
H 3.787410000000000 1.926650000000000 -1.478450000000000
H 3.289250000000000 0.247360000000000 -1.593250000000000
N 3.909770000000000 0.926730000000000 0.357910000000000
H 4.904620000000000 1.093120000000000 0.300760000000000
H 3.780920000000000 -0.032740000000000 0.653940000000000
C -1.551210000000000 -1.542200000000000 0.300300000000000
H -1.869740000000000 -1.330660000000000 1.319320000000000
H -2.078490000000000 -2.438680000000000 -0.032070000000000
C -0.065560000000000 -1.761710000000000 0.273640000000000
C 0.582790000000000 -2.148220000000000 -0.904600000000000
H 0.008820000000000 -2.285290000000000 -1.813160000000000
C 1.954520000000000 -2.386180000000000 -0.918530000000000
H 2.436690000000000 -2.703050000000000 -1.833620000000000
C 2.699860000000000 -2.245480000000000 0.253110000000000
H 3.759040000000000 -2.469350000000000 0.251270000000000
C 2.068260000000000 -1.838440000000000 1.427900000000000
H 2.636490000000000 -1.731460000000000 2.342940000000000
C 0.696300000000000 -1.588120000000000 1.431700000000000
H 0.204120000000000 -1.274200000000000 2.343840000000000

GGF14.wfx

