%nprocs=4
%mem=4GB
#p pbepbe aug-cc-pvtz output=wfx scf=(conver=6) int=(grid=ultrafine)

title

0 1
O 3.833300000000000 -1.491530000000000 -1.005280000000000
C 3.346160000000000 -0.687520000000000 -0.247190000000000
O 4.063920000000000 0.279540000000000 0.335290000000000
H 3.467610000000000 0.822350000000000 0.903930000000000
C 1.864980000000000 -0.693140000000000 0.145030000000000
H 1.829120000000000 -0.758510000000000 1.236560000000000
N 1.216780000000000 0.555770000000000 -0.221510000000000
H 0.562960000000000 0.589130000000000 -1.002320000000000
C 1.311990000000000 1.646380000000000 0.555360000000000
O 2.115010000000000 1.740350000000000 1.493430000000000
C 0.347820000000000 2.767450000000000 0.205840000000000
H 0.600030000000000 3.151660000000000 -0.783770000000000
H 0.480920000000000 3.554800000000000 0.940530000000000
N -1.034140000000000 2.341990000000000 0.196350000000000
H -1.638090000000000 2.462980000000000 0.997950000000000
C -1.583200000000000 1.700180000000000 -0.851610000000000
O -0.951620000000000 1.378750000000000 -1.862180000000000
C -3.066770000000000 1.423730000000000 -0.706470000000000
H -3.270680000000000 0.509200000000000 -1.263640000000000
H -3.586400000000000 2.240420000000000 -1.209210000000000
N -3.466190000000000 1.394030000000000 0.697760000000000
H -4.462110000000000 1.544580000000000 0.784320000000000
H -3.274430000000000 0.472780000000000 1.077410000000000
C 1.118670000000000 -1.858750000000000 -0.481090000000000
H 1.208490000000000 -1.795110000000000 -1.565980000000000
H 1.625630000000000 -2.778070000000000 -0.186950000000000
C -0.330900000000000 -1.897620000000000 -0.075520000000000
C -0.700150000000000 -1.935780000000000 1.274400000000000
H 0.063950000000000 -1.923660000000000 2.041840000000000
C -2.039660000000000 -2.009420000000000 1.648380000000000
H -2.303680000000000 -2.050450000000000 2.696800000000000
C -3.036990000000000 -2.056850000000000 0.672540000000000
H -4.076600000000000 -2.143060000000000 0.959710000000000
C -2.681770000000000 -2.015030000000000 -0.674660000000000
H -3.445610000000000 -2.061220000000000 -1.439640000000000
C -1.339340000000000 -1.924990000000000 -1.041780000000000
H -1.070200000000000 -1.883480000000000 -2.089370000000000

GGF15.wfx

