%nprocs=4
%mem=4GB
#p pbepbe aug-cc-pvtz output=wfx scf=(conver=6) int=(grid=ultrafine)

title

0 1
O 0.734240000000000 -2.988150000000000 -0.603550000000000
C 1.514290000000000 -2.066560000000000 -0.524640000000000
O 2.304840000000000 -1.892870000000000 0.539840000000000
H 2.752280000000000 -1.011320000000000 0.457010000000000
C 1.691120000000000 -1.031330000000000 -1.635550000000000
H 1.088990000000000 -1.345220000000000 -2.480930000000000
H 2.742510000000000 -1.006920000000000 -1.927420000000000
N 1.280650000000000 0.306330000000000 -1.249190000000000
H 0.388570000000000 0.680920000000000 -1.546940000000000
C 1.939570000000000 1.032580000000000 -0.336140000000000
O 2.965950000000000 0.639950000000000 0.240420000000000
C 1.302180000000000 2.364590000000000 0.011840000000000
H 2.123610000000000 3.049480000000000 0.240980000000000
N 0.436370000000000 2.812420000000000 -1.075200000000000
H -0.120400000000000 3.598660000000000 -0.762860000000000
H 0.993430000000000 3.145140000000000 -1.854230000000000
C 0.467340000000000 2.156310000000000 1.299600000000000
H -0.152180000000000 3.045930000000000 1.444210000000000
H 1.161810000000000 2.107250000000000 2.138560000000000
C -0.342920000000000 0.904080000000000 1.264540000000000
C 0.059420000000000 -0.278800000000000 1.851480000000000
H 0.913620000000000 -0.469860000000000 2.479300000000000
N -0.789590000000000 -1.293420000000000 1.496150000000000
H -0.599630000000000 -2.270910000000000 1.645320000000000
C -1.746930000000000 -0.803200000000000 0.646940000000000
C -2.794870000000000 -1.463380000000000 0.001810000000000
H -2.943370000000000 -2.528480000000000 0.118970000000000
C -3.633260000000000 -0.701850000000000 -0.796950000000000
H -4.454490000000000 -1.179690000000000 -1.313300000000000
C -3.434210000000000 0.685270000000000 -0.946640000000000
H -4.114250000000000 1.250270000000000 -1.569760000000000
C -2.386490000000000 1.336300000000000 -0.315630000000000
H -2.245610000000000 2.399090000000000 -0.452290000000000
C -1.508850000000000 0.592460000000000 0.493720000000000

WG03.wfx

