%nprocs=4
%mem=4GB
#p pbepbe aug-cc-pvtz output=wfx scf=(conver=6) int=(grid=ultrafine)

title

0 1
O 0.754860000000000 -0.317860000000000 -3.951510000000000
C -0.419110000000000 -0.879740000000000 -3.643990000000000
O -1.150830000000000 -1.356490000000000 -4.478170000000000
H 1.190720000000000 -0.010230000000000 -3.119710000000000
C -0.753350000000000 -0.903570000000000 -2.154340000000000
H -0.027220000000000 -1.537550000000000 -1.640430000000000
H -1.740920000000000 -1.336800000000000 -2.042410000000000
N -0.743790000000000 0.403980000000000 -1.527160000000000
H -1.595020000000000 0.878030000000000 -1.255590000000000
C 0.383270000000000 1.057910000000000 -1.236540000000000
O 1.509400000000000 0.673350000000000 -1.594030000000000
C 0.216700000000000 2.321870000000000 -0.408550000000000
H 0.665120000000000 3.119460000000000 -1.002210000000000
N -1.194080000000000 2.621140000000000 -0.178830000000000
H -1.447180000000000 2.337430000000000 0.763430000000000
H -1.368040000000000 3.613420000000000 -0.256830000000000
C 1.037890000000000 2.168520000000000 0.892740000000000
H 1.114290000000000 3.152060000000000 1.359810000000000
H 2.044030000000000 1.844940000000000 0.625920000000000
C 0.396680000000000 1.210600000000000 1.839480000000000
C -0.433160000000000 1.551540000000000 2.891610000000000
H -0.690020000000000 2.528760000000000 3.269000000000000
N -0.908970000000000 0.416410000000000 3.499850000000000
H -1.505810000000000 0.398120000000000 4.307900000000000
C -0.400900000000000 -0.687860000000000 2.861760000000000
C -0.593980000000000 -2.046310000000000 3.122570000000000
H -1.232840000000000 -2.382610000000000 3.928740000000000
C 0.071900000000000 -2.950950000000000 2.310440000000000
H -0.052290000000000 -4.011080000000000 2.483590000000000
C 0.916530000000000 -2.512670000000000 1.271210000000000
H 1.434110000000000 -3.247790000000000 0.669620000000000
C 1.105930000000000 -1.164870000000000 1.010250000000000
H 1.762700000000000 -0.842190000000000 0.214070000000000
C 0.429840000000000 -0.222380000000000 1.806550000000000

WG04.wfx

