%nprocs=4
%mem=4GB
#p pbepbe aug-cc-pvtz output=wfx scf=(conver=6) int=(grid=ultrafine)

title

0 1
O 0.395060000000000 2.353940000000000 2.541750000000000
C 0.901940000000000 1.314660000000000 1.855980000000000
O 1.771660000000000 1.418540000000000 1.019580000000000
H 0.830250000000000 3.142970000000000 2.184680000000000
C 0.276760000000000 0.016160000000000 2.290320000000000
H -0.808380000000000 0.092500000000000 2.240660000000000
H 0.544070000000000 -0.158660000000000 3.334770000000000
N 0.733680000000000 -1.039230000000000 1.422960000000000
H 1.491150000000000 -0.785090000000000 0.803480000000000
C -0.131440000000000 -2.000640000000000 1.006480000000000
O -1.225580000000000 -2.190000000000000 1.530680000000000
C 0.329950000000000 -2.830620000000000 -0.184410000000000
H 1.417630000000000 -2.785910000000000 -0.267820000000000
N -0.077600000000000 -4.225660000000000 -0.089620000000000
H -1.053730000000000 -4.227590000000000 0.193800000000000
H 0.415820000000000 -4.662110000000000 0.681570000000000
C -0.279820000000000 -2.224190000000000 -1.460460000000000
H -1.365880000000000 -2.321710000000000 -1.385340000000000
H 0.043070000000000 -2.845880000000000 -2.295600000000000
C 0.093440000000000 -0.795850000000000 -1.678790000000000
C 1.190830000000000 -0.333190000000000 -2.377630000000000
H 1.939560000000000 -0.887810000000000 -2.920220000000000
N 1.228260000000000 1.039410000000000 -2.334940000000000
H 1.946930000000000 1.611930000000000 -2.740870000000000
C 0.167470000000000 1.501140000000000 -1.601760000000000
C -0.202000000000000 2.805010000000000 -1.267620000000000
H 0.371870000000000 3.658910000000000 -1.604140000000000
C -1.333240000000000 2.965310000000000 -0.480460000000000
H -1.652080000000000 3.961250000000000 -0.203500000000000
C -2.081560000000000 1.853520000000000 -0.043050000000000
H -2.959070000000000 2.017690000000000 0.567830000000000
C -1.717080000000000 0.558810000000000 -0.380520000000000
H -2.295190000000000 -0.286840000000000 -0.030080000000000
C -0.571130000000000 0.365090000000000 -1.171970000000000

WG09.wfx

