%nprocs=4
%mem=4GB
#p pbepbe aug-cc-pvtz output=wfx scf=(conver=6) int=(grid=ultrafine)

title

0 1
O 1.485880000000000 -0.452550000000000 -1.366120000000000
C 2.486740000000000 0.116910000000000 -0.665510000000000
O 3.393220000000000 -0.497540000000000 -0.155950000000000
H 1.560850000000000 -1.412240000000000 -1.221890000000000
C 2.360940000000000 1.630120000000000 -0.629700000000000
H 2.904680000000000 2.031490000000000 -1.484350000000000
H 2.848520000000000 1.965520000000000 0.281200000000000
N 1.005140000000000 2.106190000000000 -0.649440000000000
H 0.492000000000000 2.238470000000000 -1.507520000000000
C 0.274090000000000 2.146850000000000 0.485810000000000
O 0.741370000000000 1.957640000000000 1.605990000000000
C -1.208210000000000 2.455930000000000 0.286370000000000
H -1.373300000000000 3.425630000000000 0.758960000000000
N -1.545190000000000 2.567560000000000 -1.131280000000000
H -2.325400000000000 3.198860000000000 -1.257040000000000
H -1.845110000000000 1.655500000000000 -1.466060000000000
C -2.038560000000000 1.398150000000000 1.049510000000000
H -3.077230000000000 1.734450000000000 1.069910000000000
H -1.677800000000000 1.356310000000000 2.076560000000000
C -1.949460000000000 0.056600000000000 0.401600000000000
C -2.778980000000000 -0.413910000000000 -0.600710000000000
H -3.677610000000000 0.023700000000000 -1.006080000000000
N -2.337340000000000 -1.638250000000000 -1.040120000000000
H -2.786290000000000 -2.198980000000000 -1.742450000000000
C -1.214270000000000 -1.993280000000000 -0.336980000000000
C -0.402090000000000 -3.124420000000000 -0.448650000000000
H -0.615010000000000 -3.906660000000000 -1.166090000000000
C 0.687430000000000 -3.212750000000000 0.408740000000000
H 1.337430000000000 -4.075760000000000 0.354660000000000
C 0.952260000000000 -2.203950000000000 1.357630000000000
H 1.812660000000000 -2.304550000000000 2.004140000000000
C 0.152260000000000 -1.077270000000000 1.458330000000000
H 0.385760000000000 -0.293950000000000 2.165450000000000
C -0.946900000000000 -0.949400000000000 0.590900000000000

WG11.wfx

