%nprocs=4
%mem=4GB
#p pbepbe aug-cc-pvtz output=wfx scf=(conver=6) int=(grid=ultrafine)

title

0 1
O -2.445060000000000 -0.581380000000000 -2.411050000000000
C -1.830220000000000 -0.940210000000000 -1.270070000000000
O -0.944660000000000 -1.764180000000000 -1.212000000000000
H -1.990600000000000 -1.065330000000000 -3.117410000000000
C -2.418270000000000 -0.226100000000000 -0.080820000000000
H -3.458700000000000 -0.542000000000000 0.023940000000000
H -2.419980000000000 0.849200000000000 -0.250690000000000
N -1.630670000000000 -0.528500000000000 1.084300000000000
H -1.026310000000000 -1.331690000000000 0.995360000000000
C -1.232270000000000 0.465960000000000 1.922180000000000
O -1.725680000000000 1.589170000000000 1.911940000000000
C -0.091340000000000 0.114060000000000 2.873220000000000
H -0.353030000000000 0.573760000000000 3.826770000000000
N 0.202110000000000 -1.291480000000000 3.095210000000000
H -0.635360000000000 -1.817190000000000 3.309690000000000
H 0.628310000000000 -1.696360000000000 2.268650000000000
C 1.180570000000000 0.809470000000000 2.348950000000000
H 1.962640000000000 0.665630000000000 3.095140000000000
H 0.977870000000000 1.877180000000000 2.267830000000000
C 1.616790000000000 0.259980000000000 1.030560000000000
C 2.498040000000000 -0.785570000000000 0.827030000000000
H 3.073450000000000 -1.342510000000000 1.549290000000000
N 2.610250000000000 -1.047290000000000 -0.517160000000000
H 3.187400000000000 -1.763250000000000 -0.921530000000000
C 1.805920000000000 -0.186490000000000 -1.217640000000000
C 1.582010000000000 -0.074690000000000 -2.590880000000000
H 2.078310000000000 -0.724730000000000 -3.299790000000000
C 0.694820000000000 0.904230000000000 -3.013860000000000
H 0.502110000000000 1.026010000000000 -4.071500000000000
C 0.051090000000000 1.753820000000000 -2.091440000000000
H -0.631200000000000 2.508500000000000 -2.459240000000000
C 0.275130000000000 1.642860000000000 -0.727550000000000
H -0.229130000000000 2.297410000000000 -0.028300000000000
C 1.163880000000000 0.654590000000000 -0.268800000000000

WG13.wfx

