%nprocs=4
%mem=4GB
#p pbepbe aug-cc-pvtz output=wfx scf=(conver=6) int=(grid=ultrafine)

title

0 1
O 0.394440000000000 2.330420000000000 2.572710000000000
C 0.898580000000000 1.303310000000000 1.866690000000000
O 1.765250000000000 1.422040000000000 1.029190000000000
H 0.830170000000000 3.125270000000000 2.229500000000000
C 0.275000000000000 -0.002500000000000 2.280920000000000
H -0.810310000000000 0.074900000000000 2.237660000000000
H 0.546050000000000 -0.195700000000000 3.321290000000000
N 0.728580000000000 -1.040540000000000 1.393840000000000
H 1.495270000000000 -0.789920000000000 0.785750000000000
C -0.119040000000000 -2.018680000000000 0.993420000000000
O -1.205880000000000 -2.225540000000000 1.526190000000000
C 0.338070000000000 -2.827250000000000 -0.207100000000000
H 1.423230000000000 -2.747250000000000 -0.308210000000000
N -0.029050000000000 -4.212880000000000 0.031670000000000
H -0.954810000000000 -4.213210000000000 0.448160000000000
H -0.093050000000000 -4.711000000000000 -0.847630000000000
C -0.308500000000000 -2.208940000000000 -1.469210000000000
H -1.391880000000000 -2.299870000000000 -1.361780000000000
H -0.012970000000000 -2.822780000000000 -2.323690000000000
C 0.073750000000000 -0.785400000000000 -1.698860000000000
C 1.171000000000000 -0.326150000000000 -2.400340000000000
H 1.913210000000000 -0.881140000000000 -2.951480000000000
N 1.217550000000000 1.046110000000000 -2.348740000000000
H 1.936240000000000 1.616580000000000 -2.757600000000000
C 0.164520000000000 1.510200000000000 -1.605540000000000
C -0.193070000000000 2.814000000000000 -1.258110000000000
H 0.383420000000000 3.666820000000000 -1.592770000000000
C -1.315190000000000 2.975150000000000 -0.458170000000000
H -1.624760000000000 3.970980000000000 -0.170470000000000
C -2.066060000000000 1.865030000000000 -0.020760000000000
H -2.934810000000000 2.030540000000000 0.602180000000000
C -1.713700000000000 0.570610000000000 -0.371930000000000
H -2.292650000000000 -0.274350000000000 -0.020770000000000
C -0.578230000000000 0.376460000000000 -1.177840000000000

WG14.wfx

