%nprocs=4
%mem=4GB
#p pbepbe aug-cc-pvtz output=wfx scf=(conver=6) int=(grid=ultrafine)

title

0 1
O -0.749110000000000 -1.684090000000000 0.314820000000000
C -1.680660000000000 -1.212780000000000 -0.296420000000000
O -2.387510000000000 -1.911380000000000 -1.213490000000000
H -1.993310000000000 -2.796300000000000 -1.218510000000000
C -2.217650000000000 0.195810000000000 -0.158740000000000
H -3.296010000000000 0.127950000000000 -0.028100000000000
H -2.015670000000000 0.733060000000000 -1.084620000000000
N -1.617720000000000 0.883630000000000 0.947460000000000
H -0.749470000000000 1.379910000000000 0.791290000000000
C -1.850230000000000 0.394660000000000 2.199320000000000
O -2.764800000000000 -0.377580000000000 2.454480000000000
C -0.818650000000000 0.819940000000000 3.233300000000000
H -1.170620000000000 0.518190000000000 4.214430000000000
H -0.649990000000000 1.894740000000000 3.207210000000000
N 0.438120000000000 0.160960000000000 2.933820000000000
H 0.542980000000000 -0.832730000000000 3.093430000000000
C 1.283270000000000 0.676260000000000 2.018580000000000
O 1.169030000000000 1.813490000000000 1.554300000000000
C 2.427320000000000 -0.251460000000000 1.619470000000000
H 3.246040000000000 -0.026830000000000 2.309230000000000
N 2.030490000000000 -1.636540000000000 1.846460000000000
H 2.833850000000000 -2.247780000000000 1.774850000000000
H 1.363950000000000 -1.913060000000000 1.129620000000000
C 2.916910000000000 0.079580000000000 0.196990000000000
H 3.853960000000000 -0.460480000000000 0.043980000000000
H 3.142890000000000 1.144430000000000 0.149790000000000
C 1.953510000000000 -0.287360000000000 -0.883940000000000
C 1.846060000000000 -1.532200000000000 -1.473200000000000
H 2.418270000000000 -2.427000000000000 -1.288550000000000
N 0.865610000000000 -1.517520000000000 -2.434700000000000
H 0.643540000000000 -2.282060000000000 -3.047450000000000
C 0.324570000000000 -0.260310000000000 -2.510520000000000
C -0.659420000000000 0.244610000000000 -3.363890000000000
H -1.151390000000000 -0.384380000000000 -4.094330000000000
C -0.984590000000000 1.587170000000000 -3.237040000000000
H -1.741770000000000 2.014030000000000 -3.880670000000000
C -0.342140000000000 2.403870000000000 -2.282980000000000
H -0.618540000000000 3.447370000000000 -2.213880000000000
C 0.634440000000000 1.901390000000000 -1.436220000000000
H 1.115420000000000 2.533450000000000 -0.703420000000000
C 0.984770000000000 0.541920000000000 -1.536700000000000

WGG05.wfx

