%nprocs=4
%mem=4GB
#p pbepbe aug-cc-pvtz output=wfx scf=(conver=6) int=(grid=ultrafine)

title

0 1
O 1.305760000000000 0.115770000000000 3.541840000000000
C 0.716330000000000 0.928430000000000 2.861120000000000
O 1.363450000000000 1.829270000000000 2.124220000000000
H 0.695390000000000 2.399700000000000 1.662580000000000
C -0.808710000000000 0.998970000000000 2.788570000000000
H -1.129750000000000 1.965350000000000 3.180950000000000
H -1.215270000000000 0.204080000000000 3.403050000000000
N -1.333090000000000 0.854600000000000 1.439890000000000
H -1.660990000000000 -0.058100000000000 1.144780000000000
C -1.215000000000000 1.841890000000000 0.541870000000000
O -0.631280000000000 2.908070000000000 0.800030000000000
C -1.757180000000000 1.591770000000000 -0.843590000000000
H -2.379310000000000 2.442820000000000 -1.124470000000000
H -2.348350000000000 0.680130000000000 -0.913460000000000
N -0.606640000000000 1.455860000000000 -1.709580000000000
H 0.289930000000000 1.836590000000000 -1.434410000000000
C -0.585880000000000 0.571290000000000 -2.728730000000000
O -1.571780000000000 -0.028910000000000 -3.147310000000000
C 0.806020000000000 0.303630000000000 -3.280810000000000
H 0.698790000000000 0.203410000000000 -4.364180000000000
N 1.748710000000000 1.343540000000000 -2.873520000000000
H 1.631320000000000 2.168900000000000 -3.449950000000000
H 2.698380000000000 1.023840000000000 -3.020540000000000
C 1.257440000000000 -1.060330000000000 -2.727810000000000
H 2.268900000000000 -1.252820000000000 -3.095730000000000
H 0.609760000000000 -1.819430000000000 -3.167760000000000
C 1.220540000000000 -1.179850000000000 -1.238200000000000
C 2.247720000000000 -0.916950000000000 -0.352580000000000
H 3.241410000000000 -0.547690000000000 -0.547280000000000
N 1.856520000000000 -1.213340000000000 0.928800000000000
H 2.362240000000000 -0.978910000000000 1.769790000000000
C 0.560490000000000 -1.653280000000000 0.913160000000000
C -0.256980000000000 -2.083990000000000 1.962350000000000
H 0.108970000000000 -2.109720000000000 2.979180000000000
C -1.559290000000000 -2.448830000000000 1.645600000000000
H -2.223740000000000 -2.782920000000000 2.431580000000000
C -2.027570000000000 -2.404400000000000 0.314160000000000
H -3.047680000000000 -2.697690000000000 0.104520000000000
C -1.200730000000000 -2.017240000000000 -0.732120000000000
H -1.572520000000000 -1.988400000000000 -1.747430000000000
C 0.121270000000000 -1.633310000000000 -0.442080000000000

WGG07.wfx

