%nprocs=4
%mem=4GB
#p pbepbe aug-cc-pvtz output=wfx scf=(conver=6) int=(grid=ultrafine)

title

0 1
O -4.557260000000000 -0.117850000000000 0.013590000000000
C -3.275790000000000 0.244490000000000 0.192900000000000
O -2.921100000000000 1.401470000000000 0.261350000000000
H -5.065270000000000 0.706680000000000 -0.030530000000000
C -2.378880000000000 -0.975130000000000 0.229450000000000
H -2.166070000000000 -1.255050000000000 -0.802280000000000
H -2.937130000000000 -1.780160000000000 0.702640000000000
N -1.144710000000000 -0.759880000000000 0.926130000000000
H -0.296140000000000 -0.546970000000000 0.425020000000000
C -1.179660000000000 -0.647260000000000 2.280950000000000
O -2.225560000000000 -0.715060000000000 2.913330000000000
C 0.159420000000000 -0.461320000000000 2.975460000000000
H 0.131380000000000 -1.069840000000000 3.878670000000000
H 0.254940000000000 0.580910000000000 3.280220000000000
N 1.288820000000000 -0.766490000000000 2.140820000000000
H 1.429280000000000 -1.683110000000000 1.738020000000000
C 2.263150000000000 0.133790000000000 1.869630000000000
O 2.335220000000000 1.250520000000000 2.371020000000000
C 3.240530000000000 -0.320720000000000 0.786190000000000
H 4.232940000000000 -0.343780000000000 1.238550000000000
N 2.916610000000000 -1.666500000000000 0.306850000000000
H 2.285210000000000 -1.604580000000000 -0.485890000000000
H 3.752650000000000 -2.128910000000000 -0.024960000000000
C 3.204160000000000 0.764710000000000 -0.309800000000000
H 3.881890000000000 0.474340000000000 -1.114870000000000
H 3.568440000000000 1.696730000000000 0.119540000000000
C 1.811810000000000 0.951190000000000 -0.821200000000000
C 0.874080000000000 1.819040000000000 -0.289510000000000
H 0.983640000000000 2.508980000000000 0.530930000000000
N -0.318450000000000 1.692910000000000 -0.954350000000000
H -1.204630000000000 2.024510000000000 -0.595190000000000
C -0.202110000000000 0.712700000000000 -1.902640000000000
C -1.147100000000000 0.212820000000000 -2.804440000000000
H -2.155840000000000 0.605320000000000 -2.835190000000000
C -0.737280000000000 -0.787480000000000 -3.674100000000000
H -1.442510000000000 -1.195620000000000 -4.385160000000000
C 0.588540000000000 -1.267350000000000 -3.661710000000000
H 0.876830000000000 -2.033880000000000 -4.368080000000000
C 1.528570000000000 -0.765470000000000 -2.775560000000000
H 2.548740000000000 -1.129360000000000 -2.797980000000000
C 1.139820000000000 0.230180000000000 -1.858480000000000

WGG11.wfx

