%nprocs=4
%mem=4GB
#p pbepbe aug-cc-pvtz output=wfx scf=(conver=6) int=(grid=ultrafine)

title

0 1
O -1.538040000000000 -3.293110000000000 0.811950000000000
C -2.246670000000000 -2.403750000000000 0.384600000000000
O -3.249060000000000 -1.900390000000000 1.096650000000000
H -3.700420000000000 -1.197090000000000 0.559160000000000
C -2.064370000000000 -1.808440000000000 -1.008950000000000
H -2.950630000000000 -2.057050000000000 -1.598250000000000
H -1.194710000000000 -2.272870000000000 -1.460580000000000
N -1.870560000000000 -0.370120000000000 -1.020800000000000
H -0.975650000000000 0.029630000000000 -1.302620000000000
C -2.871930000000000 0.482950000000000 -0.768230000000000
O -4.001160000000000 0.117450000000000 -0.406010000000000
C -2.537830000000000 1.954480000000000 -0.959920000000000
H -3.424740000000000 2.520430000000000 -0.695160000000000
H -2.294900000000000 2.125140000000000 -2.010640000000000
N -1.426420000000000 2.394330000000000 -0.141210000000000
H -1.559120000000000 3.068970000000000 0.598550000000000
C -0.147980000000000 2.183550000000000 -0.522200000000000
O 0.156120000000000 1.494380000000000 -1.498430000000000
C 0.893170000000000 2.790570000000000 0.397370000000000
H 1.803130000000000 2.874500000000000 -0.200980000000000
N 0.408260000000000 4.054880000000000 0.952860000000000
H 0.506880000000000 4.803080000000000 0.276430000000000
H 0.975660000000000 4.313120000000000 1.751740000000000
C 1.143770000000000 1.820140000000000 1.568510000000000
H 0.288510000000000 1.897130000000000 2.244100000000000
H 2.022210000000000 2.181220000000000 2.112320000000000
C 1.320130000000000 0.405700000000000 1.144570000000000
C 0.419740000000000 -0.619160000000000 1.356410000000000
H -0.510690000000000 -0.613320000000000 1.902550000000000
N 0.872700000000000 -1.769050000000000 0.761530000000000
H 0.356660000000000 -2.639280000000000 0.767820000000000
C 2.072360000000000 -1.516710000000000 0.148660000000000
C 2.911130000000000 -2.363880000000000 -0.580120000000000
H 2.661260000000000 -3.404930000000000 -0.737970000000000
C 4.080940000000000 -1.820560000000000 -1.089050000000000
H 4.753870000000000 -2.447980000000000 -1.657420000000000
C 4.412250000000000 -0.467060000000000 -0.877050000000000
H 5.334740000000000 -0.080860000000000 -1.288940000000000
C 3.579520000000000 0.372460000000000 -0.155390000000000
H 3.849490000000000 1.409520000000000 0.000110000000000
C 2.386530000000000 -0.147400000000000 0.373170000000000

WGG15.wfx

