%nprocs=4
%mem=4GB
#p pbepbe aug-cc-pvtz output=wfx scf=(conver=6) int=(grid=ultrafine)

title

0 1
O -1.500230000000000 2.309690000000000 1.661630000000000
C -0.706190000000000 3.006990000000000 0.849080000000000
O 0.225870000000000 3.658050000000000 1.269730000000000
H -2.203740000000000 1.872400000000000 1.116600000000000
C -1.061640000000000 2.924820000000000 -0.635520000000000
H -0.336420000000000 3.507720000000000 -1.191420000000000
H -2.057550000000000 3.347430000000000 -0.778600000000000
N -1.059700000000000 1.566160000000000 -1.155040000000000
H -0.231220000000000 1.235720000000000 -1.637100000000000
C -2.034450000000000 0.703780000000000 -0.841600000000000
O -2.968370000000000 1.000730000000000 -0.076910000000000
C -1.927160000000000 -0.700070000000000 -1.383950000000000
H -1.124060000000000 -0.821900000000000 -2.107720000000000
H -2.876250000000000 -0.964790000000000 -1.852030000000000
N -1.633080000000000 -1.538140000000000 -0.239910000000000
H -1.946910000000000 -1.228220000000000 0.664830000000000
C -0.823420000000000 -2.617560000000000 -0.328460000000000
O -0.442530000000000 -3.087680000000000 -1.396770000000000
C -0.329260000000000 -3.161190000000000 0.996180000000000
H -0.933360000000000 -2.757210000000000 1.812110000000000
N -0.468360000000000 -4.607980000000000 0.964970000000000
H 0.120320000000000 -5.027210000000000 1.674800000000000
H -0.123980000000000 -4.927950000000000 0.065380000000000
C 1.126270000000000 -2.667510000000000 1.170580000000000
H 1.721010000000000 -3.156280000000000 0.395520000000000
H 1.485420000000000 -3.034220000000000 2.135080000000000
C 1.306830000000000 -1.186740000000000 1.083110000000000
C 1.272390000000000 -0.275580000000000 2.121950000000000
H 1.101050000000000 -0.442930000000000 3.173220000000000
N 1.530640000000000 0.988410000000000 1.652550000000000
H 1.432400000000000 1.844990000000000 2.176420000000000
C 1.720020000000000 0.935850000000000 0.298030000000000
C 2.033560000000000 1.953060000000000 -0.608820000000000
H 2.167690000000000 2.973190000000000 -0.277540000000000
C 2.144090000000000 1.599910000000000 -1.947740000000000
H 2.384050000000000 2.359980000000000 -2.679550000000000
C 1.966060000000000 0.263810000000000 -2.368980000000000
H 2.063380000000000 0.025430000000000 -3.419800000000000
C 1.697640000000000 -0.751760000000000 -1.460750000000000
H 1.571040000000000 -1.772160000000000 -1.796360000000000
C 1.571930000000000 -0.424350000000000 -0.098500000000000

WGG13.wfx

