&control
 title='crystal',
 prefix='crystal',
 pseudo_dir='.',
 calculation='vc-relax',
/
&system
 ibrav=0,
 celldm(1)=1.0,
 nat=   120,
 ntyp=  4,
 ecutwfc=60.0,
 ecutrho=600.0,
 xdm=.true.,
 xdm_a1=0.4073,
 xdm_a2=2.4150,
/
&electrons
 conv_thr = 1d-8,
/
&ions
/
&cell
/
ATOMIC_SPECIES
h      1.007940 h.UPF
c     12.010700 c.UPF
n     14.006700 n.UPF
o     15.999400 o.UPF

ATOMIC_POSITIONS crystal
o     0.76067607     0.03142318     0.56778023
o     0.23932393     0.96857682     0.43221977
o     0.26067607     0.46857682     0.06778023
o     0.73932393     0.53142318     0.93221977
o     0.52083238     0.10709958     0.45531832
o     0.47916762     0.89290042     0.54468168
o     0.02083238     0.39290042     0.95531832
o     0.97916762     0.60709958     0.04468168
o     0.08183072     0.25909236     0.36648298
o     0.91816928     0.74090764     0.63351702
o     0.58183072     0.24090764     0.86648298
o     0.41816928     0.75909236     0.13351702
o     0.64152809     0.23029115     0.67217098
o     0.35847191     0.76970885     0.32782902
o     0.14152809     0.26970885     0.17217098
o     0.85847191     0.73029115     0.82782902
n     0.77768089     0.26855879     0.47064078
n     0.22231911     0.73144121     0.52935922
n     0.27768089     0.23144121     0.97064078
n     0.72231911     0.76855879     0.02935922
c     0.69368236     0.10511964     0.51479305
c     0.30631764     0.89488036     0.48520695
c     0.19368236     0.39488036     0.01479305
c     0.80631764     0.60511964     0.98520695
c     0.85216320     0.18983979     0.53234045
c     0.14783680     0.81016021     0.46765955
c     0.35216320     0.31016021     0.03234045
c     0.64783680     0.68983979     0.96765955
c     0.90006895     0.29758424     0.39233357
c     0.09993105     0.70241576     0.60766643
c     0.40006895     0.20241576     0.89233357
c     0.59993105     0.79758424     0.10766643
c     0.77567154     0.37950693     0.34838306
c     0.22432846     0.62049307     0.65161694
c     0.27567154     0.12049307     0.84838306
c     0.72432846     0.87950693     0.15161694
c     0.83171945     0.43761081     0.26989845
c     0.16828055     0.56238919     0.73010155
c     0.33171945     0.06238919     0.76989845
c     0.66828055     0.93761081     0.23010155
c     0.67934277     0.51052522     0.24363153
c     0.32065723     0.48947478     0.75636847
c     0.17934277     0.98947478     0.74363153
c     0.82065723     0.01052522     0.25636847
c     0.47603831     0.52425412     0.29383482
c     0.52396169     0.47574588     0.70616518
c     0.97603831     0.97574588     0.79383482
c     0.02396169     0.02425412     0.20616518
c     0.42139054     0.46584846     0.37223230
c     0.57860946     0.53415154     0.62776770
c     0.92139054     0.03415154     0.87223230
c     0.07860946     0.96584846     0.12776770
c     0.57442318     0.39353849     0.39947095
c     0.42557682     0.60646151     0.60052905
c     0.07442318     0.10646151     0.89947095
c     0.92557682     0.89353849     0.10052905
c     0.56185581     0.32169474     0.47963702
c     0.43814419     0.67830526     0.52036298
c     0.06185581     0.17830526     0.97963702
c     0.93814419     0.82169474     0.02036298
c     0.87297696     0.21297647     0.64439868
c     0.12702304     0.78702353     0.35560132
c     0.37297696     0.28702353     0.14439868
c     0.62702304     0.71297647     0.85560132
c     0.03682061     0.29462719     0.66855975
c     0.96317939     0.70537281     0.33144025
c     0.53682061     0.20537281     0.16855975
c     0.46317939     0.79462719     0.83144025
h     0.64518492     0.97631322     0.55649220
h     0.35481508     0.02368678     0.44350780
h     0.14518492     0.52368678     0.05649220
h     0.85481508     0.47631322     0.94350780
h     0.63818804     0.23227149     0.74592752
h     0.36181196     0.76772851     0.25407248
h     0.13818804     0.26772851     0.24592752
h     0.86181196     0.73227149     0.75407248
h     0.02488824     0.16978940     0.50883169
h     0.97511176     0.83021060     0.49116831
h     0.52488824     0.33021060     0.00883169
h     0.47511176     0.66978940     0.99116831
h     0.98782787     0.42529250     0.23034185
h     0.01217213     0.57470750     0.76965815
h     0.48782787     0.07470750     0.73034185
h     0.51217213     0.92529250     0.26965815
h     0.71738290     0.55756228     0.18332693
h     0.28261710     0.44243772     0.81667307
h     0.21738290     0.94243772     0.68332693
h     0.78261710     0.05756228     0.31667307
h     0.36053111     0.58176309     0.27114766
h     0.63946889     0.41823691     0.72885234
h     0.86053111     0.91823691     0.77114766
h     0.13946889     0.08176309     0.22885234
h     0.26301714     0.47664231     0.41086003
h     0.73698286     0.52335769     0.58913997
h     0.76301714     0.02335769     0.91086003
h     0.23698286     0.97664231     0.08913997
h     0.55444953     0.35225978     0.55389286
h     0.44555047     0.64774022     0.44610714
h     0.05444953     0.14774022     0.05389286
h     0.94555047     0.85225978     0.94610714
h     0.41061968     0.27549326     0.46654234
h     0.58938032     0.72450674     0.53345766
h     0.91061968     0.22450674     0.96654234
h     0.08938032     0.77549326     0.03345766
h     0.94260638     0.14942629     0.68169642
h     0.05739362     0.85057371     0.31830358
h     0.44260638     0.35057371     0.18169642
h     0.55739362     0.64942629     0.81830358
h     0.03561002     0.31085654     0.74798719
h     0.96438998     0.68914346     0.25201281
h     0.53561002     0.18914346     0.24798719
h     0.46438998     0.81085654     0.75201281
h     0.98395532     0.35804808     0.62694428
h     0.01604468     0.64195192     0.37305572
h     0.48395532     0.14195192     0.12694428
h     0.51604468     0.85804808     0.87305572
h     0.21577875     0.27698847     0.65209519
h     0.78422125     0.72301153     0.34790481
h     0.71577875     0.22301153     0.15209519
h     0.28422125     0.77698847     0.84790481

K_POINTS automatic
2 2 2 1 1 1

CELL_PARAMETERS cubic
   10.898022000000     0.000000000000    -0.035396000000
    0.000000000000    26.916520000000     0.000000000000
   -1.426966000000     0.000000000000    25.458376000000
