&control
 title='crystal',
 prefix='crystal',
 pseudo_dir='../..',
 forc_conv_thr=1.0D-4,
 etot_conv_thr=1.0D-5,
/
&system
 ibrav=0,
 nat=    26,
 ntyp=  5,
 ecutwfc=80.0,
 ecutrho=800.0,
 vdw_corr='xdm',
 nosym=.true.,
/
&electrons
 conv_thr = 1d-10,
/
&ions
/
&cell
 press_conv_thr=0.01,
/
ATOMIC_SPECIES
C    12.010700 c.UPF
S    32.065000 s.UPF
N    14.006700 n.UPF
O    15.999400 o.UPF
H     1.007940 h.UPF

ATOMIC_POSITIONS crystal
C             0.7633154650        0.1162215397        0.1017651552
C             0.2366845251        0.8837786159        0.8982343236
C             0.5031215217        0.3101352003        0.3446799717
C             0.4968776266        0.6898643681        0.6553196523
S             0.4977964256        0.1519017827        0.2699868296
S             0.5022035457        0.8480983367        0.7300125251
N             0.6681129926        0.3749819897        0.2467589901
N             0.3318859058        0.6250200935        0.7532428448
N             0.3488454099        0.3750703891        0.5165788337
N             0.6511548909        0.6249296703        0.4834200734
N             0.1729531229        0.3189788171        0.6266530938
N             0.8270467477        0.6810214086        0.3733463375
O             0.0473423868        0.3801590260        0.8092608818
O             0.9526573647        0.6198409429        0.1907377914
O             0.1383604371        0.2136652171        0.5481532305
O             0.8616394493        0.7863344281        0.4518462126
H             0.6681520999        0.4650304981        0.3168642910
H             0.3318477621        0.5349687492        0.6831341749
H             0.7932930036        0.3429812979        0.1003905469
H             0.2067080269        0.6570184050        0.8996073856
H             0.7731033383        0.0135515331        0.0776261169
H             0.2268967341        0.9864487148        0.9223733440
H             0.8802120648        0.1277503118        0.2782464862
H             0.1197880458        0.8722498966        0.7217529785
H             0.7939781240        0.1747788561        0.8515417222
H             0.2060217032        0.8252213916        0.1484576969

K_POINTS automatic
4 3 7  1 1 1

CELL_PARAMETERS bohr
  12.114987189  -0.010966410  -0.001561253
   2.433168940  19.724705312  -0.007185993
   0.515724833   1.336044043   7.412548034
