&control
 title='crystal',
 prefix='crystal',
 pseudo_dir='.',
 calculation='vc-relax',
/
&system
 ibrav=0,
 celldm(1)=1.0,
 nat=   120,
 ntyp=  4,
 ecutwfc=60.0,
 ecutrho=600.0,
 xdm=.true.,
 xdm_a1=0.4073,
 xdm_a2=2.4150,
/
&electrons
 conv_thr = 1d-8,
/
&ions
/
&cell
/
ATOMIC_SPECIES
h      1.007940 h.UPF
c     12.010700 c.UPF
o     15.999400 o.UPF
si    28.085500 si.UPF

ATOMIC_POSITIONS crystal
si    0.68179895     0.67354936     0.38246035
si    0.18179896     0.82645062     0.61753964
si    0.31820104     0.17354936     0.11753965
si    0.81820103     0.32645063     0.88246034
o     0.86816857     0.50082185     0.50138891
o     0.36816858     0.99917812     0.49861109
o     0.13183141     0.00082186     0.99861109
o     0.63183140     0.49917813     0.00138890
o     0.67661847     0.23459938     0.48097251
o     0.17661848     0.26540060     0.51902748
o     0.32338151     0.73459939     0.01902748
o     0.82338151     0.76540060     0.98097251
o     0.36821311     0.46491711     0.43240523
o     0.86821311     0.03508286     0.56759476
o     0.63178688     0.96491712     0.06759476
o     0.13178687     0.53508287     0.93240523
c     0.55990333     0.55260999     0.44882580
c     0.05990334     0.94738999     0.55117419
c     0.44009665     0.05260999     0.05117420
c     0.94009664     0.44739000     0.94882580
c     0.70343734     0.41595024     0.47813128
c     0.20343735     0.08404974     0.52186871
c     0.29656264     0.91595025     0.02186871
c     0.79656263     0.58404974     0.97813128
c     0.90730830     0.82912144     0.40525604
c     0.40730831     0.67087854     0.59474395
c     0.09269168     0.32912144     0.09474396
c     0.59269167     0.17087855     0.90525603
c     0.76947301     0.48295281     0.32930892
c     0.26947302     0.01704716     0.67069107
c     0.23052697     0.98295282     0.17069107
c     0.73052697     0.51704717     0.82930892
c     0.46326985     0.82754372     0.35434401
c     0.96326985     0.67245625     0.64565598
c     0.53673014     0.32754373     0.14565599
c     0.03673013     0.17245626     0.85434400
c     0.93946396     0.34968096     0.35412612
c     0.43946396     0.15031902     0.64587387
c     0.06053603     0.84968097     0.14587387
c     0.56053602     0.65031903     0.85412612
c     0.86160603     0.59370782     0.27906069
c     0.36160604     0.90629215     0.72093931
c     0.13839395     0.09370783     0.22093931
c     0.63839394     0.40629216     0.77906068
c     0.58316563     0.35816821     0.30979320
c     0.08316564     0.14183176     0.69020679
c     0.41683435     0.85816822     0.19020680
c     0.91683435     0.64183177     0.80979319
h     0.87917864     0.25983470     0.38837862
h     0.37917865     0.24016528     0.61162137
h     0.12082135     0.75983471     0.11162138
h     0.62082134     0.74016529     0.88837861
h     0.96798024     0.91318841     0.36983362
h     0.46798025     0.58681157     0.63016637
h     0.03201974     0.41318842     0.13016638
h     0.53201973     0.08681157     0.86983361
h     0.63624888     0.24990991     0.27881248
h     0.13624889     0.25009007     0.72118751
h     0.36375110     0.74990992     0.22118752
h     0.86375110     0.75009008     0.77881248
h     0.85695117     0.93504335     0.43686894
h     0.35695117     0.56495662     0.56313105
h     0.14304882     0.43504336     0.06313105
h     0.64304881     0.06495663     0.93686894
h     0.40998948     0.93373689     0.38553983
h     0.90998949     0.56626308     0.61446016
h     0.59001050     0.43373690     0.11446016
h     0.09001049     0.06626309     0.88553983
h     0.90988566     0.48889124     0.24665678
h     0.40988567     0.01110874     0.75334321
h     0.09011432     0.98889125     0.25334322
h     0.59011432     0.51110875     0.74665677
h     0.53579527     0.67954355     0.47669853
h     0.03579528     0.82045643     0.52330146
h     0.46420471     0.17954355     0.02330146
h     0.96420470     0.32045644     0.97669853
h     0.32908640     0.73624984     0.34290355
h     0.82908641     0.76375014     0.65709644
h     0.67091358     0.23624985     0.15709645
h     0.17091357     0.26375015     0.84290354
h     0.50968894     0.27914866     0.34437742
h     0.00968895     0.22085132     0.65562257
h     0.49031104     0.77914867     0.15562257
h     0.99031103     0.72085132     0.84437742
h     0.03603372     0.74160544     0.42223896
h     0.53603373     0.75839454     0.57776103
h     0.96396626     0.24160545     0.07776104
h     0.46396625     0.25839455     0.92223895
h     0.51348586     0.90915885     0.31736404
h     0.01348587     0.59084112     0.68263595
h     0.48651413     0.40915886     0.18263596
h     0.98651412     0.09084113     0.81736403
h     0.99707029     0.24803406     0.32201521
h     0.49707029     0.25196592     0.67798479
h     0.00292970     0.74803406     0.17798479
h     0.50292969     0.75196593     0.82201520
h     0.00072415     0.67888692     0.29059774
h     0.50072416     0.82111305     0.70940225
h     0.99927583     0.17888693     0.20940226
h     0.49927582     0.32111306     0.79059773
h     0.07497215     0.43180038     0.36958133
h     0.57497216     0.06819960     0.63041866
h     0.92502783     0.93180039     0.13041867
h     0.42502782     0.56819960     0.86958132
h     0.74837688     0.69402242     0.25990416
h     0.24837689     0.80597756     0.74009583
h     0.25162311     0.19402243     0.24009583
h     0.75162310     0.30597756     0.75990416
h     0.30401731     0.39961292     0.46486430
h     0.80401732     0.10038705     0.53513569
h     0.69598268     0.89961293     0.03513569
h     0.19598267     0.60038706     0.96486430
h     0.46155468     0.44781707     0.28991935
h     0.96155469     0.05218291     0.71008064
h     0.53844530     0.94781707     0.21008064
h     0.03844529     0.55218292     0.78991935
h     0.97141892     0.39760775     0.51456035
h     0.47141893     0.10239222     0.48543964
h     0.02858106     0.89760776     0.98543964
h     0.52858105     0.60239223     0.01456035

K_POINTS automatic
2 2 2 1 1 1

CELL_PARAMETERS cubic
   12.082917000000     0.000000000000     0.000000000000
    0.000000000000    12.908000000000     0.000000000000
    0.000000000000     0.000000000000    45.353467000000
