## FHIaims input file generated by critic2.
lattice_vector 6.2270323975       -0.0163927874      0.0040454185      
lattice_vector -0.0509592618      6.2278185213       0.0119537735      
lattice_vector 0.0341617018       -0.0197568447      5.8268993094      
atom_frac  0.4371253682       0.2433808704       0.0043181402       H 
atom_frac  0.5220872053       0.7439848835       0.9827312352       H 
atom_frac  0.0274103362       0.2384815936       0.0058056265       H 
atom_frac  0.9318161576       0.7488359499       0.9812243001       H 
atom_frac  0.2263486191       0.3607018885       0.3436432799       H 
atom_frac  0.7328252217       0.6266491831       0.6434017857       H 
atom_frac  0.2297370913       0.1139268863       0.3388631160       H 
atom_frac  0.7294641649       0.8734288991       0.6481743223       H 
atom_frac  0.2344038224       0.6699141641       0.6191094876       H 
atom_frac  0.7248174598       0.3174283588       0.3679238136       H 
atom_frac  0.6604563062       0.2463820506       0.8653909081       H 
atom_frac  0.2987695883       0.7409562274       0.1216840947       H 
atom_frac  0.3497664630       0.4523602364       0.6926486182       H 
atom_frac  0.6094748616       0.5349977719       0.2943952337       H 
atom_frac  0.3554776796       0.0366623378       0.6939900065       H 
atom_frac  0.6037497254       0.9506774350       0.2930336250       H 
atom_frac  0.1094460685       0.0268986566       0.6978020915       H 
atom_frac  0.8497810642       0.9604526679       0.2892230144       H 
atom_frac  0.0221490360       0.3561262776       0.7701404131       H 
atom_frac  0.9370642250       0.6312026655       0.2168919093       H 
atom_frac  0.2299421900       0.2386446885       0.2340013280       O 
atom_frac  0.7292077608       0.7487104656       0.7530359279       O 
atom_frac  0.2245381310       0.5109333462       0.6110556112       O 
atom_frac  0.7346999448       0.4764081793       0.3759825134       O 
atom_frac  0.2336447162       0.9602667454       0.6194586650       O 
atom_frac  0.7255782650       0.0270907570       0.3675534034       O 
atom_frac  0.9506341065       0.2383413564       0.8572501957       O 
atom_frac  0.0085688938       0.7490010027       0.1297901632       O 
atom_frac  0.5019450760       0.2459143945       0.8490212957       O 
atom_frac  0.4572804517       0.7414200604       0.1380358748       O 
