&control
 title='crystal',
 prefix='crystal',
 pseudo_dir='.',
 calculation='vc-relax',
/
&system
 ibrav=0,
 celldm(1)=1.0,
 nat=   108,
 ntyp=  3,
 ecutwfc=60.0,
 ecutrho=600.0,
 xdm=.true.,
 xdm_a1=0.4073,
 xdm_a2=2.4150,
/
&electrons
 conv_thr = 1d-8,
/
&ions
/
&cell
/
ATOMIC_SPECIES
h      1.007940 h.UPF
c     12.010700 c.UPF
o     15.999400 o.UPF

ATOMIC_POSITIONS crystal
o     0.58332582     0.57656009     0.94625433
o     0.08332583     0.92343988     0.05374566
o     0.41667414     0.07656010     0.55374566
o     0.91667412     0.42343989     0.44625433
o     0.59048030     0.43871535     0.07298545
o     0.09048031     0.06128463     0.92701455
o     0.40951966     0.93871535     0.42701455
o     0.90951964     0.56128464     0.57298545
o     0.54612725     0.68990669     0.80318009
o     0.04612727     0.81009328     0.19681991
o     0.45387270     0.18990670     0.69681991
o     0.95387269     0.31009329     0.30318009
c     0.91980648     0.46734024     0.97752740
c     0.41980649     0.03265974     0.02247260
c     0.08019348     0.96734024     0.52247260
c     0.58019346     0.53265975     0.47752740
c     0.69126147     0.48770444     0.00453148
c     0.19126149     0.01229553     0.99546852
c     0.30873849     0.98770445     0.49546852
c     0.80873847     0.51229554     0.50453148
c     0.66446590     0.62633369     0.85329609
c     0.16446592     0.87366628     0.14670391
c     0.33553405     0.12633370     0.64670391
c     0.83553404     0.37366629     0.35329609
c     0.88938147     0.59827458     0.83034300
c     0.38938148     0.90172540     0.16965700
c     0.11061849     0.09827458     0.66965700
c     0.61061847     0.40172541     0.33034300
c     0.02460763     0.67058957     0.91018874
c     0.52460765     0.82941041     0.08981126
c     0.97539233     0.17058957     0.58981126
c     0.47539231     0.32941042     0.41018874
c     0.03746978     0.58755125     0.00729154
c     0.53746979     0.91244873     0.99270846
c     0.96253018     0.08755125     0.49270846
c     0.46253016     0.41244874     0.50729154
c     0.93757792     0.46317100     0.85531127
c     0.43757794     0.03682898     0.14468872
c     0.06242203     0.96317100     0.64468872
c     0.56242202     0.53682899     0.35531127
c     0.78442347     0.37412251     0.80376369
c     0.28442349     0.12587747     0.19623631
c     0.21557648     0.87412252     0.69623631
c     0.71557647     0.62587748     0.30376369
c     0.16074137     0.43146759     0.81954174
c     0.66074138     0.06853239     0.18045825
c     0.83925859     0.93146759     0.68045825
c     0.33925858     0.56853240     0.31954174
c     0.00475875     0.35672052     0.03522820
c     0.50475877     0.14327945     0.96477179
c     0.99524121     0.85672053     0.46477179
c     0.49524119     0.64327946     0.53522820
h     0.91977918     0.62254325     0.74882444
h     0.41977920     0.87745673     0.25117555
h     0.08022078     0.12254325     0.75117555
h     0.58022076     0.37745674     0.24882444
h     0.95681665     0.75986345     0.92761921
h     0.45681667     0.74013653     0.07238079
h     0.04318331     0.25986345     0.57238079
h     0.54318329     0.24013654     0.42761921
h     0.18036890     0.68616943     0.87625562
h     0.68036892     0.81383055     0.12374437
h     0.81963106     0.18616943     0.62374437
h     0.31963104     0.31383056     0.37625562
h     0.20062156     0.56409265     0.02589717
h     0.70062158     0.93590733     0.97410283
h     0.79937840     0.06409265     0.47410283
h     0.29937838     0.43590734     0.52589717
h     0.97079339     0.62998443     0.07735999
h     0.47079341     0.87001554     0.92264001
h     0.02920657     0.12998444     0.42264001
h     0.52920655     0.37001555     0.57735999
h     0.79826212     0.38017077     0.71856817
h     0.29826214     0.11982920     0.28143183
h     0.20173784     0.88017078     0.78143183
h     0.70173782     0.61982921     0.21856817
h     0.61906331     0.39016973     0.82356193
h     0.11906332     0.10983025     0.17643807
h     0.38093665     0.89016973     0.67643807
h     0.88093663     0.60983026     0.32356193
h     0.82107199     0.28023767     0.82613932
h     0.32107201     0.21976231     0.17386068
h     0.17892797     0.78023768     0.67386068
h     0.67892795     0.71976232     0.32613932
h     0.28012712     0.48758822     0.85769998
h     0.78012713     0.01241176     0.14230001
h     0.71987284     0.98758822     0.64230001
h     0.21987283     0.51241177     0.35769998
h     0.17331504     0.44571188     0.73482924
h     0.67331506     0.05428810     0.26517076
h     0.82668492     0.94571189     0.76517076
h     0.32668490     0.55428810     0.23482924
h     0.19658462     0.33570325     0.83542099
h     0.69658464     0.16429673     0.16457901
h     0.80341534     0.83570325     0.66457901
h     0.30341532     0.66429674     0.33542099
h     0.17494650     0.35138148     0.02380844
h     0.67494652     0.14861850     0.97619155
h     0.82505346     0.85138148     0.47619155
h     0.32505344     0.64861851     0.52380844
h     0.93430389     0.27205345     0.00673006
h     0.43430391     0.22794652     0.99326994
h     0.06569607     0.77205346     0.49326994
h     0.56569605     0.72794653     0.50673006
h     0.97410302     0.36293723     0.11926318
h     0.47410304     0.13706274     0.88073682
h     0.02589694     0.86293724     0.38073682
h     0.52589692     0.63706275     0.61926318

K_POINTS automatic
2 2 2 1 1 1

CELL_PARAMETERS cubic
   12.024440000000     0.000000000000     0.000000000000
    0.000000000000    20.765573000000     0.000000000000
    0.000000000000     0.000000000000    24.166433000000
