&control
 title='crystal',
 prefix='crystal',
 pseudo_dir='.',
 calculation='vc-relax',
/
&system
 ibrav=0,
 celldm(1)=1.0,
 nat=   128,
 ntyp=  4,
 ecutwfc=60.0,
 ecutrho=600.0,
 xdm=.true.,
 xdm_a1=0.4073,
 xdm_a2=2.4150,
/
&electrons
 conv_thr = 1d-8,
/
&ions
/
&cell
/
ATOMIC_SPECIES
h      1.007940 h.UPF
c     12.010700 c.UPF
n     14.006700 n.UPF
o     15.999400 o.UPF

ATOMIC_POSITIONS crystal
c     0.54122386     0.22520316     0.63611228
c     0.45877613     0.77479683     0.36388768
c     0.04122132     0.27522255     0.13610599
c     0.95877867     0.72477744     0.86389396
c     0.85367248     0.22013650     0.69522914
c     0.14632751     0.77986349     0.30477081
c     0.35368886     0.27900167     0.19523778
c     0.64631112     0.72099832     0.80476218
c     0.86340548     0.38100285     0.60163798
c     0.13659451     0.61899714     0.39836198
c     0.36341357     0.11813088     0.10161226
c     0.63658642     0.88186911     0.89838769
c     0.82399609     0.33012032     0.50376405
c     0.17600390     0.66987967     0.49623590
c     0.32399915     0.16916072     0.00376346
c     0.67600084     0.83083927     0.99623649
c     0.58674485     0.33432710     0.54527727
c     0.41325513     0.66567289     0.45472268
c     0.08673674     0.16606793     0.04526384
c     0.91326325     0.83393206     0.95473612
c     0.66039758     0.21730915     0.38535479
c     0.33960241     0.78269084     0.61464516
c     0.16038983     0.28285402     0.88534564
c     0.83961016     0.71714597     0.11465431
c     0.61954228     0.14858175     0.27654819
c     0.38045770     0.85141824     0.72345176
c     0.11955898     0.35188493     0.77654616
c     0.88044101     0.64811506     0.22345379
c     0.55059255     0.33162297     0.11609425
c     0.44940744     0.66837702     0.88390570
c     0.05058924     0.16913461     0.61606244
c     0.94941075     0.83086538     0.38393752
c     0.73220420     0.06385794     0.39160756
c     0.26779578     0.93614205     0.60839240
c     0.23223211     0.43587217     0.89163703
c     0.76776787     0.56412782     0.10836292
c     0.77466114     0.11705632     0.49757592
c     0.22533884     0.88294367     0.50242403
c     0.27467349     0.38235595     0.99759338
c     0.72532649     0.61764404     0.00240657
c     0.76504197     0.95732291     0.59208476
c     0.23495801     0.04267708     0.40791519
c     0.26505846     0.54207253     0.09213731
c     0.73494152     0.45792746     0.90786264
c     0.80433588     0.00837018     0.69015261
c     0.19566410     0.99162981     0.30984734
c     0.30435152     0.49087200     0.19018074
c     0.69564847     0.50912799     0.80981921
h     0.48843650     0.31985470     0.62892866
h     0.51156348     0.68014529     0.37107130
h     0.98843565     0.18067458     0.12893370
h     0.01156434     0.81932541     0.87106625
h     0.72087528     0.84665117     0.38283566
h     0.27912471     0.15334882     0.61716429
h     0.22095891     0.65315661     0.88290122
h     0.77904108     0.34684338     0.11709873
h     0.76318734     0.12518172     0.31969582
h     0.23681264     0.87481826     0.68030413
h     0.26320430     0.37444827     0.81971609
h     0.73679568     0.62555172     0.18028387
h     0.72718292     0.78992813     0.58844327
h     0.27281707     0.21007186     0.41155668
h     0.22720608     0.70957276     0.08850704
h     0.77279390     0.29042723     0.91149291
h     0.79602320     0.88204695     0.76274311
h     0.20397679     0.11795304     0.23725684
h     0.29603681     0.61718046     0.26279721
h     0.70396317     0.38281953     0.73720275
h     0.88359829     0.25883444     0.77245413
h     0.11640170     0.74116555     0.22754582
h     0.38361693     0.24019883     0.27244472
h     0.61638306     0.75980116     0.72755523
h     0.90122165     0.54859218     0.60505042
h     0.09877834     0.45140781     0.39494953
h     0.40123712     0.95048305     0.10500771
h     0.59876287     0.04951694     0.89499224
h     0.83219988     0.45371865     0.43047530
h     0.16780011     0.54628134     0.56952465
h     0.33220386     0.04559557     0.93044475
h     0.66779613     0.95440442     0.06955520
h     0.56529412     0.28245723     0.71686594
h     0.43470587     0.71754276     0.28313401
h     0.06529867     0.21796027     0.21685753
h     0.93470132     0.78203972     0.78314242
h     0.53493218     0.00518232     0.63226197
h     0.46506781     0.99481767     0.36773799
h     0.03492722     0.49526433     0.13225627
h     0.96507277     0.50473566     0.86774368
h     0.60610522     0.94578903     0.49255422
h     0.39389477     0.05421096     0.50744574
h     0.10611080     0.55451220     0.99256761
h     0.89388918     0.44548779     0.00743234
h     0.66961454     0.43619276     0.39094704
h     0.33038545     0.56380723     0.60905291
h     0.16955748     0.06390032     0.89088391
h     0.83044251     0.93609967     0.10911604
h     0.60435262     0.55355313     0.24437903
h     0.39564737     0.44644686     0.75562092
h     0.10431904     0.94700914     0.74434969
h     0.89568095     0.05299085     0.25565026
h     0.49732677     0.41861332     0.12726457
h     0.50267322     0.58138666     0.87273538
h     0.99732834     0.08219918     0.62719685
h     0.00267165     0.91780080     0.37280311
h     0.57615104     0.43674856     0.04756812
h     0.42384894     0.56325143     0.95243183
h     0.07616639     0.06405117     0.54752140
h     0.92383360     0.93594882     0.45247855
h     0.54482937     0.11663603     0.09628441
h     0.45517062     0.88336396     0.90371554
h     0.04481573     0.38414939     0.59629330
h     0.95518426     0.61585060     0.40370665
n     0.61509908     0.14710185     0.47729512
n     0.38490091     0.85289814     0.52270483
n     0.11510025     0.35314577     0.97729833
n     0.88489974     0.64685422     0.02270162
n     0.59401579     0.35951464     0.21765912
n     0.40598420     0.64048535     0.78234083
n     0.09399427     0.14107413     0.71763899
n     0.90600572     0.85892586     0.28236096
o     0.59706299     0.58286378     0.53428981
o     0.40293700     0.41713621     0.46571014
o     0.09705064     0.91738610     0.03425623
o     0.90294935     0.08261389     0.96574372
o     0.61055064     0.90753185     0.24807571
o     0.38944935     0.09246813     0.75192424
o     0.11062214     0.59299116     0.74809514
o     0.88937785     0.40700883     0.25190481

K_POINTS automatic
2 2 2 1 1 1

CELL_PARAMETERS cubic
   35.357439000000     0.005395000000     0.052467000000
    0.001397000000     9.334861000000    -0.000125000000
   -0.715717000000    -0.000421000000    22.737782000000
