%nprocs=4
%mem=4GB
#p pbepbe aug-cc-pvtz output=wfx scf=(conver=6) int=(grid=ultrafine)

title

0 1
bi 0.000000000000000 0.000000000000000 -1.056551280043490
h -0.719706242874111 -1.246567779182463 -2.070288791993417
h -0.719706242874111 1.246567779182463 -2.070288791993417
h 1.439412485748217 0.000000000000000 -2.070288791993417
i 0.000000000000000 0.000000000000000 2.836950499876859
h 0.000000000000000 0.000000000000000 4.430699758772596

bih3_hi.wfx

