%nprocs=4
%mem=4GB
#p pbepbe aug-cc-pvtz output=wfx scf=(conver=6) int=(grid=ultrafine)

title

0 1
h -0.960104188666668 0.000000000000000 -0.307849772693113
s 0.000000000000000 0.000000000000000 0.615699545386231
h 0.960104188666668 0.000000000000000 -0.307849772693113

h2s.wfx

