%nprocs=4
%mem=4GB
#p pbepbe aug-cc-pvtz output=wfx scf=(conver=6) int=(grid=ultrafine)

title

0 1
pb -0.002791467796513 -2.151475459172388 0.000000000000000
h -0.055723868926166 -0.428985248746410 0.000000000000000
h -0.796074318352524 -2.750170518282312 1.406856452648180
h -0.796074318352524 -2.750170518282312 -1.406856452648180
h 1.639196718826570 -2.672439694405540 0.000000000000000
te 0.011067030132475 2.813201538424281 0.000000000000000
h 1.154656248321773 3.980924231100997 0.000000000000000
h -1.154256023853101 3.959115669363695 0.000000000000000

pbh4_teh2.wfx

