%nprocs=4
%mem=4GB
#p pbepbe aug-cc-pvtz output=wfx scf=(conver=6) int=(grid=ultrafine)

title

0 1
sb -0.039707709751337 -1.345095386595996 0.000000000000000
h 0.698288921542720 -2.249886626024190 1.207982255696980
h 0.698288921542720 -2.249886626024190 -1.207982255696980
h -1.391937724884396 -2.341880167149755 0.000000000000000
h 0.800554665996445 3.358425499304893 0.000000000000000
s -0.500460171354767 3.071203571229712 0.000000000000000
h -0.265026903091374 1.757119735259510 0.000000000000000

sbh3_h2s.wfx

