%nprocs=4
%mem=4GB
#p pbepbe aug-cc-pvtz output=wfx scf=(conver=6) int=(grid=ultrafine)

title

0 1
sb -0.043444274269439 -1.169291625720994 0.000000000000000
h 0.714563042672107 -2.048455873247028 1.211373927989347
h 0.714563042672107 -2.048455873247028 -1.211373927989347
h -1.376479727378052 -2.189777206088427 0.000000000000000
o 0.358108873843775 2.638980519359286 0.000000000000000
h 0.110786312512697 1.710304018966882 0.000000000000000
h -0.478097270053191 3.106696039977308 0.000000000000000

sbh3_h2o.wfx

