%nprocs=4
%mem=4GB
#p pbepbe aug-cc-pvtz output=wfx scf=(conver=6) int=(grid=ultrafine)

title

0 1
te 0.000000000000000 0.000000000000000 -0.769549133359873
h 1.155365747393892 0.000000000000000 0.384774566679939
h -1.155365747393892 0.000000000000000 0.384774566679939

teh2.wfx

