%nprocs=4
%mem=4GB
#p pbepbe aug-cc-pvtz output=wfx scf=(conver=6) int=(grid=ultrafine)

title

0 1
te 0.000000000000000 0.000000000000000 -1.975168956822070
h -1.153220719764877 0.000000000000000 -3.133231113435645
h 1.153220719764877 0.000000000000000 -3.133231113435645
h 0.960254468228911 0.000000000000000 3.055169193345494
s 0.000000000000000 0.000000000000000 2.131292797002367
h -0.960254468228911 0.000000000000000 3.055169193345494

teh2_h2s.wfx

