%nprocs=4
%mem=4GB
#p pbepbe aug-cc-pvtz output=wfx scf=(conver=6) int=(grid=ultrafine)

title

0 1
te 0.852185977486762 -1.633705955044659 0.000000000000000
h 0.889520031687847 -3.277103249197332 0.000000000000000
h -0.776667417880815 -1.674660177249403 0.000000000000000
n -0.174753811566506 1.370898076495665 0.000000000000000
h -0.718273755310389 1.627334235205730 -0.812259509141766
h -0.718273755310389 1.627334235205730 0.812259509141766
h 0.646262730893490 1.959902834584263 0.000000000000000

teh2_nh3.wfx

