&control
 title='crystal',
 prefix='crystal',
 pseudo_dir='../..',
 forc_conv_thr=1.0D-4,
 etot_conv_thr=1.0D-5,
/
&system
 ibrav=0,
 nat=    24,
 ntyp=  3,
 ecutwfc=80.0,
 ecutrho=800.0,
 vdw_corr='xdm',
 nosym=.true.,
/
&electrons
 conv_thr = 1d-10,
/
&ions
/
&cell
 press_conv_thr=0.01,
/
ATOMIC_SPECIES
N    14.006700 n.UPF
C    12.010700 c.UPF
H     1.007940 h.UPF

ATOMIC_POSITIONS crystal
N             0.8397338838        0.6979310712        0.6334608239
N             0.1602658120        0.1979309880        0.8665394746
N             0.1602538528        0.3018360124        0.3665389612
N             0.8397459100        0.8018360288        0.1334614810
C             0.5412606872        0.6179032067        0.5721988736
C             0.4587390673        0.1179031374        0.9278015346
C             0.4587202715        0.3818858276        0.4278040802
C             0.5412794921        0.8818858056        0.0721963942
H             0.8843565865        0.7343851281        0.5040144100
H             0.1156433179        0.2343850488        0.9959860397
H             0.9672768529        0.5427653710        0.7052679419
H             0.0327231526        0.0427652322        0.7947325569
H             0.4040395573        0.7832623926        0.4980380896
H             0.5959601536        0.2832622214        0.0019624977
H             0.4959337639        0.5728958965        0.7112202533
H             0.5040656876        0.0728958272        0.7887799826
H             0.1156186777        0.2654130616        0.4959847970
H             0.8843809128        0.7654131267        0.0040156190
H             0.0327038025        0.4569863685        0.2947080254
H             0.9672956369        0.9569865762        0.2052922561
H             0.5959580589        0.2165351971        0.5019632494
H             0.4040418312        0.7165352569        0.9980370268
H             0.5040425543        0.4269097106        0.2887836427
H             0.4959574869        0.9269097166        0.2112169487

K_POINTS automatic
6 5 4  1 1 1

CELL_PARAMETERS bohr
   9.545164684   0.000000961  -0.003254204
   0.000000967   9.702162089  -0.000000171
  -4.745835979  -0.000000705  12.308640985
