## FHIaims input file generated by critic2.
lattice_vector 3.4420000002       0.0000000000       0.0000000000       
lattice_vector -1.7209999999      2.9808594399       0.0000000000       
lattice_vector 0.0000000000       0.0000000000       15.5400000000      
atom_frac  0.0000000000       0.0000000000       0.2500000000       Nb
atom_frac  0.0000000000       0.0000000000       0.7500000000       Nb
atom_frac  0.3333334000       0.6666667000       0.1418687300       Se
atom_frac  0.3333334000       0.6666667000       0.3581312700       Se
atom_frac  0.6666667900       0.3333334000       0.6418687300       Se
atom_frac  0.6666667900       0.3333334000       0.8581312700       Se
