&control
 title='crystal',
 prefix='crystal',
 pseudo_dir='.',
 calculation='vc-relax',
/
&system
 ibrav=0,
 celldm(1)=1.0,
 nat=    44,
 ntyp=  4,
 ecutwfc=60.0,
 ecutrho=600.0,
 xdm=.true.,
 xdm_a1=0.4073,
 xdm_a2=2.4150,
/
&electrons
 conv_thr = 1d-8,
/
&ions
/
&cell
/
ATOMIC_SPECIES
h      1.007940 h.UPF
c     12.010700 c.UPF
n     14.006700 n.UPF
o     15.999400 o.UPF

ATOMIC_POSITIONS crystal
c     0.58959743     0.67017675     0.38586426
c     0.67016301     0.58958614     0.61413417
c     0.60855765     0.40668928     0.37071916
c     0.40669345     0.60856167     0.62928119
c     0.56749124     0.35577167     0.27168150
c     0.35577228     0.56749044     0.72831899
c     0.83669854     0.58687871     0.22114716
c     0.58687866     0.83669976     0.77885269
c     0.82255896     0.50410753     0.12792402
c     0.50410782     0.82255993     0.87207577
c     0.10256116     0.72446582     0.08063042
c     0.72446546     0.10256368     0.91936853
h     0.41902890     0.17803635     0.48785060
h     0.17803495     0.41902917     0.51215059
h     0.39867261     0.95154524     0.41574924
h     0.95154813     0.39867497     0.58425091
h     0.16557206     0.07411975     0.39763690
h     0.07411787     0.16557155     0.60236252
h     0.82610863     0.44691029     0.39678857
h     0.44691124     0.82610962     0.60321129
h     0.53294101     0.13716894     0.26859165
h     0.13716784     0.53294100     0.73140992
h     0.36522477     0.34541394     0.24105202
h     0.34541485     0.36522514     0.75894875
n     0.38344469     0.13586859     0.42103219
n     0.13587237     0.38344172     0.57896842
o     0.34815562     0.61266086     0.41237688
o     0.61266305     0.34815574     0.58762395
o     0.80563270     0.92793029     0.36902112
o     0.92794799     0.80564453     0.63097981
h     0.03587865     0.61001063     0.25954126
h     0.61001146     0.03587861     0.74045865
h     0.86371993     0.80497659     0.21708475
h     0.80497856     0.86372057     0.78291468
h     0.62853699     0.48734426     0.08769233
h     0.48734338     0.62853867     0.91230734
h     0.78684760     0.28176811     0.13295218
h     0.28176666     0.78684910     0.86704800
h     0.29789746     0.73668666     0.11813201
h     0.73668746     0.29789937     0.88186679
h     0.08951161     0.66236846     0.01392846
h     0.66236916     0.08951496     0.98607029
h     0.14282387     0.94829494     0.07358910
h     0.94829544     0.14282531     0.92640928

K_POINTS automatic
2 2 2 1 1 1

CELL_PARAMETERS cubic
   10.214206000000    -0.054857000000    -0.298432000000
   -5.505760000000     8.603444000000     0.298457000000
   -3.283238000000     1.808421000000    28.544304000000
