&control
 title='crystal',
 prefix='crystal',
 pseudo_dir='.',
 calculation='vc-relax',
/
&system
 ibrav=0,
 celldm(1)=1.0,
 nat=   128,
 ntyp=  4,
 ecutwfc=60.0,
 ecutrho=600.0,
 xdm=.true.,
 xdm_a1=0.4073,
 xdm_a2=2.4150,
/
&electrons
 conv_thr = 1d-8,
/
&ions
/
&cell
/
ATOMIC_SPECIES
h      1.007940 h.UPF
c     12.010700 c.UPF
n     14.006700 n.UPF
o     15.999400 o.UPF

ATOMIC_POSITIONS crystal
o     0.45089220     0.26543021     0.11136855
o     0.54910782     0.73456981     0.88863144
o     0.45089221     0.23456980     0.61136855
o     0.54910780     0.76543022     0.38863144
n     0.37361590     0.18252135     0.16673171
n     0.62638413     0.81747867     0.83326828
n     0.37361591     0.31747866     0.66673170
n     0.62638411     0.68252137     0.33326828
c     0.45278537     0.07400278     0.23942409
c     0.54721465     0.92599724     0.76057590
c     0.45278538     0.42599723     0.73942409
c     0.54721464     0.57400279     0.26057590
c     0.54838038     0.98903869     0.16364482
c     0.45161964     0.01096134     0.83635517
c     0.54838039     0.51096133     0.66364481
c     0.45161962     0.48903870     0.33635517
c     0.55561845     0.12823230     0.34557372
c     0.44438157     0.87176772     0.65442627
c     0.55561846     0.37176771     0.84557372
c     0.44438156     0.62823231     0.15442627
c     0.30604969     0.00168224     0.27005710
c     0.69395034     0.99831778     0.72994289
c     0.30604970     0.49831777     0.77005710
c     0.69395032     0.50168226     0.22994289
o     0.18887513     0.01974929     0.17050638
o     0.81112489     0.98025073     0.82949361
o     0.18887514     0.48025072     0.67050638
o     0.81112487     0.51974930     0.32949361
c     0.20159688     0.15433223     0.13477526
c     0.79840314     0.84566779     0.86522473
c     0.20159690     0.34566778     0.63477525
c     0.79840312     0.65433224     0.36522473
c     0.14297498     0.17597519     0.00506840
c     0.85702504     0.82402483     0.99493159
c     0.14297500     0.32402482     0.50506839
c     0.85702502     0.67597520     0.49493159
c     0.01409135     0.28333936     0.00535099
c     0.98590867     0.71666067     0.99464900
c     0.01409136     0.21666065     0.50535098
c     0.98590865     0.78333937     0.49464900
c     0.08396375     0.36927899     0.10888075
c     0.91603627     0.63072103     0.89111924
c     0.08396376     0.13072102     0.60888074
c     0.91603625     0.86927900     0.39111924
c     0.09836891     0.25314686     0.19543919
c     0.90163111     0.74685316     0.80456080
c     0.09836892     0.24685315     0.69543919
c     0.90163110     0.75314687     0.30456080
c     0.92852178     0.19739243     0.18112611
c     0.07147824     0.80260759     0.81887388
c     0.92852179     0.30260758     0.68112610
c     0.07147823     0.69739244     0.31887388
c     0.86851156     0.22162722     0.05081859
c     0.13148847     0.77837280     0.94918140
c     0.86851157     0.27837279     0.55081858
c     0.13148845     0.72162723     0.44918140
h     0.98700267     0.33483222     0.92257563
h     0.01299735     0.66516780     0.07742436
h     0.98700268     0.16516779     0.42257562
h     0.01299733     0.83483223     0.57742436
h     0.14775334     0.27594133     0.28439840
h     0.85224668     0.72405869     0.71560159
h     0.14775335     0.22405868     0.78439840
h     0.85224666     0.77594134     0.21560159
h     0.26512315     0.04532177     0.34782236
h     0.73487687     0.95467825     0.65217763
h     0.26512316     0.45467824     0.84782236
h     0.73487685     0.54532178     0.15217763
h     0.32687087     0.89547173     0.28379087
h     0.67312915     0.10452829     0.71620912
h     0.32687089     0.60452828     0.78379086
h     0.67312913     0.39547174     0.21620912
h     0.09959727     0.08301967     0.96383568
h     0.90040276     0.91698035     0.03616431
h     0.09959728     0.41698034     0.46383567
h     0.90040274     0.58301968     0.53616431
h     0.24331469     0.21194547     0.96356631
h     0.75668533     0.78805455     0.03643368
h     0.24331470     0.28805454     0.46356631
h     0.75668531     0.71194548     0.53643368
h     0.00290981     0.44644794     0.13193190
h     0.99709021     0.55355209     0.86806809
h     0.00290982     0.05355208     0.63193190
h     0.99709019     0.94644795     0.36806809
h     0.19782795     0.41430570     0.09740282
h     0.80217207     0.58569432     0.90259717
h     0.19782796     0.08569431     0.59740282
h     0.80217205     0.91430571     0.40259717
h     0.85832801     0.25248464     0.23750911
h     0.14167202     0.74751538     0.76249088
h     0.85832802     0.24751537     0.73750910
h     0.14167200     0.75248465     0.26249088
h     0.92611206     0.09258013     0.20575359
h     0.07388797     0.90741989     0.79424640
h     0.92611207     0.40741988     0.70575358
h     0.07388795     0.59258014     0.29424640
h     0.76828728     0.29065592     0.04095348
h     0.23171274     0.70934411     0.95904651
h     0.76828729     0.20934409     0.54095348
h     0.23171272     0.79065593     0.45904651
h     0.82963355     0.13093343     0.00358244
h     0.17036648     0.86906659     0.99641755
h     0.82963356     0.36906658     0.50358244
h     0.17036646     0.63093344     0.49641755
h     0.47001165     0.94034643     0.09431008
h     0.52998838     0.05965359     0.90568991
h     0.47001166     0.55965358     0.59431008
h     0.52998836     0.44034644     0.40568991
h     0.61462883     0.91279847     0.21642101
h     0.38537119     0.08720155     0.78357898
h     0.61462884     0.58720154     0.71642100
h     0.38537117     0.41279848     0.28357898
h     0.63139749     0.05252724     0.12470202
h     0.36860253     0.94747278     0.87529797
h     0.63139750     0.44747277     0.62470201
h     0.36860251     0.55252725     0.37529797
h     0.65574369     0.18461474     0.32070216
h     0.34425633     0.81538528     0.67929784
h     0.65574370     0.31538527     0.82070215
h     0.34425631     0.68461475     0.17929784
h     0.48818898     0.19188316     0.39768066
h     0.51181104     0.80811686     0.60231933
h     0.48818900     0.30811685     0.89768066
h     0.51181102     0.69188317     0.10231933
h     0.60209565     0.04426186     0.39961552
h     0.39790437     0.95573816     0.60038447
h     0.60209566     0.45573815     0.89961551
h     0.39790435     0.54426187     0.10038447

K_POINTS automatic
2 2 2 1 1 1

CELL_PARAMETERS cubic
   16.108796000000     0.000000000000     0.125720000000
    0.000000000000    19.034450000000     0.000000000000
   -3.019074000000     0.000000000000    21.813584000000
