&control
 title='crystal',
 prefix='crystal',
 pseudo_dir='.',
 calculation='vc-relax',
/
&system
 ibrav=0,
 celldm(1)=1.0,
 nat=    92,
 ntyp=  5,
 ecutwfc=60.0,
 ecutrho=600.0,
 xdm=.true.,
 xdm_a1=0.4073,
 xdm_a2=2.4150,
/
&electrons
 conv_thr = 1d-8,
/
&ions
/
&cell
/
ATOMIC_SPECIES
h      1.007940 h.UPF
c     12.010700 c.UPF
n     14.006700 n.UPF
o     15.999400 o.UPF
s     32.065000 s.UPF

ATOMIC_POSITIONS crystal
s     0.93232678     0.29009790     0.42215713
s     0.06767325     0.70990213     0.57784285
s     0.06765945     0.79007621     0.07784713
s     0.93234058     0.20992381     0.92215285
o     0.64028868     0.09149998     0.58731641
o     0.35971135     0.90850005     0.41268356
o     0.35972302     0.59151561     0.91268328
o     0.64027700     0.40848442     0.08731669
n     0.20285209     0.35946976     0.55951688
n     0.79714794     0.64053026     0.44048309
n     0.79714614     0.85946571     0.94048313
n     0.20285389     0.14053431     0.05951685
n     0.30665872     0.15563165     0.50340354
n     0.69334131     0.84436838     0.49659644
n     0.69333345     0.65562565     0.99660179
n     0.30666658     0.34437437     0.00339818
c     0.14740398     0.27060268     0.49689059
c     0.85259605     0.72939735     0.50310939
c     0.85258961     0.77059453     0.00311362
c     0.14741042     0.22940550     0.99688636
c     0.47295064     0.17295699     0.56749400
c     0.52704939     0.82704304     0.43250597
c     0.52704395     0.67295820     0.93250624
c     0.47295608     0.32704183     0.06749374
c     0.41156686     0.31175280     0.61097518
c     0.58843317     0.68824723     0.38902480
c     0.58843165     0.81176542     0.88902573
c     0.41156838     0.18823461     0.11097424
c     0.61133073     0.42304956     0.61047079
c     0.38866930     0.57695046     0.38952919
c     0.38867414     0.92307566     0.88953080
c     0.61132589     0.07692437     0.11046917
c     0.35342392     0.27263980     0.69722093
c     0.64657611     0.72736022     0.30277904
c     0.64656962     0.77267527     0.80277950
c     0.35343041     0.22732476     0.19722047
c     0.17110114     0.15061167     0.69732837
c     0.82889889     0.84938836     0.30267161
c     0.82885724     0.65061763     0.80267011
c     0.17114279     0.34938240     0.19732987
c     0.27364609     0.40650281     0.74129449
c     0.72635394     0.59349722     0.25870548
c     0.72638275     0.90654475     0.75871430
c     0.27361728     0.09345528     0.24128568
h     0.13383713     0.46294372     0.56329213
h     0.86616290     0.53705630     0.43670784
h     0.86616342     0.96293875     0.93670721
h     0.13383661     0.03706128     0.06329276
h     0.30579708     0.06747914     0.46430511
h     0.69420295     0.93252089     0.53569486
h     0.69419291     0.56746655     0.03570136
h     0.30580712     0.43253347     0.96429862
h     0.76150064     0.38764835     0.65154569
h     0.23849939     0.61235168     0.34845429
h     0.23849815     0.88769291     0.84845679
h     0.76150188     0.11230712     0.15154319
h     0.55410312     0.53012386     0.62961691
h     0.44589691     0.46987617     0.37038307
h     0.44591835     0.03014784     0.87038184
h     0.55408168     0.96985219     0.12961814
h     0.66831730     0.43284696     0.55024993
h     0.33168273     0.56715306     0.44975005
h     0.33169658     0.93287097     0.94975264
h     0.66830345     0.06712906     0.05024733
h     0.52152354     0.23376878     0.72783574
h     0.47847648     0.76623125     0.27216423
h     0.47846129     0.73383517     0.77216195
h     0.52153874     0.26616486     0.22783802
h     0.23129056     0.04797662     0.67271051
h     0.76870947     0.95202341     0.32728946
h     0.76863699     0.54799027     0.82729061
h     0.23136304     0.45200976     0.17270936
h     0.00473046     0.17983074     0.66264854
h     0.99526957     0.82016929     0.33735143
h     0.99524017     0.67980654     0.83734815
h     0.00475986     0.32019349     0.16265182
h     0.13219064     0.13005453     0.75901101
h     0.86780939     0.86994549     0.24098897
h     0.86775446     0.63006131     0.74098708
h     0.13224557     0.36993872     0.25901290
h     0.11822696     0.45653369     0.70845134
h     0.88177307     0.54346634     0.29154863
h     0.88179573     0.95655415     0.79156553
h     0.11820430     0.04344588     0.20843445
h     0.41071954     0.48972728     0.75032940
h     0.58928049     0.51027275     0.24967058
h     0.58932017     0.98978089     0.74967540
h     0.41067986     0.01021914     0.25032458
h     0.22403105     0.37529233     0.80039586
h     0.77596898     0.62470770     0.19960411
h     0.77601568     0.87534921     0.69961468
h     0.22398435     0.12465082     0.30038529

K_POINTS automatic
2 2 2 1 1 1

CELL_PARAMETERS cubic
   10.791371000000     0.000140000000     0.004162000000
    0.000210000000    17.354216000000     0.000494000000
   -3.177438000000     0.000878000000    31.531978000000
