&control
 title='crystal',
 prefix='crystal',
 pseudo_dir='.',
 calculation='vc-relax',
/
&system
 ibrav=0,
 celldm(1)=1.0,
 nat=    96,
 ntyp=  4,
 ecutwfc=60.0,
 ecutrho=600.0,
 xdm=.true.,
 xdm_a1=0.4073,
 xdm_a2=2.4150,
/
&electrons
 conv_thr = 1d-8,
/
&ions
/
&cell
/
ATOMIC_SPECIES
h      1.007940 h.UPF
c     12.010700 c.UPF
n     14.006700 n.UPF
o     15.999400 o.UPF

ATOMIC_POSITIONS crystal
c     0.09445121     0.79312676     0.28190793
c     0.59445121     0.70687324     0.28190793
c     0.40554879     0.29312676     0.78190794
c     0.90554878     0.20687324     0.78190794
c     0.06632524     0.84400209     0.07336294
c     0.56632524     0.65599791     0.07336294
c     0.43367476     0.34400209     0.57336295
c     0.93367475     0.15599791     0.57336295
c     0.00090915     0.81929824     0.03591550
c     0.50090915     0.68070176     0.03591550
c     0.49909085     0.31929824     0.53591551
c     0.99909085     0.18070176     0.53591551
c     0.96201827     0.74261874     0.20882291
c     0.46201826     0.75738126     0.20882291
c     0.53798173     0.24261874     0.70882292
c     0.03798173     0.25738126     0.70882292
c     0.98944774     0.68451803     0.41557011
c     0.48944774     0.81548197     0.41557011
c     0.51055226     0.18451803     0.91557011
c     0.01055226     0.31548197     0.91557011
c     0.05501580     0.71146371     0.45077313
c     0.55501580     0.78853629     0.45077313
c     0.44498420     0.21146371     0.95077314
c     0.94498419     0.28853629     0.95077314
c     0.16484375     0.83100480     0.32225633
c     0.66484375     0.66899520     0.32225633
c     0.33515624     0.33100480     0.82225634
c     0.83515624     0.16899520     0.82225634
c     0.20889483     0.64997665     0.27154252
c     0.70889483     0.85002335     0.27154252
c     0.29110517     0.14997665     0.77154252
c     0.79110516     0.35002335     0.77154252
c     0.19693337     0.56446015     0.03372159
c     0.69693336     0.93553985     0.03372159
c     0.30306663     0.06446015     0.53372159
c     0.80306663     0.43553985     0.53372159
h     0.87418077     0.67948408     0.30887800
h     0.37418077     0.82051592     0.30887800
h     0.62581923     0.17948408     0.80887801
h     0.12581922     0.32051592     0.80887801
h     0.15401374     0.42933688     0.44098909
h     0.65401374     0.07066312     0.44098909
h     0.34598625     0.92933688     0.94098910
h     0.84598625     0.57066312     0.94098910
h     0.20664684     0.55167677     0.60904990
h     0.70664684     0.94832323     0.60904990
h     0.29335316     0.05167677     0.10904991
h     0.79335315     0.44832323     0.10904991
h     0.23206842     0.37018726     0.41729263
h     0.73206842     0.12981274     0.41729263
h     0.26793158     0.87018726     0.91729264
h     0.76793158     0.62981274     0.91729264
h     0.09588923     0.90918966     0.93964673
h     0.59588922     0.59081034     0.93964673
h     0.40411077     0.40918966     0.43964674
h     0.90411077     0.09081034     0.43964674
h     0.97927147     0.86396384     0.87562610
h     0.47927147     0.63603616     0.87562610
h     0.52072852     0.36396384     0.37562611
h     0.02072852     0.13603616     0.37562611
h     0.95937089     0.62340597     0.55005671
h     0.45937089     0.87659403     0.55005671
h     0.54062910     0.12340597     0.05005672
h     0.04062910     0.37659403     0.05005672
h     0.07501902     0.67358425     0.61625706
h     0.57501902     0.82641575     0.61625706
h     0.42498098     0.17358425     0.11625707
h     0.92498098     0.32641575     0.11625707
h     0.17302973     0.87628892     0.49930831
h     0.67302973     0.62371108     0.49930831
h     0.32697026     0.37628892     0.99930832
h     0.82697026     0.12371108     0.99930832
h     0.18084098     0.95654587     0.21624111
h     0.68084098     0.54345413     0.21624111
h     0.31915902     0.45654587     0.71624112
h     0.81915902     0.04345413     0.71624112
h     0.25910428     0.69803181     0.28650685
h     0.75910427     0.80196819     0.28650685
h     0.24089572     0.19803181     0.78650686
h     0.74089572     0.30196819     0.78650686
n     0.19976193     0.48986734     0.44506398
n     0.69976193     0.01013266     0.44506398
n     0.30023807     0.98986734     0.94506399
n     0.80023807     0.51013266     0.94506399
o     0.89731300     0.73004434     0.16974734
o     0.39731299     0.76995566     0.16974734
o     0.60268700     0.23004434     0.66974735
o     0.10268700     0.26995566     0.66974735
o     0.16989163     0.39555562     0.02011991
o     0.66989163     0.10444438     0.02011991
o     0.33010837     0.89555562     0.52011992
o     0.83010837     0.60444438     0.52011992
o     0.21496029     0.67339825     0.86701352
o     0.71496029     0.82660175     0.86701352
o     0.28503971     0.17339825     0.36701352
o     0.78503970     0.32660175     0.36701352

K_POINTS automatic
2 2 2 1 1 1

CELL_PARAMETERS cubic
   39.372058000000     0.000000000000     0.000000000000
    0.000000000000    12.596249000000     0.000000000000
    0.000000000000     0.000000000000    11.124729000000
