&control
 title='crystal',
 prefix='crystal',
 pseudo_dir='.',
 calculation='vc-relax',
/
&system
 ibrav=0,
 celldm(1)=1.0,
 nat=   272,
 ntyp=  3,
 ecutwfc=60.0,
 ecutrho=600.0,
 xdm=.true.,
 xdm_a1=0.4073,
 xdm_a2=2.4150,
/
&electrons
 conv_thr = 1d-8,
/
&ions
/
&cell
/
ATOMIC_SPECIES
h      1.007940 h.UPF
c     12.010700 c.UPF
n     14.006700 n.UPF

ATOMIC_POSITIONS crystal
n     0.47986005     0.87764786     0.05798842
n     0.52013995     0.12235213     0.94201158
n     0.97986006     0.37764786     0.44201158
n     0.47986005     0.12235213     0.55798842
n     0.97986006     0.62235213     0.94201158
n     0.02013995     0.37764786     0.05798842
n     0.52013995     0.87764786     0.44201158
n     0.02013995     0.62235213     0.55798842
n     0.47570533     0.78010038     0.10313276
n     0.52429467     0.21989961     0.89686724
n     0.97570534     0.28010038     0.39686724
n     0.47570533     0.21989961     0.60313276
n     0.97570534     0.71989961     0.89686724
n     0.02429467     0.28010038     0.10313276
n     0.52429467     0.78010038     0.39686724
n     0.02429467     0.71989961     0.60313276
n     0.39722244     0.70811161     0.08858989
n     0.60277756     0.29188838     0.91141010
n     0.89722244     0.20811161     0.41141010
n     0.39722244     0.29188838     0.58858989
n     0.89722244     0.79188838     0.91141010
n     0.10277756     0.20811161     0.08858989
n     0.60277756     0.70811161     0.41141010
n     0.10277756     0.79188838     0.58858989
n     0.34788438     0.75862224     0.03177031
n     0.65211562     0.24137776     0.96822969
n     0.84788439     0.25862224     0.46822969
n     0.34788438     0.24137776     0.53177031
n     0.84788439     0.74137775     0.96822969
n     0.15211562     0.25862224     0.03177031
n     0.65211562     0.75862224     0.46822969
n     0.15211562     0.74137775     0.53177031
n     0.36893531     0.93050019     0.95741692
n     0.63106469     0.06949980     0.04258307
n     0.86893531     0.43050019     0.54258307
n     0.36893531     0.06949980     0.45741692
n     0.86893531     0.56949980     0.04258307
n     0.13106469     0.43050019     0.95741692
n     0.63106469     0.93050019     0.54258307
n     0.13106469     0.56949980     0.45741692
h     0.41828605     0.00320823     0.94405907
h     0.58171395     0.99679176     0.05594092
h     0.91828605     0.50320824     0.55594092
h     0.41828605     0.99679176     0.44405907
h     0.91828605     0.49679175     0.05594092
h     0.08171395     0.50320824     0.94405907
h     0.58171395     0.00320823     0.55594092
h     0.08171395     0.49679175     0.44405907
c     0.39932704     0.86193010     0.01330720
c     0.60067296     0.13806989     0.98669280
c     0.89932704     0.36193010     0.48669280
c     0.39932704     0.13806989     0.51330720
c     0.89932704     0.63806989     0.98669280
c     0.10067296     0.36193010     0.01330720
c     0.60067296     0.86193010     0.48669280
c     0.10067296     0.63806989     0.51330720
c     0.24797025     0.71661736     0.00081148
c     0.75202975     0.28338263     0.99918852
c     0.74797026     0.21661736     0.49918852
c     0.24797025     0.28338263     0.50081148
c     0.74797026     0.78338263     0.99918852
c     0.25202975     0.21661736     0.00081148
c     0.75202975     0.71661736     0.49918852
c     0.25202975     0.78338263     0.50081148
h     0.25437443     0.61671020     0.99397256
h     0.74562557     0.38328979     0.00602743
h     0.75437444     0.11671021     0.50602743
h     0.25437443     0.38328979     0.49397256
h     0.75437444     0.88328978     0.00602743
h     0.24562557     0.11671021     0.99397256
h     0.74562557     0.61671020     0.50602743
h     0.24562557     0.88328978     0.49397256
c     0.23830662     0.77919538     0.93041254
c     0.76169338     0.22080461     0.06958746
c     0.73830662     0.27919539     0.56958746
c     0.23830662     0.22080461     0.43041254
c     0.73830662     0.72080460     0.06958746
c     0.26169338     0.27919539     0.93041254
c     0.76169338     0.77919538     0.56958746
c     0.26169338     0.72080460     0.43041254
h     0.18140216     0.73998940     0.89415467
h     0.81859784     0.26001059     0.10584532
h     0.68140216     0.23998940     0.60584532
h     0.18140216     0.26001059     0.39415467
h     0.68140216     0.76001059     0.10584532
h     0.31859784     0.23998940     0.89415467
h     0.81859784     0.73998940     0.60584532
h     0.31859784     0.76001059     0.39415467
c     0.29186347     0.88160486     0.91182788
c     0.70813653     0.11839513     0.08817211
c     0.79186347     0.38160487     0.58817211
c     0.29186347     0.11839513     0.41182788
c     0.79186347     0.61839512     0.08817211
c     0.20813653     0.38160487     0.91182788
c     0.70813653     0.88160486     0.58817211
c     0.20813653     0.61839512     0.41182788
c     0.15702413     0.74219965     0.05172742
c     0.84297587     0.25780034     0.94827258
c     0.65702413     0.24219965     0.44827258
c     0.15702413     0.25780034     0.55172742
c     0.65702413     0.75780034     0.94827258
c     0.34297587     0.24219965     0.05172742
c     0.84297587     0.74219965     0.44827258
c     0.34297587     0.75780034     0.55172742
c     0.13771752     0.66016521     0.10695489
c     0.86228248     0.33983478     0.89304511
c     0.63771752     0.16016521     0.39304511
c     0.13771752     0.33983478     0.60695489
c     0.63771752     0.83983478     0.89304511
c     0.36228248     0.16016521     0.10695489
c     0.86228248     0.66016521     0.39304511
c     0.36228248     0.83983478     0.60695489
h     0.18615823     0.57823889     0.11248782
h     0.81384177     0.42176110     0.88751218
h     0.68615823     0.07823890     0.38751218
h     0.18615823     0.42176110     0.61248781
h     0.68615823     0.92176109     0.88751218
h     0.31384177     0.07823890     0.11248782
h     0.81384177     0.57823889     0.38751218
h     0.31384177     0.92176109     0.61248781
c     0.05817276     0.68384176     0.15585656
c     0.94182724     0.31615824     0.84414343
c     0.55817277     0.18384176     0.34414343
c     0.05817276     0.31615824     0.65585656
c     0.55817277     0.81615823     0.84414343
c     0.44182724     0.18384176     0.15585656
c     0.94182724     0.68384176     0.34414343
c     0.44182724     0.81615823     0.65585656
h     0.04533643     0.61942853     0.19889541
h     0.95466357     0.38057146     0.80110459
h     0.54533644     0.11942853     0.30110459
h     0.04533643     0.38057146     0.69889540
h     0.54533644     0.88057146     0.80110459
h     0.45466357     0.11942853     0.19889541
h     0.95466357     0.61942853     0.30110459
h     0.45466357     0.88057146     0.69889540
c     0.99592963     0.78894350     0.14953283
c     0.00407037     0.21105649     0.85046716
c     0.49592964     0.28894350     0.35046716
c     0.99592963     0.21105649     0.64953283
c     0.49592964     0.71105649     0.85046716
c     0.50407037     0.28894350     0.14953283
c     0.00407037     0.78894350     0.35046716
c     0.50407037     0.71105649     0.64953283
h     0.93303542     0.80710054     0.18728094
h     0.06696458     0.19289945     0.81271906
h     0.43303542     0.30710055     0.31271906
h     0.93303542     0.19289945     0.68728094
h     0.43303542     0.69289944     0.81271906
h     0.56696458     0.30710055     0.18728094
h     0.06696458     0.80710054     0.31271906
h     0.56696458     0.69289944     0.68728094
c     0.01510894     0.87120051     0.09448704
c     0.98489106     0.12879948     0.90551295
c     0.51510894     0.37120051     0.40551295
c     0.01510894     0.12879948     0.59448704
c     0.51510894     0.62879948     0.90551295
c     0.48489106     0.37120051     0.09448704
c     0.98489106     0.87120051     0.40551295
c     0.48489106     0.62879948     0.59448704
h     0.96782707     0.95422128     0.08977564
h     0.03217293     0.04577871     0.91022436
h     0.46782707     0.45422128     0.41022436
h     0.96782707     0.04577871     0.58977564
h     0.46782707     0.54577871     0.91022436
h     0.53217293     0.45422128     0.08977564
h     0.03217293     0.95422128     0.41022436
h     0.53217293     0.54577871     0.58977564
c     0.09566093     0.84827026     0.04599954
c     0.90433907     0.15172973     0.95400046
c     0.59566094     0.34827026     0.45400046
c     0.09566093     0.15172973     0.54599953
c     0.59566094     0.65172973     0.95400046
c     0.40433907     0.34827026     0.04599954
c     0.90433907     0.84827026     0.45400046
c     0.40433907     0.65172973     0.54599953
h     0.11052194     0.91224796     0.00292052
h     0.88947806     0.08775203     0.99707947
h     0.61052194     0.41224797     0.49707947
h     0.11052194     0.08775203     0.50292052
h     0.61052194     0.58775202     0.99707947
h     0.38947806     0.41224797     0.00292052
h     0.88947806     0.91224796     0.49707947
h     0.38947806     0.58775202     0.50292052
c     0.27444256     0.94661957     0.84439475
c     0.72555744     0.05338042     0.15560524
c     0.77444256     0.44661957     0.65560524
c     0.27444256     0.05338042     0.34439475
c     0.77444256     0.55338042     0.15560524
c     0.22555744     0.44661957     0.84439475
c     0.72555744     0.94661957     0.65560524
c     0.22555744     0.55338042     0.34439475
c     0.18081746     0.92788397     0.80589154
c     0.81918254     0.07211602     0.19410845
c     0.68081747     0.42788397     0.69410845
c     0.18081746     0.07211602     0.30589154
c     0.68081747     0.57211602     0.19410845
c     0.31918254     0.42788397     0.80589154
c     0.81918254     0.92788397     0.69410845
c     0.31918254     0.57211602     0.30589154
h     0.12033557     0.86639472     0.82635357
h     0.87966443     0.13360527     0.17364643
h     0.62033557     0.36639473     0.67364643
h     0.12033557     0.13360527     0.32635356
h     0.62033557     0.63360526     0.17364643
h     0.37966443     0.36639473     0.82635357
h     0.87966443     0.86639472     0.67364643
h     0.37966443     0.63360526     0.32635356
c     0.16398098     0.98830973     0.74217705
c     0.83601902     0.01169027     0.25782295
c     0.66398099     0.48830973     0.75782295
c     0.16398098     0.01169027     0.24217705
c     0.66398099     0.51169026     0.25782295
c     0.33601902     0.48830973     0.74217705
c     0.83601902     0.98830973     0.75782295
c     0.33601902     0.51169026     0.24217705
h     0.09186106     0.97150826     0.71255495
h     0.90813894     0.02849173     0.28744505
h     0.59186107     0.47150827     0.78744505
h     0.09186106     0.02849173     0.21255495
h     0.59186107     0.52849172     0.28744505
h     0.40813894     0.47150827     0.71255495
h     0.90813894     0.97150826     0.78744505
h     0.40813894     0.52849172     0.21255495
c     0.23884018     0.07084434     0.71602680
c     0.76115982     0.92915565     0.28397320
c     0.73884018     0.57084434     0.78397320
c     0.23884018     0.92915565     0.21602680
c     0.73884018     0.42915565     0.28397320
c     0.26115982     0.57084434     0.71602680
c     0.76115982     0.07084434     0.78397320
c     0.26115982     0.42915565     0.21602680
h     0.22407854     0.11983093     0.66690739
h     0.77592146     0.88016906     0.33309261
h     0.72407855     0.61983094     0.83309261
h     0.22407854     0.88016906     0.16690738
h     0.72407855     0.38016905     0.33309261
h     0.27592146     0.61983094     0.66690739
h     0.77592146     0.11983093     0.83309261
h     0.27592146     0.38016905     0.16690738
c     0.33178220     0.09042625     0.75370455
c     0.66821780     0.90957374     0.24629544
c     0.83178220     0.59042625     0.74629544
c     0.33178220     0.90957374     0.25370455
c     0.83178220     0.40957374     0.24629544
c     0.16821780     0.59042625     0.75370455
c     0.66821780     0.09042625     0.74629544
c     0.16821780     0.40957374     0.25370455
h     0.39099399     0.15403469     0.73380967
h     0.60900601     0.84596530     0.26619033
h     0.89099399     0.65403469     0.76619033
h     0.39099399     0.84596530     0.23380967
h     0.89099399     0.34596530     0.26619033
h     0.10900601     0.65403469     0.73380967
h     0.60900601     0.15403469     0.76619033
h     0.10900601     0.34596530     0.23380967
c     0.34969867     0.02826461     0.81701900
c     0.65030133     0.97173538     0.18298100
c     0.84969867     0.52826461     0.68298100
c     0.34969867     0.97173538     0.31701899
c     0.84969867     0.47173538     0.18298100
c     0.15030133     0.52826461     0.81701900
c     0.65030133     0.02826461     0.68298100
c     0.15030133     0.47173538     0.31701899
h     0.42374248     0.04402539     0.84441788
h     0.57625752     0.95597460     0.15558212
h     0.92374249     0.54402540     0.65558212
h     0.42374248     0.95597460     0.34441787
h     0.92374249     0.45597459     0.15558212
h     0.07625752     0.54402540     0.84441788
h     0.57625752     0.04402539     0.65558212
h     0.07625752     0.45597459     0.34441787

K_POINTS automatic
2 2 2 1 1 1

CELL_PARAMETERS cubic
   23.944472000000     0.000000000000     0.000000000000
    0.000000000000    20.590380000000     0.000000000000
    0.000000000000     0.000000000000    35.743933000000
