&control
 title='crystal',
 prefix='crystal',
 pseudo_dir='..',
 calculation='vc-relax',
 etot_conv_thr=1.0D-5,
/
&system
 ibrav=0,
 celldm(1)=1.0,
 nat=   272,
 ntyp=  3,
 ecutwfc=80.0,
 ecutrho=800.0,
 xdm=.true.,
 xdm_a1=0.6512,
 xdm_a2=1.4633,
/
&electrons
 conv_thr = 1d-8,
/
&ions
/
&cell
/
ATOMIC_SPECIES
h      1.007940 h.UPF
c     12.010700 c.UPF
n     14.006700 n.UPF

ATOMIC_POSITIONS crystal
n        0.480103284   0.875090185   0.058371646
n        0.519896716   0.124909805   0.941628354
n        0.980103294   0.375090185   0.441628354
n        0.480103284   0.124909805   0.558371646
n        0.980103294   0.624909805   0.941628354
n        0.019896716   0.375090185   0.058371646
n        0.519896716   0.875090185   0.441628354
n        0.019896716   0.624909805   0.558371646
n        0.475630515   0.776100128   0.103857186
n        0.524369485   0.223899862   0.896142814
n        0.975630525   0.276100128   0.396142814
n        0.475630515   0.223899862   0.603857186
n        0.975630525   0.723899862   0.896142814
n        0.024369485   0.276100128   0.103857186
n        0.524369485   0.776100128   0.396142814
n        0.024369485   0.723899862   0.603857186
n        0.396518731   0.703766477   0.089252943
n        0.603481269   0.296233513   0.910747047
n        0.896518731   0.203766477   0.410747047
n        0.396518731   0.296233513   0.589252943
n        0.896518731   0.796233513   0.910747047
n        0.103481269   0.203766477   0.089252943
n        0.603481269   0.703766477   0.410747047
n        0.103481269   0.796233513   0.589252943
n        0.347214067   0.755688947   0.032091198
n        0.652785933   0.244311053   0.967908802
n        0.847214077   0.255688947   0.467908802
n        0.347214067   0.244311053   0.532091198
n        0.847214077   0.744311043   0.967908802
n        0.152785933   0.255688947   0.032091198
n        0.652785933   0.755688947   0.467908802
n        0.152785933   0.744311043   0.532091198
n        0.369026688   0.929378998   0.957390495
n        0.630973312   0.070620992   0.042609495
n        0.869026688   0.429378998   0.542609495
n        0.369026688   0.070620992   0.457390495
n        0.869026688   0.570620992   0.042609495
n        0.130973312   0.429378998   0.957390495
n        0.630973312   0.929378998   0.542609495
n        0.130973312   0.570620992   0.457390495
h        0.417912322   0.003226492   0.944068540
h        0.582087678   0.996773498   0.055931450
h        0.917912322   0.503226502   0.555931450
h        0.417912322   0.996773498   0.444068540
h        0.917912322   0.496773488   0.055931450
h        0.082087678   0.503226502   0.944068540
h        0.582087678   0.003226492   0.555931450
h        0.082087678   0.496773488   0.444068540
c        0.399276290   0.859791766   0.013573159
c        0.600723710   0.140208224   0.986426841
c        0.899276290   0.359791766   0.486426841
c        0.399276290   0.140208224   0.513573159
c        0.899276290   0.640208224   0.986426841
c        0.100723710   0.359791766   0.013573159
c        0.600723710   0.859791766   0.486426841
c        0.100723710   0.640208224   0.513573159
c        0.246974002   0.714118659   0.001008354
c        0.753025998   0.285881331   0.998991646
c        0.746974012   0.214118659   0.498991646
c        0.246974002   0.285881331   0.501008354
c        0.746974012   0.785881331   0.998991646
c        0.253025998   0.214118659   0.001008354
c        0.753025998   0.714118659   0.498991646
c        0.253025998   0.785881331   0.501008354
h        0.252708898   0.613098250   0.994357482
h        0.747291102   0.386901740   0.005642508
h        0.752708908   0.113098260   0.505642508
h        0.252708898   0.386901740   0.494357482
h        0.752708908   0.886901730   0.005642508
h        0.247291102   0.113098260   0.994357482
h        0.747291102   0.613098250   0.505642508
h        0.247291102   0.886901730   0.494357482
c        0.237786136   0.777172571   0.930173875
c        0.762213864   0.222827419   0.069826125
c        0.737786136   0.277172581   0.569826125
c        0.237786136   0.222827419   0.430173875
c        0.737786136   0.722827409   0.069826125
c        0.262213864   0.277172581   0.930173875
c        0.762213864   0.777172571   0.569826125
c        0.262213864   0.722827409   0.430173875
h        0.180874360   0.737987502   0.893650184
h        0.819125640   0.262012488   0.106349806
h        0.680874360   0.237987502   0.606349806
h        0.180874360   0.262012488   0.393650184
h        0.680874360   0.762012488   0.106349806
h        0.319125640   0.237987502   0.893650184
h        0.819125640   0.737987502   0.606349806
h        0.319125640   0.762012488   0.393650184
c        0.291703624   0.880342157   0.911493153
c        0.708296376   0.119657833   0.088506837
c        0.791703624   0.380342167   0.588506837
c        0.291703624   0.119657833   0.411493153
c        0.791703624   0.619657823   0.088506837
c        0.208296376   0.380342167   0.911493153
c        0.708296376   0.880342157   0.588506837
c        0.208296376   0.619657823   0.411493153
c        0.156283267   0.741160526   0.052102906
c        0.843716733   0.258839464   0.947897094
c        0.656283267   0.241160526   0.447897094
c        0.156283267   0.258839464   0.552102906
c        0.656283267   0.758839464   0.947897094
c        0.343716733   0.241160526   0.052102906
c        0.843716733   0.741160526   0.447897094
c        0.343716733   0.758839464   0.552102906
c        0.136891044   0.658708111   0.107833248
c        0.863108956   0.341291879   0.892166752
c        0.636891044   0.158708111   0.392166752
c        0.136891044   0.341291879   0.607833248
c        0.636891044   0.841291879   0.892166752
c        0.363108956   0.158708111   0.107833248
c        0.863108956   0.658708111   0.392166752
c        0.363108956   0.841291879   0.607833248
h        0.185280788   0.576013903   0.113653492
h        0.814719212   0.423986087   0.886346508
h        0.685280788   0.076013913   0.386346508
h        0.185280788   0.423986087   0.613653482
h        0.685280788   0.923986077   0.886346508
h        0.314719212   0.076013913   0.113653492
h        0.814719212   0.576013903   0.386346508
h        0.314719212   0.923986077   0.613653482
c        0.057461733   0.683149697   0.156911998
c        0.942538267   0.316850303   0.843087992
c        0.557461743   0.183149697   0.343087992
c        0.057461733   0.316850303   0.656911998
c        0.557461743   0.816850293   0.843087992
c        0.442538267   0.183149697   0.156911998
c        0.942538267   0.683149697   0.343087992
c        0.442538267   0.816850293   0.656911998
h        0.044674392   0.618618402   0.200436733
h        0.955325608   0.381381588   0.799563267
h        0.544674402   0.118618402   0.299563267
h        0.044674392   0.381381588   0.700436723
h        0.544674402   0.881381588   0.799563267
h        0.455325608   0.118618402   0.200436733
h        0.955325608   0.618618402   0.299563267
h        0.455325608   0.881381588   0.700436723
c        0.995313611   0.789266198   0.150154237
c        0.004686389   0.210733792   0.849845753
c        0.495313621   0.289266198   0.349845753
c        0.995313611   0.210733792   0.650154237
c        0.495313621   0.710733792   0.849845753
c        0.504686389   0.289266198   0.150154237
c        0.004686389   0.789266198   0.349845753
c        0.504686389   0.710733792   0.650154237
h        0.932482504   0.807940197   0.188018607
h        0.067517496   0.192059793   0.811981393
h        0.432482504   0.307940207   0.311981393
h        0.932482504   0.192059793   0.688018607
h        0.432482504   0.692059783   0.811981393
h        0.567517496   0.307940207   0.188018607
h        0.067517496   0.807940197   0.311981393
h        0.567517496   0.692059783   0.688018607
c        0.014582949   0.872018619   0.094654322
c        0.985417051   0.127981371   0.905345668
c        0.514582949   0.372018619   0.405345668
c        0.014582949   0.127981371   0.594654322
c        0.514582949   0.627981371   0.905345668
c        0.485417051   0.372018619   0.094654322
c        0.985417051   0.872018619   0.405345668
c        0.485417051   0.627981371   0.594654322
h        0.967431674   0.955922699   0.089797253
h        0.032568326   0.044077291   0.910202747
h        0.467431674   0.455922699   0.410202747
h        0.967431674   0.044077291   0.589797253
h        0.467431674   0.544077291   0.910202747
h        0.532568326   0.455922699   0.089797253
h        0.032568326   0.955922699   0.410202747
h        0.532568326   0.544077291   0.589797253
c        0.095235293   0.848561785   0.046055864
c        0.904764707   0.151438205   0.953944136
c        0.595235303   0.348561785   0.453944136
c        0.095235293   0.151438205   0.546055854
c        0.595235303   0.651438205   0.953944136
c        0.404764707   0.348561785   0.046055864
c        0.904764707   0.848561785   0.453944136
c        0.404764707   0.651438205   0.546055854
h        0.110241857   0.913043383   0.002701093
h        0.889758143   0.086956607   0.997298897
h        0.610241857   0.413043393   0.497298897
h        0.110241857   0.086956607   0.502701093
h        0.610241857   0.586956597   0.997298897
h        0.389758143   0.413043393   0.002701093
h        0.889758143   0.913043383   0.497298897
h        0.389758143   0.586956597   0.502701093
c        0.274259404   0.946083798   0.843734014
c        0.725740596   0.053916192   0.156265976
c        0.774259404   0.446083798   0.656265976
c        0.274259404   0.053916192   0.343734014
c        0.774259404   0.553916192   0.156265976
c        0.225740596   0.446083798   0.843734014
c        0.725740596   0.946083798   0.656265976
c        0.225740596   0.553916192   0.343734014
c        0.180265146   0.927735354   0.805388625
c        0.819734854   0.072264636   0.194611365
c        0.680265156   0.427735354   0.694611365
c        0.180265146   0.072264636   0.305388625
c        0.680265156   0.572264636   0.194611365
c        0.319734854   0.427735354   0.805388625
c        0.819734854   0.927735354   0.694611365
c        0.319734854   0.572264636   0.305388625
h        0.119612514   0.866101738   0.826098076
h        0.880387486   0.133898252   0.173901924
h        0.619612514   0.366101748   0.673901924
h        0.119612514   0.133898252   0.326098066
h        0.619612514   0.633898242   0.173901924
h        0.380387486   0.366101748   0.826098076
h        0.880387486   0.866101738   0.673901924
h        0.380387486   0.633898242   0.326098066
c        0.163152795   0.988992283   0.741448052
c        0.836847205   0.011007717   0.258551948
c        0.663152805   0.488992283   0.758551948
c        0.163152795   0.011007717   0.241448052
c        0.663152805   0.511007707   0.258551948
c        0.336847205   0.488992283   0.741448052
c        0.836847205   0.988992283   0.758551948
c        0.336847205   0.511007707   0.241448052
h        0.090789791   0.972761935   0.711932742
h        0.909210209   0.027238055   0.288067258
h        0.590789801   0.472761945   0.788067258
h        0.090789791   0.027238055   0.211932742
h        0.590789801   0.527238045   0.288067258
h        0.409210209   0.472761945   0.711932742
h        0.909210209   0.972761935   0.788067258
h        0.409210209   0.527238045   0.211932742
c        0.238079989   0.071948311   0.714929285
c        0.761920011   0.928051679   0.285070715
c        0.738079989   0.571948311   0.785070715
c        0.238079989   0.928051679   0.214929285
c        0.738079989   0.428051679   0.285070715
c        0.261920011   0.571948311   0.714929285
c        0.761920011   0.071948311   0.785070715
c        0.261920011   0.428051679   0.214929285
h        0.223054151   0.121667644   0.665699562
h        0.776945849   0.878332346   0.334300438
h        0.723054161   0.621667654   0.834300438
h        0.223054151   0.878332346   0.165699552
h        0.723054161   0.378332336   0.334300438
h        0.276945849   0.621667654   0.665699562
h        0.776945849   0.121667644   0.834300438
h        0.276945849   0.378332336   0.165699552
c        0.331374733   0.091128927   0.752370664
c        0.668625267   0.908871063   0.247629326
c        0.831374733   0.591128927   0.747629326
c        0.331374733   0.908871063   0.252370664
c        0.831374733   0.408871063   0.247629326
c        0.168625267   0.591128927   0.752370664
c        0.668625267   0.091128927   0.747629326
c        0.168625267   0.408871063   0.252370664
h        0.390481589   0.155126223   0.732049602
h        0.609518411   0.844873767   0.267950398
h        0.890481589   0.655126223   0.767950398
h        0.390481589   0.844873767   0.232049602
h        0.890481589   0.344873767   0.267950398
h        0.109518411   0.655126223   0.732049602
h        0.609518411   0.155126223   0.767950398
h        0.109518411   0.344873767   0.232049602
c        0.349618229   0.028143720   0.815920009
c        0.650381771   0.971856270   0.184079991
c        0.849618229   0.528143720   0.684079991
c        0.349618229   0.971856270   0.315919999
c        0.849618229   0.471856270   0.184079991
c        0.150381771   0.528143720   0.815920009
c        0.650381771   0.028143720   0.684079991
c        0.150381771   0.471856270   0.315919999
h        0.423890908   0.043540586   0.843175237
h        0.576109092   0.956459404   0.156824763
h        0.923890918   0.543540596   0.656824763
h        0.423890908   0.956459404   0.343175227
h        0.923890918   0.456459394   0.156824763
h        0.076109092   0.543540596   0.843175237
h        0.576109092   0.043540586   0.656824763
h        0.076109092   0.456459394   0.343175227

K_POINTS automatic
4 4 4 1 1 1

CELL_PARAMETERS cubic
  23.982111557   0.000000000   0.000000000
   0.000000000  20.387865824   0.000000000
   0.000000000   0.000000000  35.576507413
