%nprocs=4
%mem=2GB
#p pbepbe aug-cc-pvtz output=wfx scf=(conver=6) int=(grid=ultrafine)

title

0 1
C	-2.412587 0.789481 0.000000
C	-1.411137 -0.096183 0.000000
H	-2.224242 1.859221 0.000000
H	-3.451105 0.479026 0.000000
H	-1.642407 -1.160797 0.000000
C	0.000000 0.248382 0.000000
C	0.997786 -0.644515 0.000000
H	0.238811 1.311934 0.000000
H	0.746090 -1.705099 0.000000
C	2.457037 -0.311380 0.000000
H	2.623184 0.769776 0.000000
H	2.961539 -0.734387 0.878223
H	2.961539 -0.734387 -0.878223

13pentadiene.wfx


