%nprocs=4
%mem=2GB
#p pbepbe aug-cc-pvtz output=wfx scf=(conver=6) int=(grid=ultrafine)

title

0 1
C	-0.003097 -1.169407 1.199855
C	-0.003064 -1.877911 0.000000
C	-0.003097 -1.169407 -1.199855
C	-0.003097 0.220577 -1.205168
C	-0.004264 0.936930 0.000000
C	-0.003097 0.220577 1.205168
H	-0.000468 -1.702327 2.145512
H	-0.001891 -2.961869 0.000000
H	-0.000468 -1.702327 -2.145512
H	-0.005559 0.762520 -2.146702
H	-0.005559 0.762520 2.146702
N	-0.066637 2.333059 0.000000
H	0.299349 2.770959 0.833077
H	0.299349 2.770959 -0.833077

aniline.wfx


