%nprocs=4
%mem=2GB
#p pbepbe aug-cc-pvtz output=wfx scf=(conver=6) int=(grid=ultrafine)

title

0 1
C	0.038254 -0.396878 0.741594
C	0.038254 -0.396878 -0.741594
H	-0.869666 -0.707315 1.252215
H	0.954796 -0.606829 1.285363
H	-0.869666 -0.707315 -1.252215
H	0.954796 -0.606829 -1.285363
H	-0.897081 1.271839 0.000000
N	0.038254 0.874141 0.000000

azacyclopropane.wfx


