%nprocs=4
%mem=2GB
#p pbepbe aug-cc-pvtz output=wfx scf=(conver=6) int=(grid=ultrafine)

title

0 1
C	-0.668892 1.569356 0.367951
C	0.668892 1.569356 0.367951
H	-1.170812 2.367723 0.914550
H	1.170812 2.367723 0.914550
C	1.569356 0.668892 -0.367951
C	1.569356 -0.668892 -0.367951
H	2.367723 1.170812 -0.914550
H	2.367723 -1.170812 -0.914550
C	-1.569356 0.668892 -0.367951
C	-1.569356 -0.668892 -0.367951
H	-2.367723 1.170812 -0.914550
C	-0.668892 -1.569356 0.367951
C	0.668892 -1.569356 0.367951
H	-1.170812 -2.367723 0.914550
H	1.170812 -2.367723 0.914550
H	-2.367723 -1.170812 -0.914550

cyclooctatetrene.wfx


