%nprocs=4
%mem=2GB
#p pbepbe aug-cc-pvtz output=wfx scf=(conver=6) int=(grid=ultrafine)

title

0 1
C	0.000000 0.870102 0.000000
C	0.753530 -0.435051 0.000000
C	-0.753530 -0.435051 0.000000
H	0.000000 1.460782 0.909361
H	0.000000 1.460782 -0.909361
H	1.265075 -0.730391 0.909361
H	1.265075 -0.730391 -0.909361
H	-1.265075 -0.730391 -0.909361
H	-1.265075 -0.730391 0.909361

cyclopropane.wfx


