%nprocs=4
%mem=2GB
#p pbepbe aug-cc-pvtz output=wfx scf=(conver=6) int=(grid=ultrafine)

title

0 1
C	-0.000011 -1.227785 -0.127427
C	1.236326 -0.316846 0.097522
C	0.665815 1.075300 -0.044360
C	-0.665801 1.075310 -0.044368
C	-1.236328 -0.316831 0.097525
H	-0.000014 -2.108137 0.520117
H	2.043024 -0.523854 -0.615060
H	1.671588 -0.454793 1.097870
H	1.291716 1.959525 -0.099177
H	-1.291692 1.959541 -0.099206
H	-2.043047 -0.523836 -0.615033
H	-1.671572 -0.454756 1.097887
H	-0.000011 -1.588581 -1.160746

cyclopentene.wfx


