%nprocs=4
%mem=2GB
#p pbepbe aug-cc-pvtz output=wfx scf=(conver=6) int=(grid=ultrafine)

title

0 1
C	0.000000 0.679178 1.339059
C	0.000000 -0.679178 1.339059
C	0.000000 -0.755776 -0.139934
C	0.000000 0.755776 -0.139934
H	0.000000 1.431692 2.116584
H	0.000000 -1.431692 2.116584
C	0.000000 1.708753 -1.065116
H	0.000000 2.759987 -0.798223
H	0.000000 1.468195 -2.122414
C	0.000000 -1.708753 -1.065116
H	0.000000 -1.468195 -2.122414
H	0.000000 -2.759987 -0.798223

dimethylenecyclobutene.wfx


