%nprocs=4
%mem=2GB
#p pbepbe aug-cc-pvtz output=wfx scf=(conver=6) int=(grid=ultrafine)

title

0 1
C	1.247698 -0.237784 -0.027140
C	-0.050665 0.560678 0.053204
H	2.118828 0.418987 0.058888
H	1.305969 -0.973894 0.783482
H	1.306645 -0.779293 -0.975565
H	-0.065614 1.133966 0.996953
H	-0.075094 1.299078 -0.757466
N	-1.207768 -0.324707 -0.120303
H	-1.251867 -0.979027 0.656655
H	-2.066690 0.215775 -0.077214

ethylamine.wfx


