%nprocs=4
%mem=2GB
#p pbepbe aug-cc-pvtz output=wfx scf=(conver=6) int=(grid=ultrafine)

title

0 1
C	-2.339911 0.088123 0.000037
O	-2.504356 1.281451 0.000124
O	-3.372999 -0.789380 -0.000205
H	-4.180242 -0.253451 -0.000145
C	-1.009192 -0.629955 0.000150
C	0.188592 0.319232 -0.000074
H	-0.991371 -1.296804 -0.871308
H	-0.991353 -1.296331 0.871991
C	1.529997 -0.419855 0.000101
H	0.123862 0.978067 -0.873701
H	0.123794 0.978409 0.873266
C	2.738336 0.522577 -0.000154
H	1.585371 -1.080253 0.877282
H	1.585343 -1.080687 -0.876752
H	2.681799 1.181177 -0.876820
H	2.681804 1.181615 0.876182
C	4.079090 -0.216392 0.000017
H	4.920934 0.482979 -0.000162
H	4.178717 -0.856610 0.883743
H	4.178709 -0.857052 -0.883392

HexanoicAcid.wfx


