%nprocs=4
%mem=2GB
#p pbepbe aug-cc-pvtz output=wfx scf=(conver=6) int=(grid=ultrafine)

title

0 1
C	0.888592 0.888592 0.888592
C	0.000000 0.000000 0.000000
H	1.534340 1.534340 0.282937
H	0.282937 1.534340 1.534340
H	1.534340 0.282937 1.534340
C	-0.888592 -0.888592 0.888592
C	0.888592 -0.888592 -0.888592
H	-1.534340 -1.534340 0.282937
H	-0.282937 -1.534340 1.534340
H	-1.534340 -0.282937 1.534340
H	1.534340 -1.534340 -0.282937
H	0.282937 -1.534340 -1.534340
H	1.534340 -0.282937 -1.534340
C	-0.888592 0.888592 -0.888592
H	-1.534340 0.282937 -1.534340
H	-1.534340 1.534340 -0.282937
H	-0.282937 1.534340 -1.534340

neopentane.wfx


