%nprocs=4
%mem=2GB
#p pbepbe aug-cc-pvtz output=wfx scf=(conver=6) int=(grid=ultrafine)

title

0 1
C	-0.000013 1.076700 0.000000
C	-0.000013 -0.065855 1.036872
C	-0.000013 -0.065855 -1.036872
H	-0.888951 1.709564 0.000000
H	0.888272 1.710443 0.000000
H	-0.891963 -0.134206 1.672507
H	0.891366 -0.134557 1.673165
H	-0.891963 -0.134206 -1.672507
H	0.891366 -0.134557 -1.673165
O	0.000264 -1.069053 0.000000

oxetane.wfx


