%nprocs=4
%mem=2GB
#p pbepbe aug-cc-pvtz output=wfx scf=(conver=6) int=(grid=ultrafine)

title

0 1
C	0.000000 1.130730 0.696790
C	0.000000 1.130730 -0.696790
N	0.000000 0.000000 -1.405319
C	0.000000 -1.130730 -0.696790
C	0.000000 -1.130730 0.696790
N	0.000000 0.000000 1.405319
H	0.000000 2.064061 1.254278
H	0.000000 2.064061 -1.254278
H	0.000000 -2.064061 -1.254278
H	0.000000 -2.064061 1.254278

pyrazine.wfx


