%nprocs=4
%mem=2GB
#p pbepbe aug-cc-pvtz output=wfx scf=(conver=6) int=(grid=ultrafine)

title

0 1
C	-1.127028 1.195334 0.293939
C	0.344496 1.285021 -0.119798
C	1.138366 -0.012531 -0.013736
C	-0.955020 -1.278031 0.172896
C	-1.734027 -0.067029 -0.316693
H	0.413283 1.578080 -1.176151
H	0.897170 2.041162 0.442069
H	-1.209313 1.147652 1.387293
H	-1.664271 2.094053 -0.023916
H	-1.264515 -2.194435 -0.336082
H	-1.118160 -1.421220 1.249601
H	-1.693993 -0.014495 -1.411787
H	-2.785132 -0.188839 -0.034435
O	0.464595 -1.189623 -0.046424
O	2.338431 -0.032695 0.021894

valerolactone.wfx


