&control
 title='crystal',
 prefix='crystal',
 pseudo_dir='.',
 calculation='vc-relax',
/
&system
 ibrav=0,
 celldm(1)=1.0,
 nat=    66,
 ntyp=  5,
 ecutwfc=60.0,
 ecutrho=600.0,
 xdm=.true.,
 xdm_a1=0.4073,
 xdm_a2=2.4150,
/
&electrons
 conv_thr = 1d-8,
/
&ions
/
&cell
/
ATOMIC_SPECIES
h      1.007940 h.UPF
c     12.010700 c.UPF
n     14.006700 n.UPF
o     15.999400 o.UPF
s     32.065000 s.UPF

ATOMIC_POSITIONS crystal
s     0.49754043     0.61838181     0.32411928
s     0.50245962     0.38161819     0.67588068
o     0.07771864     0.85741691     0.76318604
o     0.92228140     0.14258309     0.23681392
n     0.30859130     0.66188090     0.39746110
n     0.69140875     0.33811910     0.60253886
c     0.15571392     0.83861492     0.87193801
c     0.84428613     0.16138508     0.12806195
o     0.18053370     0.70170310     0.91827843
o     0.81946635     0.29829690     0.08172153
c     0.20747026     0.99486869     0.93169959
c     0.79252979     0.00513131     0.06830037
h     0.17572863     0.10416001     0.88080765
h     0.82427142     0.89583999     0.11919231
o     0.94072550     0.56933132     0.17798202
o     0.05927454     0.43066868     0.82201794
c     0.28940285     0.00287551     0.04250477
c     0.71059720     0.99712449     0.95749519
h     0.32005348     0.88824687     0.08767845
h     0.67994657     0.11175313     0.91232150
o     0.03444444     0.41950800     0.33742715
o     0.96555561     0.58049200     0.66257281
c     0.34257997     0.15319715     0.10830782
c     0.65742008     0.84680285     0.89169214
o     0.52687556     0.75121177     0.24038116
o     0.47312449     0.24878822     0.75961879
c     0.32182661     0.30870413     0.05742061
c     0.67817344     0.69129587     0.94257935
h     0.26611083     0.31944972     0.96613094
h     0.73388922     0.68055028     0.03386902
o     0.64120432     0.58480733     0.41598364
o     0.35879573     0.41519267     0.58401631
c     0.37361820     0.45004125     0.12208209
c     0.62638184     0.54995875     0.87791787
h     0.35688300     0.56945735     0.08152613
h     0.64311705     0.43054265     0.91847382
c     0.44744415     0.43629873     0.23916933
c     0.55255590     0.56370127     0.76083063
c     0.46956078     0.28345791     0.29230173
c     0.53043927     0.71654209     0.70769823
h     0.52580822     0.27465016     0.38375763
h     0.47419183     0.72534984     0.61624233
c     0.41792673     0.14285007     0.22634024
c     0.58207332     0.85714993     0.77365971
h     0.43791287     0.02255396     0.26521818
h     0.56208718     0.97744604     0.73478177
c     0.03138799     0.54967185     0.28148449
c     0.96861206     0.45032815     0.71851547
c     0.13792779     0.70364963     0.32836327
c     0.86207226     0.29635036     0.67163669
h     0.17936316     0.77431003     0.25068260
h     0.82063689     0.22568997     0.74931736
c     0.01545899     0.80925161     0.40573687
c     0.98454106     0.19074839     0.59426309
h     0.97299093     0.74172412     0.48444896
h     0.02700912     0.25827588     0.51555100
h     0.89033688     0.84486812     0.35430469
h     0.10966316     0.15513188     0.64569526
h     0.09508711     0.92031466     0.43391100
h     0.90491294     0.07968534     0.56608896
h     0.03966285     0.74631174     0.72477906
h     0.96033719     0.25368825     0.27522090
h     0.88599868     0.45756516     0.14447561
h     0.11400137     0.54243484     0.85552434
h     0.28918937     0.57741974     0.46394443
h     0.71081068     0.42258026     0.53605553

K_POINTS automatic
2 2 2 1 1 1

CELL_PARAMETERS cubic
   13.577367000000    -0.084777000000     0.044353000000
   -0.284268000000    15.406309000000     0.087513000000
   -0.954495000000    -0.428727000000    21.087252000000
