&control
 title='crystal',
 prefix='crystal',
 pseudo_dir='.',
 calculation='vc-relax',
/
&system
 ibrav=0,
 celldm(1)=1.0,
 nat=    80,
 ntyp=  5,
 ecutwfc=60.0,
 ecutrho=600.0,
 xdm=.true.,
 xdm_a1=0.4073,
 xdm_a2=2.4150,
/
&electrons
 conv_thr = 1d-8,
/
&ions
/
&cell
/
ATOMIC_SPECIES
h      1.007940 h.UPF
c     12.010700 c.UPF
n     14.006700 n.UPF
o     15.999400 o.UPF
se    78.960000 se.UPF

ATOMIC_POSITIONS crystal
se    0.33978005     0.16211873     0.12733406
se    0.66024824     0.66223381     0.87266505
o     0.85884236     0.35183091     0.42121751
o     0.14114345     0.85158990     0.57877961
o     0.76194324     0.97811483     0.35886046
o     0.23805798     0.47796350     0.64114941
n     0.60854771     0.58063573     0.42927579
n     0.39146029     0.08056136     0.57074847
h     0.65903111     0.55141741     0.49367041
h     0.34097779     0.05126283     0.50634852
h     0.50140990     0.64076547     0.43074668
h     0.49860571     0.14062625     0.56926049
h     0.66477846     0.72707886     0.40138208
h     0.33524750     0.22700705     0.59863794
c     0.75353769     0.21288133     0.38724181
c     0.24645103     0.71271612     0.61276282
c     0.60301441     0.33008947     0.37847465
c     0.39697386     0.83001735     0.62153890
h     0.53617299     0.19427665     0.40901491
h     0.46381961     0.69424160     0.59099803
c     0.52907512     0.37752727     0.28275938
c     0.47090188     0.87747287     0.71725997
h     0.43111084     0.48973152     0.28529171
h     0.56884966     0.98978557     0.71473661
h     0.59764669     0.49910965     0.24830550
h     0.40231353     0.99896468     0.75172167
c     0.48927270     0.12175802     0.23318418
c     0.51074694     0.62172318     0.76682052
h     0.44120918     0.98285373     0.27416264
h     0.55882489     0.48288129     0.72583387
h     0.58133188     0.02616762     0.21247265
h     0.41870377     0.52604688     0.78753554
c     0.43860833     0.41461329     0.06167881
c     0.56144073     0.91479467     0.93829904
h     0.38027041     0.41056866     0.99378146
h     0.61976960     0.91080675     0.00619817
h     0.54844641     0.34866195     0.06244847
h     0.45159291     0.84884428     0.93752946
h     0.43591671     0.61241438     0.08929402
h     0.56416024     0.11257186     0.91067311
se    0.17469648     0.15721020     0.83940950
se    0.82527982     0.65713150     0.16057516
o     0.66668065     0.21298995     0.57346774
o     0.33336635     0.71349424     0.42646474
o     0.74996215     0.80298069     0.60757906
o     0.25003500     0.30341649     0.39246897
n     0.94546845     0.39669484     0.60235762
n     0.05454250     0.89704235     0.39764929
h     0.92309356     0.35810180     0.53470235
h     0.07690770     0.85842044     0.46530071
h     0.05645632     0.43342610     0.61918401
h     0.94355992     0.93374103     0.38082097
h     0.88617292     0.56632696     0.61126509
h     0.11385555     0.06669792     0.38875068
c     0.76291027     0.05008942     0.60719669
c     0.23710254     0.55052451     0.39280096
c     0.90322683     0.17151914     0.65482369
c     0.09676978     0.67185864     0.34518481
h     0.98933264     0.02602143     0.66026887
h     0.01066628     0.52631252     0.33976760
c     0.88165231     0.26844060     0.74577254
c     0.11830473     0.76868243     0.25422033
h     0.84437915     0.10243101     0.78169479
h     0.15558626     0.60265403     0.21831441
h     0.79486149     0.41486370     0.73578894
h     0.20508423     0.91517646     0.26417901
c     0.01189672     0.39748580     0.80092580
c     0.98804627     0.89757774     0.19905385
h     0.98326896     0.47969682     0.86126472
h     0.01667404     0.97974193     0.13870867
h     0.05609520     0.55809532     0.76633291
h     0.94381865     0.05817986     0.23362962
c     0.08912029     0.98258172     0.93208140
c     0.91088088     0.48251730     0.06791370
h     0.16039029     0.82126098     0.95793245
h     0.83961742     0.32114281     0.04206505
h     0.98348398     0.90596734     0.90358750
h     0.01651453     0.40595913     0.09641280
h     0.08043158     0.12245989     0.98486377
h     0.91957256     0.62236115     0.01512523

K_POINTS automatic
2 2 2 1 1 1

CELL_PARAMETERS cubic
   17.934981000000    -0.001056000000     0.128115000000
   -0.000573000000     9.605378000000    -0.000320000000
   -5.202448000000    -0.000663000000    28.617356000000
