## FHIaims input file generated by critic2.
lattice_vector 7.7817801603       0.1246969541       0.1590329265      
lattice_vector 2.7660103283       7.2746714077       0.1590329354      
lattice_vector 2.8239626714       1.9810340739       7.0171940990      
atom_frac  0.3267732012       0.8143038674       0.8869668263       H 
atom_frac  0.4538777053       0.9681665658       0.7589371956       H 
atom_frac  0.1664189934       0.1085393393       0.6792943661       H 
atom_frac  0.5159200399       0.7211123902       0.6550490567       H 
atom_frac  0.7596464437       0.4513350956       0.9794652889       H 
atom_frac  0.6734562961       0.1707476474       0.1089913332       H 
atom_frac  0.9890630136       0.2797250517       0.7378684890       H 
atom_frac  0.6978944629       0.4457853308       0.8120044404       H 
atom_frac  0.7797250280       0.4890630669       0.2378684890       H 
atom_frac  0.6085393257       0.6664189328       0.1792943661       H 
atom_frac  0.8579268951       0.7786466429       0.9767122460       H 
atom_frac  0.7309455664       0.9899205189       0.2800099053       H 
atom_frac  0.4681665093       0.9538778008       0.2589371956       H 
atom_frac  0.4821497701       0.2868379348       0.3449816776       H 
atom_frac  0.9807005372       0.7609848834       0.4480644889       H 
atom_frac  0.1085974020       0.6774536424       0.1653619445       H 
atom_frac  0.8140472957       0.6966787121       0.4414882448       H 
atom_frac  0.1774537020       0.6085973565       0.6653619445       H 
atom_frac  0.3143038256       0.8267732752       0.3869668263       H 
atom_frac  0.0459314428       0.8094465321       0.6879675197       H 
atom_frac  0.2609848868       0.4807005887       0.9480644889       H 
atom_frac  0.3094465108       0.5459314693       0.1879675197       H 
atom_frac  0.4899204661       0.2309456564       0.7800099053       H 
atom_frac  0.6707476891       0.1734562221       0.6089913332       H 
atom_frac  0.7868379769       0.9821497897       0.8449816776       H 
atom_frac  0.1966786093       0.3140472926       0.9414882448       H 
atom_frac  0.9513350274       0.2596464180       0.4794652889       H 
atom_frac  0.2786466419       0.3579268893       0.4767122460       H 
atom_frac  0.9457853572       0.1978944417       0.3120044405       H 
atom_frac  0.2211123481       0.0159200204       0.1550490568       H 
atom_frac  0.0549717823       0.0434182523       0.0696266114       H 
atom_frac  0.5434181923       0.5549718424       0.5696266114       H 
atom_frac  0.3720276299       0.8980566602       0.7548082159       O 
atom_frac  0.7691494952       0.3634749079       0.9094299975       O 
atom_frac  0.7389628331       0.5899409458       0.1256686760       O 
atom_frac  0.6192723086       0.0898448583       0.2389050114       O 
atom_frac  0.9093054614       0.7729361624       0.3602623181       O 
atom_frac  0.1270334018       0.7395846096       0.5865772150       O 
atom_frac  0.2395845157       0.6270334379       0.0865772150       O 
atom_frac  0.5898448791       0.1192723803       0.7389050114       O 
atom_frac  0.2729362341       0.4093055403       0.8602623181       O 
atom_frac  0.0899410246       0.2389629048       0.6256686759       O 
atom_frac  0.8634749439       0.2691494013       0.4094299974       O 
atom_frac  0.3980566394       0.8720275582       0.2548082159       O 
atom_frac  0.1074132696       0.1126692610       0.1096935935       O 
atom_frac  0.3916342870       0.4039372655       0.3818654829       O 
atom_frac  0.9039373140       0.8916342384       0.8818654830       O 
atom_frac  0.6126692124       0.6074133181       0.6096935935       O 
