&control
 title='crystal',
 prefix='crystal',
 pseudo_dir='.',
 calculation='vc-relax',
/
&system
 ibrav=0,
 celldm(1)=1.0,
 nat=   116,
 ntyp=  3,
 ecutwfc=60.0,
 ecutrho=600.0,
 xdm=.true.,
 xdm_a1=0.4073,
 xdm_a2=2.4150,
/
&electrons
 conv_thr = 1d-8,
/
&ions
/
&cell
/
ATOMIC_SPECIES
h      1.007940 h.UPF
c     12.010700 c.UPF
o     15.999400 o.UPF

ATOMIC_POSITIONS crystal
o     0.16305543     0.88463844     0.56006388
o     0.66305541     0.61536158     0.43993614
o     0.83694453     0.38463843     0.93993615
o     0.33694454     0.11536158     0.06006387
h     0.20720402     0.80739186     0.52234951
h     0.70720401     0.69260816     0.47765051
h     0.79279593     0.30739185     0.97765051
h     0.29279595     0.19260816     0.02234950
o     0.74047883     0.81689895     0.54520737
o     0.24047882     0.68310107     0.45479265
o     0.25952112     0.31689894     0.95479265
o     0.75952114     0.18310107     0.04520736
h     0.88546548     0.85693389     0.55828102
h     0.38546546     0.64306613     0.44171900
h     0.11453448     0.35693388     0.94171900
h     0.61453449     0.14306613     0.05828101
c     0.27958995     0.13290616     0.58657927
c     0.77958993     0.36709387     0.41342075
c     0.72041001     0.63290614     0.91342076
c     0.22041002     0.86709386     0.08657926
c     0.34660856     0.97785991     0.57249845
c     0.84660855     0.52214011     0.42750157
c     0.65339139     0.47785990     0.92750158
c     0.15339141     0.02214010     0.07249844
h     0.44768674     0.97670804     0.51978843
h     0.94768672     0.52329198     0.48021159
h     0.55231322     0.47670803     0.98021159
h     0.05231324     0.02329197     0.01978842
c     0.48843938     0.92071595     0.64037365
c     0.98843936     0.57928407     0.35962636
c     0.51156058     0.42071594     0.85962637
c     0.01156060     0.07928407     0.14037364
h     0.60632086     0.00687022     0.65393586
h     0.10632084     0.49312980     0.34606416
h     0.39367910     0.50687021     0.84606416
h     0.89367911     0.99312979     0.15393585
c     0.07531838     0.17326851     0.61433611
c     0.57531836     0.32673151     0.38566391
c     0.92468158     0.67326850     0.88566391
c     0.42468160     0.82673151     0.11433610
h     0.95295548     0.09055776     0.62475299
h     0.45295546     0.40944226     0.37524703
h     0.04704448     0.59055775     0.87524703
h     0.54704449     0.90944226     0.12475298
c     0.43344653     0.24135283     0.57184110
c     0.93344651     0.25864719     0.42815892
c     0.56655343     0.74135282     0.92815892
c     0.06655344     0.75864718     0.07184109
h     0.59202892     0.21151440     0.54887942
h     0.09202890     0.28848562     0.45112060
h     0.40797104     0.71151439     0.95112060
h     0.90797105     0.78848562     0.04887941
c     0.61773595     0.78646865     0.61503149
c     0.11773593     0.71353138     0.38496853
c     0.38226401     0.28646863     0.88496854
c     0.88226402     0.21353137     0.11503148
h     0.50041437     0.70221698     0.59791519
h     0.00041435     0.79778304     0.40208482
h     0.49958559     0.20221697     0.90208483
h     0.99958560     0.29778304     0.09791518
c     0.02577731     0.31914916     0.62707800
c     0.52577729     0.18085086     0.37292202
c     0.97422265     0.81914915     0.87292202
c     0.47422266     0.68085086     0.12707799
h     0.86523780     0.34884514     0.64807383
h     0.36523778     0.15115489     0.35192618
h     0.13476216     0.84884513     0.85192619
h     0.63476218     0.65115488     0.14807382
c     0.38424222     0.38674262     0.58403434
c     0.88424221     0.11325740     0.41596568
c     0.61575773     0.88674261     0.91596568
c     0.11575775     0.61325740     0.08403433
h     0.50386480     0.46931918     0.56969660
h     0.00386479     0.03068085     0.43030342
h     0.49613515     0.96931917     0.93030342
h     0.99613517     0.53068084     0.06969659
c     0.35199479     0.88863904     0.71266288
c     0.85199477     0.61136099     0.28733713
c     0.64800517     0.38863902     0.78733714
c     0.14800518     0.11136098     0.21266287
h     0.45246660     0.88343263     0.76513532
h     0.95246658     0.61656739     0.23486469
h     0.54753336     0.38343262     0.73486470
h     0.04753338     0.11656738     0.26513531
h     0.26697009     0.78486118     0.70637489
h     0.76697007     0.71513884     0.29362513
h     0.73302987     0.28486117     0.79362513
h     0.23302989     0.21513883     0.20637488
h     0.22860648     0.97243805     0.72154890
h     0.72860646     0.52756197     0.27845112
h     0.77139348     0.47243804     0.77845112
h     0.27139350     0.02756197     0.22154889
c     0.17988345     0.42618182     0.61195751
c     0.67988343     0.07381820     0.38804251
c     0.82011651     0.92618181     0.88804251
c     0.32011653     0.57381820     0.11195750
h     0.14122639     0.54018432     0.62052781
h     0.64122637     0.95981570     0.37947221
h     0.85877357     0.04018431     0.87947221
h     0.35877359     0.45981570     0.12052780
c     0.76387985     0.72781983     0.67884952
c     0.26387983     0.77218019     0.32115049
c     0.23612011     0.22781982     0.82115050
c     0.73612012     0.27218019     0.17884951
h     0.84919638     0.63072391     0.65874061
h     0.34919637     0.86927611     0.34125941
h     0.15080357     0.13072390     0.84125941
h     0.65080359     0.36927610     0.15874060
h     0.67067049     0.69857230     0.73068290
h     0.17067047     0.80142772     0.26931711
h     0.32932947     0.19857229     0.76931712
h     0.82932948     0.30142771     0.23068289
h     0.88491309     0.80885260     0.69604208
h     0.38491307     0.69114743     0.30395794
h     0.11508687     0.30885259     0.80395794
h     0.61508689     0.19114742     0.19604207

K_POINTS automatic
2 2 2 1 1 1

CELL_PARAMETERS cubic
   11.651848000000     0.000000000000     0.000000000000
    0.000000000000    17.439910000000     0.000000000000
    0.000000000000     0.000000000000    32.483728000000
