&control
 title='crystal',
 prefix='crystal',
 pseudo_dir='.',
 calculation='vc-relax',
/
&system
 ibrav=0,
 celldm(1)=1.0,
 nat=    76,
 ntyp=  4,
 ecutwfc=60.0,
 ecutrho=600.0,
 xdm=.true.,
 xdm_a1=0.4073,
 xdm_a2=2.4150,
/
&electrons
 conv_thr = 1d-8,
/
&ions
/
&cell
/
ATOMIC_SPECIES
h      1.007940 h.UPF
c     12.010700 c.UPF
n     14.006700 n.UPF
o     15.999400 o.UPF

ATOMIC_POSITIONS crystal
o     0.87548565     0.11501111     0.40064058
o     0.12451433     0.61501110     0.59935943
o     0.79751726     0.73423789     0.33739640
o     0.20248272     0.23423788     0.66260362
n     0.62420968     0.32762818     0.41256898
n     0.37579030     0.82762817     0.58743104
c     0.78033033     0.96845028     0.36441159
c     0.21966965     0.46845027     0.63558843
c     0.63519864     0.08324367     0.34737004
c     0.36480135     0.58324366     0.65262998
c     0.59862126     0.13005467     0.22195501
c     0.40137872     0.63005466     0.77804501
c     0.54294787     0.88490559     0.16695624
c     0.45705211     0.38490558     0.83304378
c     0.71985998     0.24281064     0.15635540
c     0.28014001     0.74281063     0.84364462
h     0.69161458     0.46985900     0.38337276
h     0.30838541     0.96985899     0.61662726
h     0.52001234     0.39500841     0.40802459
h     0.47998765     0.89500840     0.59197542
h     0.64858478     0.29201730     0.49614442
h     0.35141521     0.79201729     0.50385560
h     0.55793106     0.95219563     0.38214715
h     0.44206892     0.45219562     0.61785287
h     0.51431086     0.27243154     0.22234716
h     0.48568912     0.77243153     0.77765285
h     0.50734597     0.92439116     0.08067568
h     0.49265401     0.42439115     0.91932434
h     0.62392146     0.73792042     0.16319326
h     0.37607853     0.23792041     0.83680675
h     0.45585105     0.80707777     0.21466685
h     0.54414893     0.30707776     0.78533317
h     0.68629463     0.29694398     0.07112921
h     0.31370535     0.79694397     0.92887080
h     0.76275742     0.41367045     0.19761766
h     0.23724256     0.91367044     0.80238235
h     0.80350391     0.10094988     0.14859297
h     0.19649608     0.60094987     0.85140705
o     0.35833096     0.50034712     0.39506086
o     0.64166902     0.00034711     0.60493916
o     0.27719346     0.09860859     0.36610900
o     0.72280653     0.59860858     0.63389102
n     0.08814892     0.68349936     0.37225312
n     0.91185106     0.18349935     0.62774690
c     0.26659011     0.33969279     0.36150729
c     0.73340987     0.83969278     0.63849272
c     0.13586225     0.45573463     0.30624052
c     0.86413774     0.95573462     0.69375950
c     0.16558286     0.53591497     0.18388463
c     0.83441712     0.03591496     0.81611538
c     0.03887350     0.65824329     0.12682384
c     0.96112648     0.15824328     0.87317618
c     0.21632561     0.30708332     0.11481926
c     0.78367438     0.80708331     0.88518075
h     0.14875106     0.84740974     0.35749615
h     0.85124893     0.34740973     0.64250387
h     0.98283058     0.71998390     0.35542302
h     0.01716940     0.21998389     0.64457699
h     0.09641779     0.64860631     0.45899715
h     0.90358219     0.14860630     0.54100287
h     0.05184250     0.31419463     0.30915931
h     0.94815749     0.81419462     0.69084071
h     0.24876241     0.68042976     0.18845051
h     0.75123757     0.18042975     0.81154951
h     0.99942611     0.82517980     0.17263760
h     0.00057387     0.32517979     0.82736242
h     0.95375257     0.51984495     0.11916454
h     0.04624741     0.01984494     0.88083548
h     0.06540303     0.72244593     0.04197212
h     0.93459695     0.22244592     0.95802790
h     0.13622447     0.15799869     0.10953111
h     0.86377551     0.65799868     0.89046891
h     0.30937856     0.21880943     0.15127247
h     0.69062142     0.71880942     0.84872754
h     0.23999327     0.36766499     0.02893795
h     0.76000672     0.86766498     0.97106207

K_POINTS automatic
2 2 2 1 1 1

CELL_PARAMETERS cubic
   18.237863000000     0.000000000000    -0.004745000000
    0.000000000000     9.838592000000     0.000000000000
   -0.230994000000     0.000000000000    22.477605000000
