&control
 title='crystal',
 prefix='crystal',
 pseudo_dir='..',
 calculation='vc-relax',
 etot_conv_thr=1.0D-5,
/
&system
 ibrav=0,
 celldm(1)=1.0,
 nat=    76,
 ntyp=  4,
 ecutwfc=80.0,
 ecutrho=800.0,
 xdm=.true.,
 xdm_a1=0.6512,
 xdm_a2=1.4633,
/
&electrons
 conv_thr = 1d-8,
/
&ions
/
&cell
/
ATOMIC_SPECIES
h      1.007940 h.UPF
c     12.010700 c.UPF
n     14.006700 n.UPF
o     15.999400 o.UPF

ATOMIC_POSITIONS crystal
o        0.875485655   0.115011110   0.400640575
o        0.124514345   0.615011110   0.599359425
o        0.797517260   0.734237893   0.337396389
o        0.202482740   0.234237893   0.662603611
n        0.624209685   0.327628181   0.412568969
n        0.375790315   0.827628181   0.587431031
c        0.780330335   0.968450294   0.364411579
c        0.219669665   0.468450294   0.635588421
c        0.635198639   0.083243671   0.347370032
c        0.364801361   0.583243671   0.652629968
c        0.598621262   0.130054663   0.221955002
c        0.401378738   0.630054663   0.778044998
c        0.542947872   0.884905606   0.166956237
c        0.457052128   0.384905606   0.833043763
c        0.719859972   0.242810636   0.156355391
c        0.280140028   0.742810636   0.843644609
h        0.691614580   0.469859005   0.383372754
h        0.308385420   0.969859005   0.616627246
h        0.520012339   0.395008416   0.408024586
h        0.479987661   0.895008416   0.591975414
h        0.648584784   0.292017306   0.496144408
h        0.351415216   0.792017306   0.503855592
h        0.557931067   0.952195639   0.382147144
h        0.442068933   0.452195639   0.617852856
h        0.514310862   0.272431549   0.222347159
h        0.485689138   0.772431549   0.777652841
h        0.507345967   0.924391177   0.080675672
h        0.492654033   0.424391177   0.919324328
h        0.623921457   0.737920429   0.163193261
h        0.376078543   0.237920429   0.836806739
h        0.455851053   0.807077780   0.214666842
h        0.544148947   0.307077780   0.785333158
h        0.686294625   0.296943985   0.071129210
h        0.313705375   0.796943985   0.928870790
h        0.762757419   0.413670453   0.197617661
h        0.237242581   0.913670453   0.802382339
h        0.803503902   0.100949882   0.148592966
h        0.196496098   0.600949882   0.851407034
o        0.358330969   0.500347125   0.395060849
o        0.641669031   0.000347125   0.604939151
o        0.277193464   0.098608590   0.366108995
o        0.722806536   0.598608590   0.633891005
n        0.088148932   0.683499362   0.372253111
n        0.911851068   0.183499362   0.627746889
c        0.266590118   0.339692796   0.361507290
c        0.733409882   0.839692796   0.638492710
c        0.135862251   0.455734635   0.306240515
c        0.864137749   0.955734635   0.693759485
c        0.165582863   0.535914978   0.183884631
c        0.834417137   0.035914978   0.816115369
c        0.038873502   0.658243306   0.126823837
c        0.961126498   0.158243306   0.873176163
c        0.216325607   0.307083329   0.114819260
c        0.783674393   0.807083329   0.885180740
h        0.148751062   0.847409750   0.357496144
h        0.851248938   0.347409750   0.642503856
h       -0.017169411   0.719983906   0.355423016
h        1.017169411   0.219983906   0.644576984
h        0.096417803   0.648606321   0.458997143
h        0.903582197   0.148606321   0.541002857
h        0.051842506   0.314194633   0.309159301
h        0.948157494   0.814194633   0.690840699
h        0.248762418   0.680429766   0.188450508
h        0.751237582   0.180429766   0.811549492
h       -0.000573883   0.825179812   0.172637598
h        1.000573883   0.325179812   0.827362402
h        0.953752560   0.519844964   0.119164538
h        0.046247440   0.019844964   0.880835462
h        0.065403028   0.722445934   0.041972113
h        0.934596972   0.222445934   0.958027887
h        0.136224472   0.157998691   0.109531105
h        0.863775528   0.657998691   0.890468895
h        0.309378562   0.218809437   0.151272469
h        0.690621438   0.718809437   0.848727531
h        0.239993265   0.367664992   0.028937952
h        0.760006735   0.867664992   0.971062048

K_POINTS automatic
4 4 4 1 1 1

CELL_PARAMETERS cubic
  18.237863198   0.000000000  -0.004744959
   0.000000000   9.838591875   0.000000000
  -0.230994483   0.000000000  22.477605342
