%nprocs=4
%mem=4GB
#p pbepbe aug-cc-pvtz output=wfx scf=(conver=6) int=(grid=ultrafine)

title

0 1
O -3.171470000000000 -1.674960000000000 -0.176230000000000
H -3.643470000000000 -2.166360000000000 0.507470000000000
H -3.331070000000000 -0.732160000000000 0.042670000000000
O -3.196370000000000 1.061240000000000 0.382270000000000
H -2.275870000000000 1.332040000000000 0.189270000000000
H -3.745670000000000 1.729740000000000 -0.044230000000000
O -0.377670000000000 -1.314860000000000 0.083170000000000
H -1.298970000000000 -1.621360000000000 -0.034430000000000
H -0.428570000000000 -0.358560000000000 -0.099330000000000
O 3.440230000000000 0.097340000000000 0.118070000000000
H 4.132430000000000 0.237140000000000 -0.539430000000000
H 2.976130000000000 -0.725860000000000 -0.174330000000000
O 1.811130000000000 2.189740000000000 0.693870000000000
H 1.894630000000000 2.354340000000000 1.641070000000000
H 2.428430000000000 1.439740000000000 0.509170000000000
O -0.542970000000000 1.518540000000000 -0.407830000000000
H -0.410570000000000 1.754140000000000 -1.334730000000000
H 0.283030000000000 1.822940000000000 0.049570000000000
O 2.071430000000000 -2.108760000000000 -0.700330000000000
H 2.260730000000000 -2.921160000000000 -0.214730000000000
H 1.124430000000000 -1.912860000000000 -0.490930000000000

water7CH3.wfx

