%nprocs=4
%mem=4GB
#p pbepbe aug-cc-pvtz output=wfx scf=(conver=6) int=(grid=ultrafine)

title

0 1
O 1.398680000000000 -1.347740000000000 -0.120670000000000
H 1.655780000000000 -2.014440000000000 0.527830000000000
H 0.437170000000000 -1.494940000000000 -0.271670000000000
O 1.319180000000000 1.310060000000000 0.576630000000000
H 1.476180000000000 0.365560000000000 0.344930000000000
H 1.995480000000000 1.800660000000000 0.094230000000000
O -1.398720000000000 1.347960000000000 0.120030000000000
H -0.437220000000000 1.495160000000000 0.271430000000000
H -1.655320000000000 2.014160000000000 -0.529070000000000
O -1.319420000000000 -1.310140000000000 -0.576070000000000
H -1.476320000000000 -0.365640000000000 -0.344670000000000
H -1.995420000000000 -1.800640000000000 -0.092970000000000

water4Ci.wfx

