%nprocs=4
%mem=4GB
#p pbepbe aug-cc-pvtz output=wfx scf=(conver=6) int=(grid=ultrafine)

title

0 1
O 0.844760000000000 -2.077530000000000 0.730280000000000
H 1.315960000000000 -1.756930000000000 -0.063220000000000
H -0.085140000000000 -2.146630000000000 0.439080000000000
O 1.891760000000000 -0.616630000000000 -1.476020000000000
H 1.968460000000000 0.218470000000000 -0.939220000000000
H 2.711960000000000 -0.686930000000000 -1.979620000000000
O -1.835640000000000 -1.649930000000000 -0.122820000000000
H -2.642140000000000 -2.172730000000000 -0.037720000000000
H -1.948740000000000 -0.867930000000000 0.483280000000000
O 0.826760000000000 0.063970000000000 2.338780000000000
H 0.888560000000000 -0.799830000000000 1.847280000000000
H 1.191960000000000 -0.100930000000000 3.216580000000000
O -1.809740000000000 0.559270000000000 1.391380000000000
H -1.621740000000000 1.270970000000000 0.749080000000000
H -0.979640000000000 0.476070000000000 1.899780000000000
O 1.756760000000000 1.547670000000000 0.096280000000000
H 0.920060000000000 1.972670000000000 -0.175520000000000
H 1.557060000000000 1.176870000000000 0.977680000000000
O -0.884040000000000 2.201170000000000 -0.740820000000000
H -0.909840000000000 1.445970000000000 -1.389220000000000
H -1.259640000000000 2.961570000000000 -1.201120000000000
O -0.792640000000000 -0.032330000000000 -2.217420000000000
H -1.251540000000000 -0.689930000000000 -1.659420000000000
H 0.146460000000000 -0.296530000000000 -2.167220000000000

water8D2d.wfx

