%nprocs=4
%mem=4GB
#p pbepbe aug-cc-pvtz output=wfx scf=(conver=6) int=(grid=ultrafine)

title

0 1
O 1.740780000000000 1.597160000000000 -1.498140000000000
H 2.229080000000000 2.183160000000000 -2.089140000000000
H 0.880380000000000 2.047260000000000 -1.326840000000000
O 1.319980000000000 -1.189340000000000 -1.917340000000000
H 1.499880000000000 -0.229740000000000 -1.890440000000000
H 1.690580000000000 -1.525940000000000 -1.077040000000000
O -0.689820000000000 2.594760000000000 -0.722240000000000
H -1.143720000000000 3.370860000000000 -1.073640000000000
H -1.355920000000000 1.849860000000000 -0.783340000000000
O -1.275120000000000 -1.773940000000000 -1.695240000000000
H -0.322520000000000 -1.528840000000000 -1.856040000000000
H -1.539920000000000 -2.304540000000000 -2.456440000000000
O 1.892380000000000 -2.004940000000000 0.728560000000000
H 0.939280000000000 -2.210840000000000 0.933660000000000
H 2.403080000000000 -2.743040000000000 1.082460000000000
O -0.724420000000000 -2.432640000000000 1.032860000000000
H -1.179520000000000 -1.691340000000000 1.481860000000000
H -1.046820000000000 -2.384640000000000 0.112960000000000
O -0.101620000000000 1.801360000000000 2.025060000000000
H -0.292520000000000 2.302260000000000 1.212160000000000
H 0.798780000000000 1.435260000000000 1.856660000000000
O -1.954120000000000 -0.092940000000000 1.996760000000000
H -2.484620000000000 -0.000540000000000 2.797460000000000
H -1.229020000000000 0.592260000000000 2.074660000000000
O -2.423220000000000 0.591660000000000 -0.703540000000000
H -2.104020000000000 -0.209140000000000 -1.167040000000000
H -2.464620000000000 0.322360000000000 0.235760000000000
O 2.328380000000000 0.764960000000000 1.229760000000000
H 2.269380000000000 -0.206640000000000 1.148360000000000
H 2.339580000000000 1.075860000000000 0.307360000000000

water10PP1.wfx

