%nprocs=4
%mem=4GB
#p pbepbe aug-cc-pvtz output=wfx scf=(conver=6) int=(grid=ultrafine)

title

0 1
O -2.465570000000000 -1.259950000000000 0.274640000000000
H -3.107870000000000 -1.764750000000000 -0.238560000000000
H -1.590270000000000 -1.445950000000000 -0.152160000000000
O -0.065270000000000 -1.423650000000000 -0.946360000000000
H 0.718130000000000 -1.681050000000000 -0.416060000000000
H 0.090530000000000 -0.481850000000000 -1.135860000000000
O 2.234330000000000 -1.749050000000000 0.626840000000000
H 3.042530000000000 -2.130850000000000 0.263340000000000
H 2.421330000000000 -0.788650000000000 0.702540000000000
O 2.424430000000000 1.025350000000000 0.626840000000000
H 1.620930000000000 1.308750000000000 0.141940000000000
H 2.431630000000000 1.554650000000000 1.433340000000000
O -2.297670000000000 1.436550000000000 0.279440000000000
H -2.481670000000000 0.464250000000000 0.308340000000000
H -2.460070000000000 1.747950000000000 1.178140000000000
O 0.132630000000000 1.498250000000000 -0.883160000000000
H 0.102230000000000 2.115950000000000 -1.624060000000000
H -0.750270000000000 1.574050000000000 -0.439160000000000

water6BK1.wfx

