%nprocs=4
%mem=4GB
#p pbepbe aug-cc-pvtz output=wfx scf=(conver=6) int=(grid=ultrafine)

title

0 1
O -2.235150000000000 1.403780000000000 0.822510000000000
H -2.349350000000000 1.545380000000000 1.770210000000000
H -2.256550000000000 0.425080000000000 0.711210000000000
O -2.187850000000000 -1.302420000000000 0.500510000000000
H -1.472750000000000 -1.686420000000000 -0.058790000000000
H -2.956550000000000 -1.864620000000000 0.350910000000000
O -0.155950000000000 -2.360520000000000 -0.983590000000000
H 0.740850000000000 -2.057420000000000 -0.704490000000000
H -0.143350000000000 -2.300320000000000 -1.946190000000000
O -0.008450000000000 2.549280000000000 -0.252390000000000
H -0.260050000000000 2.787580000000000 -1.152590000000000
H -0.819250000000000 2.140180000000000 0.134210000000000
O 2.319150000000000 -1.494320000000000 -0.232890000000000
H 2.676450000000000 -1.907220000000000 0.562710000000000
H 2.342950000000000 -0.527420000000000 -0.044590000000000
O 2.284950000000000 1.178280000000000 0.304410000000000
H 1.468250000000000 1.682380000000000 0.079410000000000
H 3.012650000000000 1.788780000000000 0.139510000000000

water6CB2.wfx

