%nprocs=4
%mem=4GB
#p pbepbe aug-cc-pvtz output=wfx scf=(conver=6) int=(grid=ultrafine)

title

0 1
O 1.437910000000000 -1.953050000000000 -0.153670000000000
H 0.487710000000000 -2.049650000000000 -0.375870000000000
H 1.641410000000000 -2.722350000000000 0.392030000000000
O -1.361890000000000 -1.894450000000000 -0.546870000000000
H -1.514690000000000 -0.953450000000000 -0.321470000000000
H -1.930190000000000 -2.380150000000000 0.063430000000000
O -1.359990000000000 0.786750000000000 0.350630000000000
H -1.920690000000000 1.148250000000000 1.048130000000000
H -0.456890000000000 0.675150000000000 0.757530000000000
O 1.226510000000000 0.595250000000000 0.978530000000000
H 1.419510000000000 1.226950000000000 0.261930000000000
H 1.470010000000000 -0.282350000000000 0.613130000000000
O 0.599810000000000 2.411150000000000 -1.176370000000000
H 0.531810000000000 3.347650000000000 -0.950670000000000
H -0.270390000000000 2.044250000000000 -0.940370000000000

water5FRC.wfx

