%nprocs=4
%mem=4GB
#p pbepbe aug-cc-pvtz output=wfx scf=(conver=6) int=(grid=ultrafine)

title

0 1
O -1.798110000000000 -1.118030000000000 0.296430000000000
H -1.607910000000000 -1.243030000000000 -0.649370000000000
H -1.904810000000000 -0.141330000000000 0.331030000000000
O -1.499210000000000 1.631670000000000 -0.111470000000000
H -1.237210000000000 1.338770000000000 -1.001970000000000
H -0.649110000000000 1.771470000000000 0.343830000000000
O -0.608610000000000 -0.216430000000000 -2.213770000000000
H -0.546410000000000 -0.303630000000000 -3.172570000000000
H 0.318690000000000 -0.284530000000000 -1.883570000000000
O 1.811290000000000 -0.367930000000000 -0.932970000000000
H 1.921290000000000 0.490770000000000 -0.492670000000000
H 1.589990000000000 -0.946530000000000 -0.179970000000000
O 0.575790000000000 -1.277630000000000 1.492930000000000
H -0.346510000000000 -1.319230000000000 1.112330000000000
H 0.613990000000000 -1.964330000000000 2.169430000000000
O 1.065390000000000 1.440670000000000 1.263730000000000
H 1.373990000000000 1.971670000000000 2.008130000000000
H 0.927490000000000 0.537570000000000 1.620530000000000

water6PR.wfx

