%nprocs=4
%mem=4GB
#p pbepbe aug-cc-pvtz output=wfx scf=(conver=6) int=(grid=ultrafine)

title

0 1
O -0.665880000000000 -1.941780000000000 1.761760000000000
H -1.008080000000000 -2.216780000000000 0.892560000000000
H -1.131780000000000 -1.086480000000000 1.918460000000000
O -1.439180000000000 -2.150380000000000 -1.035540000000000
H -1.957780000000000 -1.313280000000000 -1.090840000000000
H -1.956880000000000 -2.808880000000000 -1.514640000000000
O 1.344920000000000 -1.692380000000000 -1.440340000000000
H 0.391220000000000 -1.899280000000000 -1.393940000000000
H 1.657120000000000 -1.812480000000000 -0.521440000000000
O -0.667480000000000 2.090720000000000 -1.344140000000000
H 0.176620000000000 1.724520000000000 -1.676940000000000
H -0.446480000000000 2.408620000000000 -0.445940000000000
O 1.814520000000000 0.883920000000000 -1.918740000000000
H 1.630920000000000 -0.092280000000000 -1.834240000000000
H 2.381920000000000 0.977220000000000 -2.693640000000000
O 1.922520000000000 -1.601280000000000 1.331860000000000
H 2.422820000000000 -2.185380000000000 1.914560000000000
H 0.962720000000000 -1.722880000000000 1.586660000000000
O -2.601580000000000 0.326620000000000 -0.986240000000000
H -1.893880000000000 1.000620000000000 -1.202040000000000
H -3.391680000000000 0.621520000000000 -1.455440000000000
O 2.301620000000000 1.158420000000000 0.888660000000000
H 2.264220000000000 0.213820000000000 1.142460000000000
H 2.333920000000000 1.136120000000000 -0.086740000000000
O 0.038620000000000 2.480920000000000 1.363760000000000
H 0.229620000000000 3.273720000000000 1.879560000000000
H 0.905820000000000 1.995720000000000 1.285360000000000
O -1.949180000000000 0.498020000000000 1.867860000000000
H -2.368580000000000 0.506020000000000 0.989360000000000
H -1.300680000000000 1.226920000000000 1.817960000000000

water10PP2.wfx

