%nprocs=4
%mem=4GB
#p pbepbe aug-cc-pvtz output=wfx scf=(conver=6) int=(grid=ultrafine)

title

0 1
O 0.000000000000000 0.000000000000000 0.118310000000000
H 0.000000000000000 0.758130000000000 -0.473250000000000
H 0.000000000000000 -0.758130000000000 -0.473250000000000

water1.wfx

