%nprocs=4
%mem=4GB
#p pbepbe aug-cc-pvtz output=wfx scf=(conver=6) int=(grid=ultrafine)

title

0 1
O 1.590890000000000 -2.256660000000000 -0.006100000000000
H 1.963790000000000 -1.472660000000000 0.442500000000000
H 1.377490000000000 -1.930960000000000 -0.902300000000000
O 2.073790000000000 0.239140000000000 1.265600000000000
H 1.178590000000000 0.272740000000000 1.700800000000000
H 2.706590000000000 0.495540000000000 1.947500000000000
O 0.535990000000000 -0.929660000000000 -2.289700000000000
H -0.387010000000000 -0.906060000000000 -1.917800000000000
H 0.440190000000000 -1.171560000000000 -3.218900000000000
O -0.808010000000000 -2.454260000000000 1.156800000000000
H 0.100790000000000 -2.508360000000000 0.751800000000000
H -0.992810000000000 -3.330160000000000 1.516600000000000
O -1.822310000000000 -0.933960000000000 -1.018700000000000
H -2.008010000000000 -0.087960000000000 -0.565600000000000
H -1.660810000000000 -1.561360000000000 -0.287900000000000
O -0.389610000000000 0.106940000000000 2.307000000000000
H -0.638410000000000 -0.811960000000000 2.087000000000000
H -1.022210000000000 0.652540000000000 1.799800000000000
O -2.082610000000000 1.480140000000000 0.476500000000000
H -1.554010000000000 2.184040000000000 0.016600000000000
H -2.948210000000000 1.874540000000000 0.639500000000000
O 1.580490000000000 1.493540000000000 -1.238700000000000
H 1.845190000000000 1.146540000000000 -0.364700000000000
H 1.294090000000000 0.698240000000000 -1.729100000000000
O -0.509910000000000 3.150040000000000 -0.901600000000000
H 0.281290000000000 2.574440000000000 -1.076000000000000
H -0.145310000000000 3.987240000000000 -0.590800000000000

water9D2dDD.wfx

