%nprocs=4
%mem=4GB
#p pbepbe aug-cc-pvtz output=wfx scf=(conver=6) int=(grid=ultrafine)

title

0 1
O 0.846550000000000 -2.105310000000000 0.599990000000000
H 0.992450000000000 -1.447910000000000 1.307690000000000
H 1.323250000000000 -1.728910000000000 -0.165510000000000
O 0.875650000000000 0.172190000000000 2.319990000000000
H -0.091750000000000 0.352890000000000 2.167990000000000
H 1.026450000000000 0.301590000000000 3.264190000000000
O -1.733850000000000 -1.780910000000000 -0.021310000000000
H -0.805550000000000 -2.040210000000000 0.228690000000000
H -2.256350000000000 -2.591510000000000 0.010190000000000
O -1.649050000000000 0.596690000000000 1.549990000000000
H -1.885650000000000 -0.226010000000000 1.079290000000000
H -1.574050000000000 1.258490000000000 0.834990000000000
O 1.718650000000000 1.591990000000000 0.005390000000000
H 1.563550000000000 1.229390000000000 0.899490000000000
H 0.862650000000000 1.999890000000000 -0.229510000000000
O -0.914450000000000 -0.085210000000000 -2.155410000000000
H -1.314250000000000 -0.754910000000000 -1.566810000000000
H 0.033350000000000 -0.322010000000000 -2.163610000000000
O 1.836050000000000 -0.559910000000000 -1.575410000000000
H 1.917950000000000 0.273190000000000 -1.035910000000000
H 2.639950000000000 -0.614710000000000 -2.106210000000000
O -0.976950000000000 2.171690000000000 -0.724010000000000
H -1.019150000000000 1.402590000000000 -1.355210000000000
H -1.415550000000000 2.906890000000000 -1.169010000000000

water8S4.wfx

