%nprocs=4
%mem=4GB
#p pbepbe aug-cc-pvtz output=wfx scf=(conver=6) int=(grid=ultrafine)

title

0 1
O 1.272440000000000 -0.651400000000000 -1.747460000000000
H 1.473340000000000 -1.381500000000000 -1.135860000000000
H 1.543340000000000 0.140600000000000 -1.247860000000000
O -1.343760000000000 -1.426600000000000 -1.098660000000000
H -0.558460000000000 -1.034100000000000 -1.540060000000000
H -0.915760000000000 -2.125500000000000 -0.572060000000000
O 0.516540000000000 -0.252200000000000 1.886840000000000
H 1.020840000000000 0.426000000000000 1.398240000000000
H -0.410360000000000 0.000200000000000 1.721540000000000
O -0.822560000000000 2.673700000000000 -0.388060000000000
H -1.364260000000000 1.950600000000000 0.000140000000000
H -1.143460000000000 2.759300000000000 -1.294760000000000
O -2.029560000000000 0.427900000000000 0.674640000000000
H -2.953560000000000 0.348600000000000 0.941640000000000
H -1.875460000000000 -0.289400000000000 -0.004560000000000
O 1.643040000000000 1.611300000000000 0.010240000000000
H 0.821440000000000 2.129100000000000 -0.170260000000000
H 2.347640000000000 2.262800000000000 0.110440000000000
O 0.818740000000000 -2.532000000000000 0.440240000000000
H 0.763940000000000 -1.773100000000000 1.073440000000000
H 1.195840000000000 -3.264300000000000 0.942140000000000

water7PR2.wfx

