%nprocs=4
%mem=4GB
#p pbepbe aug-cc-pvtz output=wfx scf=(conver=6) int=(grid=ultrafine)

title

0 1
O -0.106400000000000 -1.535300000000000 -1.023610000000000
H 0.167700000000000 -2.010600000000000 -1.818010000000000
H 0.597300000000000 -1.732300000000000 -0.352710000000000
O -2.820200000000000 -1.441200000000000 -0.400710000000000
H -1.865300000000000 -1.588900000000000 -0.569010000000000
H -3.015900000000000 -1.946100000000000 0.397790000000000
O -3.032200000000000 1.326700000000000 -0.498310000000000
H -3.091600000000000 0.348400000000000 -0.441510000000000
H -3.666600000000000 1.572000000000000 -1.183010000000000
O -0.286800000000000 1.361600000000000 -1.124810000000000
H -1.237200000000000 1.473500000000000 -0.914610000000000
H -0.177900000000000 0.394500000000000 -1.173310000000000
O 1.479400000000000 2.395700000000000 0.640990000000000
H 0.810900000000000 2.066200000000000 -0.012710000000000
H 0.965800000000000 2.887800000000000 1.292790000000000
O 3.018800000000000 0.342900000000000 1.478990000000000
H 2.471900000000000 1.120500000000000 1.201590000000000
H 3.908000000000000 0.541100000000000 1.161290000000000
O 1.856800000000000 -1.978400000000000 0.748690000000000
H 2.310900000000000 -1.140100000000000 1.017090000000000
H 1.712700000000000 -2.457900000000000 1.573190000000000

water7CH1.wfx

