%nprocs=4
%mem=4GB
#p pbepbe aug-cc-pvtz output=wfx scf=(conver=6) int=(grid=ultrafine)

title

0 1
O 2.154340000000000 -1.322500000000000 1.414500000000000
H 1.315240000000000 -0.903200000000000 1.111300000000000
H 2.017940000000000 -2.268200000000000 1.276900000000000
O 1.681040000000000 1.424900000000000 -1.271800000000000
H 1.790840000000000 2.381800000000000 -1.216200000000000
H 2.543340000000000 1.049200000000000 -0.981700000000000
O 3.847240000000000 0.060800000000000 -0.247000000000000
H 4.590540000000000 0.423600000000000 0.249500000000000
H 3.355240000000000 -0.496600000000000 0.399700000000000
O -0.023860000000000 -0.007100000000000 0.339200000000000
H 0.492340000000000 0.584200000000000 -0.255900000000000
H -0.532260000000000 -0.595700000000000 -0.266600000000000
O -3.859360000000000 -0.140500000000000 -0.374700000000000
H -4.369760000000000 0.534500000000000 -0.838200000000000
H -3.393060000000000 0.348100000000000 0.342000000000000
O -2.253260000000000 1.163700000000000 1.442100000000000
H -1.381660000000000 0.805700000000000 1.152100000000000
H -2.288660000000000 0.999400000000000 2.392400000000000
O -1.652260000000000 -1.508100000000000 -1.290800000000000
H -2.513160000000000 -1.059000000000000 -1.130500000000000
H -1.520760000000000 -1.475000000000000 -2.246200000000000

water7BI2.wfx

