%nprocs=4
%mem=4GB
#p pbepbe aug-cc-pvtz output=wfx scf=(conver=6) int=(grid=ultrafine)

title

0 1
O 1.623890000000000 -0.647260000000000 -1.495290000000000
H 2.115690000000000 -0.526360000000000 -2.316890000000000
H 0.679490000000000 -0.711360000000000 -1.757690000000000
O 1.562490000000000 1.325640000000000 0.611410000000000
H 1.720490000000000 0.706340000000000 -0.126090000000000
H 1.110990000000000 0.773640000000000 1.276810000000000
O 0.425890000000000 -2.510260000000000 0.413810000000000
H -0.281310000000000 -2.327860000000000 -0.233790000000000
H 1.211590000000000 -2.207160000000000 -0.070990000000000
O -0.078910000000000 -0.487960000000000 2.155610000000000
H -0.076110000000000 -0.740260000000000 3.086910000000000
H 0.127290000000000 -1.314160000000000 1.651510000000000
O -1.974410000000000 0.604340000000000 0.274210000000000
H -1.596110000000000 1.495340000000000 0.104910000000000
H -1.503310000000000 0.300640000000000 1.072010000000000
O -0.509610000000000 2.900640000000000 -0.235190000000000
H -0.515510000000000 3.728040000000000 0.260610000000000
H 0.322590000000000 2.443440000000000 0.035810000000000
O -1.096910000000000 -1.101860000000000 -1.550590000000000
H -1.759010000000000 -1.265060000000000 -2.232890000000000
H -1.509110000000000 -0.438460000000000 -0.924290000000000

water7PR1.wfx

