%nprocs=4
%mem=4GB
#p pbepbe aug-cc-pvtz output=wfx scf=(conver=6) int=(grid=ultrafine)

title

0 2
h 0.499494561501357 -2.618014754476863 -0.010701308587679
be -0.479840070483490 -1.434175037337142 -0.022418728212414
h 1.052558996736601 -1.972491589226621 0.021633222538725
al -0.144032098173260 2.664642625240226 -0.011128338053931
b -0.214721741768718 0.400711073489999 0.006607115125684
h 0.412681679147871 0.836590358193745 -0.983550838034966
h 0.398183697337399 0.836401929564181 1.003602102295258
f -1.524325024297750 1.286335394552482 -0.004043227070678

009.wfx

