%nprocs=4
%mem=4GB
#p pbepbe aug-cc-pvtz output=wfx scf=(conver=6) int=(grid=ultrafine)

title

0 2
h -0.701200602477633 2.175035254585729 0.000558055911541
c -0.286770861897132 1.155153893774411 -0.000434098082343
h 1.188849476985882 -1.821985823167005 0.583695605714963
o 0.994375502592668 0.952214116221889 -0.001131143775302
be 0.564935908818537 -0.672802665545113 -0.001628812861507
h -1.982402380037331 0.010455645455259 -0.000685410315352
h 1.190224741903985 -1.823556988916079 -0.579202578142272
n -0.968011785888987 0.025486567590921 -0.001171618449738

038.wfx

