%nprocs=4
%mem=4GB
#p pbepbe aug-cc-pvtz output=wfx scf=(conver=6) int=(grid=ultrafine)

title

0 2
h -2.001337937904088 -0.582873131920706 0.298730555129991
p -1.200464125529946 0.261651171843011 1.132271680383743
h 1.496534179657994 0.050188060835405 -1.833405454444378
b 0.481848227738158 0.170297797066584 0.219164991404891
h -0.318716272602839 0.347955119907098 -1.927479881769440
h -0.999000922303339 -0.654729333760927 2.210178438579105
c 0.559025432031112 0.202912730445393 -1.290843367161561
cl 1.982111418912932 0.204597585584158 1.191383037877665

039.wfx

