%nprocs=4
%mem=4GB
#p pbepbe aug-cc-pvtz output=wfx scf=(conver=6) int=(grid=ultrafine)

title

0 1
h 0.009758002532389 3.002405705806793 -0.271653780920706
h -0.106717515649848 -0.185414912642293 1.484422357069369
h 0.017282943573304 2.457834824010713 -0.790967122434366
h -0.027624909397530 0.367946325813026 0.959996931016714
h -1.564789817267587 -1.522007043812698 -0.475251800034026
al 0.021077140231230 -1.381765833498289 -0.311604554363357
h 0.827953535560611 -0.355995670957317 -1.242441850061710
h 0.823060620417431 -2.383003394719928 0.647499819728077

044.wfx

