%nprocs=4
%mem=4GB
#p pbepbe aug-cc-pvtz output=wfx scf=(conver=6) int=(grid=ultrafine)

title

0 1
h -1.633319737256262 -1.027036741458054 0.774349022473831
h 0.432312304939309 -0.014888889527948 1.350785243882020
h 2.116053453518942 0.632753652619196 0.492241512461907
b 0.935675901578735 0.509463739821029 0.326152944977878
na 0.259628640037620 -1.896121028609506 -1.053890829713889
be -0.820463321069289 0.009674738561345 0.365999765414497
si 0.101783108520143 1.145005787870008 -1.327733931165932
h -1.391670350269193 0.641148740723945 -0.927903728330317

046.wfx

