%nprocs=4
%mem=4GB
#p pbepbe aug-cc-pvtz output=wfx scf=(conver=6) int=(grid=ultrafine)

title

0 1
h 0.209396100891819 -0.525862006119998 -2.499427725408403
cl -0.006873980644097 -1.576672082713783 0.669244544260024
h -0.202402195663844 -1.103247945590005 -2.751862419190201
h -1.528409084548318 1.311363600546346 0.179640485132563
h 1.180076549240979 1.275197883472095 -0.423747675322135
h 0.017977496084463 -1.625455373438317 1.969232927214319
al -0.006550669150792 1.118387539389389 0.642439074107231
h 0.336785783789795 1.126288384454277 2.214480789206592

050.wfx

