%nprocs=4
%mem=4GB
#p pbepbe aug-cc-pvtz output=wfx scf=(conver=6) int=(grid=ultrafine)

title

0 1
h 0.184952925339759 1.530007655801470 0.003793956947821
h 1.139503800241789 -0.641037332761354 1.032312707796412
h 1.140267026010709 -0.641269885575691 -1.032196879964113
b 0.488782012949712 -0.706809226243144 -0.000199138496982
n -0.417923555171649 0.701580328344409 -0.000190455393121
h -1.022839108563441 0.737285190637353 0.827083998163994
h -1.018485384857987 0.742151867242538 -0.830445348176278
f -0.494257715948897 -1.721908597445565 -0.000158840877748

060.wfx

