%nprocs=4
%mem=4GB
#p pbepbe aug-cc-pvtz output=wfx scf=(conver=6) int=(grid=ultrafine)

title

0 1
h -2.786932891300040 -0.028390106773073 1.442827075676038
h -2.039935316206563 -0.098806316081950 1.517319259933088
s 0.428560772427710 1.577663035997723 -1.503611291323857
h -0.763550767077780 1.530222016322585 -0.845591595727003
mg 0.467341723313282 -2.556983827109406 -1.501063873985558
f 0.448290619279209 -0.297570328182718 1.246817339811288
al 1.338275500943475 0.066986650541732 -0.158195893749267
h 2.907950358620713 -0.193121124714893 -0.198501020634713

063.wfx

