%nprocs=4
%mem=4GB
#p pbepbe aug-cc-pvtz output=wfx scf=(conver=6) int=(grid=ultrafine)

title

0 1
h 1.587202812431936 0.767319021972269 -0.081465758580271
al 0.109726385392950 -0.002179644441838 -3.339078741595403
c 0.831262568772520 -0.003861437962170 -0.306993228301398
h -0.064182369077800 0.203962487995383 0.303754804477616
o 0.512103852933759 -0.003513735348191 -1.673967739477639
h -2.370871027371618 -0.137794276003616 2.770352114659764
h 1.236100898791855 -0.982883519690199 0.000875197053509
h -1.841343121873618 0.158951103478372 2.326523351763821

071.wfx

