%nprocs=4
%mem=4GB
#p pbepbe aug-cc-pvtz output=wfx scf=(conver=6) int=(grid=ultrafine)

title

0 2
h 0.088817243929947 3.894417474179346 1.164183826863843
h -0.201974732594354 1.698073086488362 -0.818198597708119
h -0.179929195768997 -0.032958398693679 0.711426329522743
h -0.238091840680259 1.058274846296625 -1.214396643638480
h 0.752816204762894 -1.026153988674489 1.414012623270746
h 0.063314550081639 -2.527069017096482 -1.606507822983980
o -0.187290319786353 -0.823692071831815 1.276842782620838
h -0.097661909944518 -2.240891930667861 -0.927362497947601

101.wfx

