%nprocs=4
%mem=4GB
#p pbepbe aug-cc-pvtz output=wfx scf=(conver=6) int=(grid=ultrafine)

title

0 1
h 1.068446483885469 -0.580465553729864 -0.741960765264280
h 0.411660005147485 2.332726423037677 -0.136611156343141
n 0.662431096138100 -1.019161845010093 0.090511424779318
h 1.067842590169231 -0.567101093496404 0.910461644217124
h -1.082141069618467 0.001000425079423 -0.308133765732374
h -0.177731212258488 2.334842380360951 0.330879813913426
h -1.188748230033268 -1.650093108353198 -0.307683727919180
n -0.761759663430057 -0.851747627888481 0.162536532349123

109.wfx

