%nprocs=4
%mem=4GB
#p pbepbe aug-cc-pvtz output=wfx scf=(conver=6) int=(grid=ultrafine)

title

0 1
c 0.023683544938736 0.211608204098561 1.502830862649852
f -0.010778328472167 -0.124992780737305 2.816466416214514
c 0.015659364214736 -0.698991081748158 0.537236810943074
h -0.019485078203577 -1.765968902351900 0.755309832912352
h 0.057074505461373 1.294615138614939 1.366488965281938
h -0.060425260881789 0.826689992116327 -3.601338177874956
h 0.046804396447209 -0.373212524355337 -0.501132188450917
h -0.052533143504534 0.630251954362873 -2.875862521675851

117.wfx

