%nprocs=4
%mem=4GB
#p pbepbe aug-cc-pvtz output=wfx scf=(conver=6) int=(grid=ultrafine)

title

0 1
h -1.380093916642313 -0.398593522812902 0.000330632866836
c -0.296012234126717 -0.247775682671413 0.001008956278214
h -0.490400060317931 1.994463398119626 1.030158085624789
p 0.376319154737823 1.478016045658147 0.001110701982887
h 0.138792686335667 -2.327092268580650 0.000209216382951
c 0.523914653072834 -1.304093941622160 0.000873569630425
h -0.483508280750194 1.991382766633417 -1.035304695291444
h 1.610987997690815 -1.186306794724060 0.001613532525347

131.wfx

