%nprocs=4
%mem=4GB
#p pbepbe aug-cc-pvtz output=wfx scf=(conver=6) int=(grid=ultrafine)

title

0 1
h -0.647626736845492 2.958768102072865 -0.314313477877714
h -0.388089870691131 2.299019087670540 -0.568114974516653
h -0.469821413171962 0.027134565393621 1.236818862329258
h -0.446190668494261 -2.233085780127791 -1.258072889625557
h 1.155136835289549 -0.830758422908164 1.352113213679521
o 0.586762772049023 -0.201204700911303 -0.674658024142333
c 0.253569464656008 -0.642354043456930 0.762472628240959
b -0.043740382791717 -1.377518807732823 -0.536245338087471

136.wfx

