%nprocs=4
%mem=4GB
#p pbepbe aug-cc-pvtz output=wfx scf=(conver=6) int=(grid=ultrafine)

title

0 1
n 0.000000000000000 0.000000000000000 0.552269012539075
n 0.000000000000000 0.000000000000000 -0.552269012539075

171_n.wfx

