%nprocs=4
%mem=4GB
#p pbepbe aug-cc-pvtz output=wfx scf=(conver=6) int=(grid=ultrafine)

title

0 1
na 0.000000000000000 0.000000000000000 0.948628970393083
h 0.000000000000000 0.000000000000000 -0.948628970393083

174_na.wfx

