%nprocs=4
%mem=4GB
#p pbepbe aug-cc-pvtz output=wfx scf=(conver=6) int=(grid=ultrafine)

title

0 1
al 0.000000000000000 0.000000000000000 0.000000000000000
h 0.800463415768383 -1.386443305710971 0.000000000000000
h 0.800463415768383 1.386443305710971 0.000000000000000
h -1.600926831536767 0.000000000000000 0.000000000000000

176_al.wfx

