&control
 title='crystal',
 prefix='crystal',
 pseudo_dir='../..',
 forc_conv_thr=1.0D-4,
 etot_conv_thr=1.0D-5,
/
&system
 ibrav=0,
 nat=    40,
 ntyp=  4,
 ecutwfc=80.0,
 ecutrho=800.0,
 vdw_corr='xdm',
 nosym=.true.,
/
&electrons
 conv_thr = 1d-10,
/
&ions
/
&cell
 press_conv_thr=0.01,
/
ATOMIC_SPECIES
O    15.999400 o.UPF
N    14.006700 n.UPF
C    12.010700 c.UPF
H     1.007940 h.UPF

ATOMIC_POSITIONS crystal
O             0.8123419287        0.6376391378        0.0028581076
O             0.1876580777        0.1376400472        0.4971430801
O             0.1877232668        0.3627539039        0.9971843085
O             0.8122761136        0.8627547369        0.5028160079
N             0.0594416583        0.7910303626        0.9900541245
N             0.9405580172        0.2910298477        0.5099465468
N             0.9406198069        0.2093631828        0.0099679360
N             0.0593801048        0.7093633439        0.4900328522
C             0.9008448219        0.8042143183        0.0009542777
C             0.0991567117        0.3042135600        0.4990465953
C             0.8269897494        0.0284937721        0.0176757793
C             0.1730105783        0.5284938749        0.4823252744
C             0.6494442183        0.0582694277        0.8581978440
C             0.3505562143        0.5582694950        0.6418032059
C             0.0992194139        0.1961809985        0.9990731307
C             0.9007820040        0.6961790713        0.5009273320
C             0.1730646662        0.9719017619        0.9823238045
C             0.8269355804        0.4719016267        0.5176764669
C             0.3506361851        0.9421323350        0.1417506519
C             0.6493641727        0.4421319385        0.3582494792
H             0.1064466355        0.6328186855        0.9867516453
H             0.8935536463        0.1328186656        0.5132487593
H             0.8109472009        0.0285495264        0.1673165408
H             0.1890533507        0.5285501171        0.3326844929
H             0.6577840720        0.0479831115        0.7062518366
H             0.3422165078        0.5479831945        0.7937492226
H             0.5954394543        0.2174303423        0.8782621060
H             0.4045609473        0.7174304769        0.6217389122
H             0.5633222385        0.9290868731        0.8751434050
H             0.4366783038        0.4290871186        0.6248576671
H             0.8936124441        0.3675740008        0.0132635906
H             0.1063879361        0.8675741198        0.4867374986
H             0.1890710874        0.9718597758        0.8326638571
H             0.8109289639        0.4718588812        0.6673362845
H             0.3423433144        0.9523757908        0.2937209097
H             0.6576569145        0.4523755299        0.2062791801
H             0.4046572121        0.7829977337        0.1216429655
H             0.5953431901        0.2829973620        0.3783571520
H             0.4367230072        0.0713500755        0.1247854123
H             0.5632772927        0.5713497464        0.3752147665

K_POINTS automatic
3 4 4  1 1 1

CELL_PARAMETERS bohr
  15.568282971  -0.000005089   0.008904881
  -0.000003771  11.507939235   0.000003370
  -4.425981099   0.000005119  12.531220441
