## FHIaims input file generated by critic2.
lattice_vector 3.9519999950       0.0000000000       0.0000000000       
lattice_vector -1.9760000025      3.4225323943       0.0000000000       
lattice_vector 0.0000000000       0.0000000000       9.6600000000       
atom_frac  0.3333321300       0.6666660600       0.1723602500       Te
atom_frac  0.6666671800       0.3333335900       0.8276397500       Te
atom_frac  0.0000000000       0.0000000000       0.0000000000       Zr
