%nprocs=4
%mem=2GB
#p pbepbe aug-cc-pvtz output=wfx scf=(conver=6) int=(grid=ultrafine)

title

0 1
N -0.535020551 -0.861570006 0.000000000
H -1.142058700 -0.825740733 -0.809565000
H -1.142058700 -0.825740733 0.809565000
H 0.000000000 0.000000000 0.000000000
N 3.004828362 0.000000000 0.000000000
H 3.611866511 -0.035829274 -0.809565000
H 2.469807811 -0.861570006 0.000000000
H 3.611866511 -0.035829274 0.809565000

ammoniadimer12.wfx


