%nprocs=4
%mem=2GB
#p pbepbe aug-cc-pvtz output=wfx scf=(conver=6) int=(grid=ultrafine)

title

0 1
N -0.535020551 -0.861570006 0.000000000
H -1.142058700 -0.825740733 -0.809565000
H -1.142058700 -0.825740733 0.809565000
H 0.000000000 0.000000000 0.000000000
N 5.008047270 0.000000000 0.000000000
H 5.615085419 -0.035829274 -0.809565000
H 4.473026719 -0.861570006 0.000000000
H 5.615085419 -0.035829274 0.809565000

ammoniadimer20.wfx


