%nprocs=4
%mem=4GB
#p pbepbe aug-cc-pvtz output=wfx scf=(conver=6) int=(grid=ultrafine)

title

0 1
N	1.578718 0.046611 0.000000
H	2.158621 -0.136396 -0.809565
H	0.849471 -0.658193 0.000000
H	2.158621 -0.136396 0.809565

ammoniadimer_2.wfx


