%nprocs=4
%mem=4GB
#p pbepbe aug-cc-pvtz output=wfx scf=(conver=6) int=(grid=ultrafine)

title

0 1
N	0.1803930 -2.9491231 0.0000000
H	0.7595495 -3.1459477 -0.8060729
H	0.7595495 -3.1459477 0.8060729
H	0.0444167 -1.9449399 0.0000000

benzeneammonia_2.wfx


