%nprocs=4
%mem=4GB
#p pbepbe aug-cc-pvtz output=wfx scf=(conver=6) int=(grid=ultrafine)

title

0 1
O	-2.7885270 -0.2744854 0.0000000
H	-2.6229114 -1.2190831 0.0000000
H	-1.9015103 0.0979110 0.0000000

benzenewater_2.wfx


