%nprocs=4
%mem=4GB
#p pbepbe aug-cc-pvtz output=wfx scf=(conver=6) int=(grid=ultrafine)

title

0 1
N	-0.0034118 3.5353926 0.0000000
C	0.0751963 2.3707040 0.0000000
H	0.1476295 1.3052847 0.0000000

benzeneHCN_2.wfx


