%nprocs=4
%mem=4GB
#p pbepbe aug-cc-pvtz output=wfx scf=(conver=6) int=(grid=ultrafine)

title

0 1
C	0.000000 -0.667578 -2.124659
C	0.000000 0.667578 -2.124659
H	0.923621 -1.232253 -2.126185
H	-0.923621 -1.232253 -2.126185
H	-0.923621 1.232253 -2.126185
H	0.923621 1.232253 -2.126185

etheneethyne_1.wfx


