%nprocs=4
%mem=4GB
#p pbepbe aug-cc-pvtz output=wfx scf=(conver=6) int=(grid=ultrafine)

title

0 1
C	-0.471925 -0.471925 -1.859111
C	0.471925 0.471925 -1.859111
H	-0.872422 -0.872422 -0.936125
H	0.872422 0.872422 -0.936125
H	-0.870464 -0.870464 -2.783308
H	0.870464 0.870464 -2.783308

c2h4_c2h4_1.wfx


