%nprocs=4
%mem=2GB
#p pbepbe aug-cc-pvtz output=wfx scf=(conver=6) int=(grid=ultrafine)

title

0 1
C   -1.888896000  -0.179692000   0.000000000
O   -1.493280000   1.073689000   0.000000000
O   -1.170435000  -1.166590000   0.000000000
H   -2.979488000  -0.258829000   0.000000000
H   -0.498833000   1.107195000   0.000000000
C    1.888896000   0.179692000   0.000000000
O    1.493280000  -1.073689000   0.000000000
O    1.170435000   1.166590000   0.000000000
H    2.979488000   0.258829000   0.000000000
H    0.498833000  -1.107195000   0.000000000

formicaciddimer10.wfx


