## FHIaims input file generated by critic2.
lattice_vector 3.3449999951       0.0000000000       0.0000000000       
lattice_vector -1.6725000024      2.8968549743       0.0000000000       
lattice_vector 0.0000000000       0.0000000000       6.0480000000       
atom_frac  0.3333339100       0.6666669600       0.2570006600       Se
atom_frac  0.6666678200       0.3333339100       0.7429993400       Se
atom_frac  0.0000000000       0.0000000000       0.0000000000       V 
