## FHIaims input file generated by critic2.
lattice_vector 3.2819999955       0.0000000000       0.0000000000       
lattice_vector -1.6410000023      2.8422953739       0.0000000000       
lattice_vector 0.0000000000       0.0000000000       14.3600000000      
atom_frac  0.6666654100       0.3333327000       0.1336671300       Se
atom_frac  0.6666654100       0.3333327000       0.3663328700       Se
atom_frac  0.3333327000       0.6666663500       0.6336671300       Se
atom_frac  0.3333327000       0.6666663500       0.8663328700       Se
atom_frac  0.3333327000       0.6666663500       0.2500000000       W 
atom_frac  0.6666654100       0.3333327000       0.7500000000       W 
