%nprocs=4
%mem=2GB
#P pbepbe aug-cc-pvtz SCF=(Conver=6) Int=(grid=ultrafine) output=wfn

S66-47-ot__Benzene-Benzene_TS_0.90_1 

0 1
  C    0.729188666   1.113101217   0.326728253
  H    1.303215897   2.014222336   0.159160270
  C    1.375087369  -0.119366352   0.412776946
  H    2.450514736  -0.174623998   0.313307203
  C    0.635039807  -1.280553386   0.629385409
  H    1.136334479  -2.236017467   0.700217157
  C   -0.750985629  -1.209654296   0.757890338
  H   -1.324525898  -2.111412827   0.924198912
  C   -1.397034430   0.022670814   0.673089633
  H   -2.472425369   0.078488260   0.773997991
  C   -0.656897314   1.184296216   0.458338585
  H   -1.157828445   2.140587131   0.395096082

Benzene-Benzene_TS_0.90_1.wfn

