%nprocs=4
%mem=2GB
#P pbepbe aug-cc-pvtz SCF=(Conver=6) Int=(grid=ultrafine) output=wfx

S66-57-ot__Benzene-Peptide_NH-pi_0.90_2 

0 1
  C    0.239484292   1.942519193   3.925666662
  H   -0.118660807   2.108250036   2.912373892
  H    1.264067853   2.299228759   4.007108171
  H   -0.364612581   2.516155022   4.624019381
  C    0.202637958   0.489356081   4.341375489
  O    0.487266363   0.136994664   5.479913552
  N   -0.169757312  -0.376360663   3.362134397
  H   -0.330885212  -0.018369922   2.436066057
  C   -0.206550185  -1.803239892   3.580221457
  H   -0.128462615  -1.970147428   4.650217688
  H   -1.141790721  -2.221590468   3.213483345
  H    0.622576292  -2.307112656   3.082884025

Benzene-Peptide_NH-pi_2.wfx

