%nprocs=4
%mem=2GB
#P pbepbe aug-cc-pvtz SCF=(Conver=6) Int=(grid=ultrafine) output=wfx

S66-40-dpial__Benzene-Neopentane_0.90_2 

0 1
  C    0.184739864   0.517534118   4.481178117
  C    1.630988545   0.696321476   4.026216629
  H    2.046845263   1.629599354   4.409639609
  H    2.254387864  -0.124294150   4.385070498
  H    1.691597678   0.715712765   2.937282412
  C    0.130348495   0.486162980   6.006043433
  H   -0.895441531   0.358742557   6.355131208
  H    0.725754396  -0.339523887   6.398597170
  H    0.518642979   1.414047606   6.428949015
  C   -0.364640170  -0.791957856   3.920882097
  H   -1.399513772  -0.942232893   4.233553686
  H    0.221816406  -1.640931618   4.276693364
  H   -0.335860340  -0.792410633   2.830567854
  C   -0.656632919   1.682105805   3.964972642
  H   -0.635091962   1.718136199   2.874974079
  H   -1.696422067   1.578336235   4.279455124
  H   -0.280980322   2.632800277   4.347079553

Benzene-Neopentane_2.wfx

