%nprocs=4
%mem=2GB
#P pbepbe aug-cc-pvtz SCF=(Conver=6) Int=(grid=ultrafine) output=wfx

S66-60-ot__Ethyne-AcOH_OH-pi_0.90_1 

0 1
  C   -0.610562566   0.227503096  -0.170602070
  H    0.107385058   0.861436027  -0.634209239
  C   -1.386275728  -0.525325504   0.379973527
  H   -2.080703238  -1.174067393   0.854379369

Ethyne-AcOH_OH-pi_1.wfx

