%nprocs=4
%mem=2GB
#P pbepbe aug-cc-pvtz SCF=(Conver=6) Int=(grid=ultrafine) output=wfn

S66-59-ot__Ethyne-Water_CH-O_0.90_2 

0 1
  O    2.065715924  -0.137963016  -0.109528915
  H    2.636072339  -0.727732397   0.387498011
  H    2.637711766   0.213025006  -0.794901069

Ethyne-Water_CH-O_0.90_2.wfn

