%nprocs=4
%mem=2GB
#P pbepbe aug-cc-pvtz SCF=(Conver=6) Int=(grid=ultrafine) output=wfn

S66-11-hb__MeNH2-Peptide_0.90_2 

0 1
  C    2.072476231   2.703210746  -0.124045143
  H    2.197094701   3.114387477  -1.123089475
  H    2.579047607   3.344203298   0.593739377
  H    1.006064475   2.676681219   0.094376286
  C    2.584467922   1.285413065  -0.121751111
  O    2.124488037   0.419676646  -0.860925724
  N    3.570950891   1.012380719   0.770579597
  H    3.970711912   1.767313494   1.295932351
  C    4.159396230  -0.307209826   0.848079164
  H    3.371219618  -1.048539973   0.755058568
  H    4.880656012  -0.479205198   0.049534772
  H    4.654049743  -0.423078015   1.808018692

MeNH2-Peptide_0.90_2.wfn

