%nprocs=4
%mem=2GB
#P pbepbe aug-cc-pvtz SCF=(Conver=6) Int=(grid=ultrafine) output=wfx

S66-05-hb__MeOH-MeOH_0.90_2 

0 1
  O    2.048029160  -0.115715786  -0.004542305
  H    2.516818470   0.498668738  -0.574208259
  C    2.556863086   0.041303152   1.317175019
  H    2.003294006  -0.646893275   1.947305899
  H    3.615859188  -0.209135747   1.373898160
  H    2.404423448   1.051997205   1.695067565

MeOH-MeOH_2.wfx

