%nprocs=4
%mem=2GB
#P pbepbe aug-cc-pvtz SCF=(Conver=6) Int=(grid=ultrafine) output=wfx

S66-08-hb__MeOH-Water_0.90_2 

0 1
  O    1.963534655  -0.045910300  -0.004918426
  H    2.402738794   0.342241899  -0.764791108
  H    2.401418949   0.356693979   0.748171106

MeOH-Water_2.wfx

