%nprocs=4
%mem=2GB
#P pbepbe aug-cc-pvtz SCF=(Conver=6) Int=(grid=ultrafine) output=wfn

S66-06-hb__MeOH-MeNH2_0.90_1 

0 1
  O   -0.706920192   0.045830367   0.006386104
  H    0.265623615   0.071710143   0.001339293
  C   -1.076670667  -1.313915813   0.001614280
  H   -2.162923576  -1.363195770   0.005865424
  H   -0.723405945  -1.844651676  -0.887743498
  H   -0.716079778  -1.852820828   0.883079775

MeOH-MeNH2_0.90_1.wfn

