%nprocs=4
%mem=2GB
#P pbepbe aug-cc-pvtz SCF=(Conver=6) Int=(grid=ultrafine) output=wfx

S66-35-dalal__Neopentane-Pentane_0.90_2 

0 1
  C   -0.000493915   0.055050583   4.927448234
  C    0.000577828  -0.085080522   6.447181188
  H   -0.886458197   0.378995520   6.880550601
  H    0.009829330  -1.135860769   6.740191057
  H    0.879238051   0.394584040   6.880824257
  C   -1.239949252  -0.626601448   4.353549723
  H   -1.263248466  -0.537644324   3.266720538
  H   -1.252034881  -1.687877843   4.606562924
  H   -2.150892973  -0.174310190   4.748634843
  C    1.252111197  -0.602490224   4.353977896
  H    1.273437983  -0.514204559   3.267006937
  H    1.285241731  -1.663051064   4.608070215
  H    2.153923431  -0.131846912   4.748399018
  C   -0.014741790   1.534843074   4.552826958
  H    0.863024207   2.045430092   4.951782089
  H   -0.015265991   1.661298000   3.469175269
  H   -0.902847739   2.028176786   4.950615099

Neopentane-Pentane_2.wfx

