%nprocs=4
%mem=2GB
#P pbepbe aug-cc-pvtz SCF=(Conver=6) Int=(grid=ultrafine) output=wfx

S66-17-hb__Uracil-Uracil_BP_0.90_2 

0 1
  N    3.975452157  -1.076929522   0.000498413
  H    4.422695940  -0.170356322   0.000885229
  C    4.831499927  -2.191547312  -0.001001464
  O    6.040951950  -2.039842897  -0.001750663
  C    4.117281497  -3.453720850  -0.001505858
  H    4.683866046  -4.368751600  -0.002644493
  C    2.767112521  -3.457538722  -0.000545762
  H    2.190149284  -4.370503488  -0.000864439
  N    2.029121111  -2.306657883   0.000904650
  H    1.002784851  -2.328100682   0.001581719
  C    2.601892049  -1.061992842   0.001455297
  O    1.951571165  -0.020774537   0.002691690

Uracil-Uracil_BP_2.wfx

