%nprocs=4
%mem=2GB
#P pbepbe aug-cc-pvtz SCF=(Conver=6) Int=(grid=ultrafine) output=wfx

S66-03-hb__Water-MeNH2_1.50 

0 1
  O   -0.687464896  -0.111744327  -0.019625472
  H   -1.046121544   0.775938208   0.012706845
  H    0.274042519   0.025850654  -0.003497262
  N    3.289707351   0.144837961   0.010890628
  H    3.585071782  -0.407800014  -0.783900235
  H    3.599787846  -0.365883130   0.827750121
  C    3.949042628   1.453201926  -0.029351010
  H    3.638500206   2.034926886   0.835164410
  H    5.040351918   1.413906954  -0.038306679
  H    3.622330356   1.989119395  -0.917174822

Water-MeNH2_1.50.wfx

