%nprocs=4
%mem=2GB
#P pbepbe aug-cc-pvtz SCF=(Conver=6) Int=(grid=ultrafine) output=wfn

S66-18-hb__Water-Pyridine_0.90_1 

0 1
  O   -0.552831024  -0.101697490  -0.000498788
  H   -0.871759633   0.801792198   0.000144400
  H    0.412659497  -0.001832248  -0.000251810

Water-Pyridine_0.90_1.wfn

