%nprocs=4
%mem=2GB
#P pbepbe aug-cc-pvtz SCF=(Conver=6) Int=(grid=ultrafine) output=wfx

S66-01-hb__Water-Water_0.90_2 

0 1
  O    2.067772248   0.027918025   0.000979062
  H    2.444393863  -0.410462041   0.767103444
  H    2.440036565  -0.448294950  -0.744423440

Water-Water_2.wfx

