%nprocs=4
%mem=2GB
#P pbepbe aug-cc-pvtz SCF=(Conver=6) Int=(grid=ultrafine) output=wfx

S66-01-hb__Water-Water_1.10 

0 1
  O   -0.702196054  -0.056060256   0.009942262
  H   -1.022193224   0.846775782  -0.011488714
  H    0.257521062   0.042121496   0.005218999
  O    2.470116753   0.024761177   0.000036698
  H    2.846738368  -0.413618889   0.766161080
  H    2.842381070  -0.451451798  -0.745365804

Water-Water_1.10.wfx

