%nprocs=4
%mem=2GB
#P pbepbe aug-cc-pvtz SCF=(Conver=6) Int=(grid=ultrafine) output=wfn

S66-03-hb__Water-MeNH2_0.90_1 

0 1
  O   -0.687464896  -0.111744327  -0.019625472
  H   -1.046121544   0.775938208   0.012706845
  H    0.274042519   0.025850654  -0.003497262

Water-MeNH2_0.90_1.wfn

