%nprocs=4
%mem=2GB
#P pbepbe aug-cc-pvtz SCF=(Conver=6) Int=(grid=ultrafine) output=wfn

S66-02-hb__Water-MeOH_0.90_1 

0 1
  O   -0.525329794  -0.050971084  -0.314516861
  H   -0.942006633   0.747901631   0.011252816
  H    0.403696525   0.059785981  -0.073568368

Water-MeOH_0.90_1.wfn

