%nprocs=4
%mem=2GB
#P pbepbe aug-cc-pvtz SCF=(Conver=6) Int=(grid=ultrafine) output=wfn

S66-03-hb__Water-MeNH2_2.00 

0 1
  O   -0.687464896  -0.111744327  -0.019625472
  H   -1.046121544   0.775938208   0.012706845
  H    0.274042519   0.025850654  -0.003497262
  N    4.294895654   0.184499083   0.015686433
  H    4.590260085  -0.368138892  -0.779104430
  H    4.604976149  -0.326222008   0.832545926
  C    4.954230931   1.492863048  -0.024555205
  H    4.643688509   2.074588008   0.839960215
  H    6.045540221   1.453568076  -0.033510874
  H    4.627518659   2.028780517  -0.912379017

Water-MeNH2_2.00.wfn

