&control
 title='crystal',
 prefix='crystal',
 pseudo_dir='..',
 calculation='vc-relax',
 etot_conv_thr=1.0D-5,
/
&system
 ibrav=0,
 celldm(1)=1.0,
 nat=    68,
 ntyp=  4,
 ecutwfc=80.0,
 ecutrho=800.0,
 xdm=.true.,
 xdm_a1=0.6512,
 xdm_a2=1.4633,
/
&electrons
 conv_thr = 1d-8,
/
&ions
/
&cell
/
ATOMIC_SPECIES
h      1.007940 h.UPF
c     12.010700 c.UPF
n     14.006700 n.UPF
o     15.999400 o.UPF

ATOMIC_POSITIONS crystal
c        0.026676651   0.259536038   0.134180149
c        0.526676423   0.240464213   0.865818636
c        0.973323577   0.759535787   0.365818636
c        0.473323349   0.740463962   0.634180149
c        0.055244014   0.292159633   0.414119964
c        0.555244316   0.207840167   0.585879195
c        0.944755684   0.792159833   0.085879195
c        0.444755986   0.707840367   0.914119964
c        0.155684071   0.405089509   0.436643930
c        0.655684034   0.094911238   0.563355920
c        0.844315966   0.905088762   0.063355920
c        0.344315929   0.594910491   0.936643930
c        0.263080487   0.305132831   0.403729876
c        0.763080774   0.194868600   0.596271073
c        0.736919226   0.805131400   0.096271073
c        0.236919513   0.694867169   0.903729876
c        0.232162261   0.162074093   0.553067227
c        0.732163537   0.337927117   0.446933548
c        0.767836463   0.662072883   0.946933548
c        0.267837739   0.837925907   0.053067227
h        0.978922065   0.332591313   0.516369655
h        0.478922235   0.167408197   0.483628623
h        0.021077765   0.832591803   0.983628623
h        0.521077935   0.667408687   0.016369655
h        0.153395805   0.456577723   0.625966994
h        0.653395994   0.043421923   0.374034282
h        0.846604006   0.956578077   0.874034282
h        0.346604195   0.543422277   0.125966994
h        0.148081045   0.496190934   0.297307355
h        0.648079878   0.003810414   0.702694196
h        0.851920122   0.996189586   0.202694196
h        0.351918955   0.503809066   0.797307355
h        0.341797196   0.359051298   0.476429756
h        0.841797373   0.140950434   0.523571650
h        0.658202627   0.859049566   0.023571650
h        0.158202804   0.640948702   0.976429756
h        0.278745000   0.277777763   0.203668213
h        0.778745202   0.222223760   0.796332649
h        0.721254798   0.777776240   0.296332649
h        0.221255000   0.722222237   0.703668213
h        0.257115322   0.172061336   0.753010218
h        0.757116057   0.327938644   0.246989735
h        0.742883943   0.672061356   0.746989735
h        0.242884678   0.827938664   0.253010218
h        0.269902186   0.057741703   0.478129653
h        0.769904565   0.442259665   0.521868448
h        0.730095435   0.557740335   0.021868448
h        0.230097814   0.942258297   0.978129653
h        0.071452687   0.146600804   0.736618119
h        0.571453951   0.353399742   0.263382418
h        0.928546049   0.646600258   0.763382418
h        0.428547313   0.853399196   0.236618119
h        0.073722997   0.052747403   0.454592691
h        0.573724367   0.447253159   0.545408170
h        0.926275633   0.552746841   0.045408170
h        0.426277003   0.947252597   0.954592691
n        0.101174046   0.152599071   0.544181195
n        0.601175493   0.347401526   0.455819154
n        0.898824507   0.652598474   0.955819154
n        0.398825954   0.847400929   0.044181195
o        0.063535192   0.134756165   0.043522202
o        0.563535218   0.365241429   0.956478148
o        0.936464782   0.634758571   0.456478148
o        0.436464808   0.865243835   0.543522202
o        0.972407637   0.360444988   1.012858628
o        0.472404819   0.139552494  -0.012861671
o        0.027595181   0.860447506   0.487138329
o        0.527592363   0.639555012   0.512858628

K_POINTS automatic
4 4 4 1 1 1

CELL_PARAMETERS cubic
  21.811267181  -0.000052554   0.000000000
  -0.000044514  16.668153153   0.000000000
   0.000000000   0.000000000   9.958819702
