&control
 title='crystal',
 prefix='crystal',
 pseudo_dir='../..',
 forc_conv_thr=1.0D-4,
 etot_conv_thr=1.0D-5,
/
&system
 ibrav=0,
 nat=    48,
 ntyp=  3,
 ecutwfc=80.0,
 ecutrho=800.0,
 vdw_corr='xdm',
 nosym=.true.,
/
&electrons
 conv_thr = 1d-10,
/
&ions
/
&cell
 press_conv_thr=0.01,
/
ATOMIC_SPECIES
C    12.010700 c.UPF
O    15.999400 o.UPF
H     1.007940 h.UPF

ATOMIC_POSITIONS crystal
C             0.7877916969        0.9404347076        0.5847020378
C             0.2122091747        0.4404365186        0.9152970161
C             0.9900415130        0.9598644572        0.6063106858
C             0.0099596595        0.4598663249        0.8936885080
C             0.7037302042        0.0326952265        0.6687288118
C             0.2962714385        0.5326980644        0.8312694502
C             0.5026122841        0.0092605228        0.6500248824
C             0.4973886900        0.5092624715        0.8499743696
O             0.0613720991        0.8668954714        0.5289806081
O             0.9386286200        0.3668970976        0.9710179581
O             0.0854214813        0.0785351487        0.7090604807
O             0.9145799236        0.5785375473        0.7909390755
O             0.4412680746        0.0807775987        0.7523734132
O             0.5587343664        0.5807808758        0.7476253155
O             0.4006301057        0.9094759564        0.5223502837
O             0.5993698964        0.4094777769        0.9776476746
H             0.7100727703        0.8436332482        0.4966740678
H             0.2899277385        0.3436351850        0.0033240655
H             0.2276243580        0.0777426137        0.7215311774
H             0.7723773297        0.5777447174        0.7784686926
H             0.7813529821        0.1280028536        0.7589945131
H             0.2186492582        0.6280054841        0.7410045808
H             0.2676536695        0.8936537389        0.5256517546
H             0.7323462641        0.3936549267        0.9743468309
C             0.8844772828        0.5163733985        0.3792086669
C             0.1155209681        0.0163729342        0.1207914006
C             0.6935918033        0.4897167768        0.3848330516
C             0.3064077133        0.9897177864        0.1151675555
C             0.0074819562        0.3991156000        0.3896873763
C             0.9925156192        0.8991152036        0.1103128194
C             0.1982681047        0.4257921402        0.3839201708
C             0.8017307179        0.9257930064        0.1160807378
O             0.5768288813        0.6006119503        0.3528588250
O             0.4231686437        0.1006109620        0.1471407006
O             0.6597763942        0.3450528076        0.4250352903
O             0.3402219511        0.8450521260        0.0749656794
O             0.3168119793        0.3157727853        0.4213068811
O             0.6831843817        0.8157719452        0.0786934281
O             0.2304642772        0.5694506947        0.3389584297
O             0.7695350552        0.0694501488        0.1610423278
H             0.9188947398        0.6387586573        0.3646892911
H             0.0811047368        0.1387583386        0.1353109894
H             0.5217532355        0.3361217920        0.4198023108
H             0.4782449958        0.8361218835        0.0801985990
H             0.9731067636        0.2769072543        0.4054523467
H             0.0268897923        0.7769068299        0.0945475294
H             0.3700824701        0.5801544066        0.3479072817
H             0.6299165384        0.0801544077        0.1520933371

K_POINTS automatic
4 3 4  1 1 1

CELL_PARAMETERS bohr
  14.251595903  -0.000017262  -0.000638208
  -0.000020852  16.005834519   0.000001013
  -5.920262516   0.000007696  13.889094013
