&control
 title='crystal',
 prefix='crystal',
 pseudo_dir='.',
 calculation='vc-relax',
/
&system
 ibrav=0,
 celldm(1)=1.0,
 nat=    92,
 ntyp=  3,
 ecutwfc=60.0,
 ecutrho=600.0,
 xdm=.true.,
 xdm_a1=0.4073,
 xdm_a2=2.4150,
/
&electrons
 conv_thr = 1d-8,
/
&ions
/
&cell
/
ATOMIC_SPECIES
h      1.007940 h.UPF
c     12.010700 c.UPF
o     15.999400 o.UPF

ATOMIC_POSITIONS crystal
c     0.52221165     0.74991779     0.16648284
c     0.47778836     0.25008220     0.83351714
c     0.47778840     0.24991738     0.33351724
c     0.52221161     0.75008261     0.66648274
c     0.48264405     0.82793268     0.09089020
c     0.51735596     0.17206731     0.90910978
c     0.51735601     0.32792930     0.40910953
c     0.48264400     0.67207069     0.59089045
c     0.30376954     0.68276394     0.05132271
c     0.69623047     0.31723605     0.94867727
c     0.69623017     0.18276529     0.44867724
c     0.30376984     0.81723470     0.55132274
c     0.14456904     0.77281603     0.08044695
c     0.85543096     0.22718396     0.91955303
c     0.85543129     0.27281484     0.41955318
c     0.14456871     0.72718515     0.58044680
c     0.19312786     0.69136890     0.15592512
c     0.80687214     0.30863108     0.84407486
c     0.80687203     0.19136775     0.34407496
c     0.19312798     0.80863224     0.65592502
c     0.04802375     0.78987821     0.19012621
c     0.95197626     0.21012178     0.80987377
c     0.95197666     0.28987700     0.30987387
c     0.04802334     0.71012299     0.69012611
o     0.56260066     0.45477713     0.17429970
o     0.43739935     0.54522286     0.82570028
o     0.43739866     0.95477486     0.32569968
o     0.56260135     0.04522512     0.67430030
o     0.63565960     0.74551400     0.06512023
o     0.36434040     0.25448599     0.93487975
o     0.36433944     0.24551503     0.43487988
o     0.63566057     0.75448496     0.56512010
o     0.26062919     0.75288704     0.97963920
o     0.73937081     0.24711294     0.02036078
o     0.73937076     0.25288912     0.52036069
o     0.26062925     0.74711087     0.47963929
o     0.11395196     0.07641377     0.07035081
o     0.88604805     0.92358622     0.92964917
o     0.88604785     0.57641407     0.42964901
o     0.11395216     0.42358592     0.57035096
o     0.36621961     0.83044980     0.19132103
o     0.63378039     0.16955018     0.80867895
o     0.63378053     0.33044774     0.30867884
o     0.36621948     0.66955225     0.69132114
h     0.63568742     0.88368550     0.19667531
h     0.36431258     0.11631449     0.80332467
h     0.36431259     0.38368424     0.30332448
h     0.63568741     0.61631575     0.69667550
h     0.46691689     0.06347149     0.08748010
h     0.53308311     0.93652850     0.91251987
h     0.53308232     0.56347162     0.41251963
h     0.46691769     0.43652837     0.58748035
h     0.31803870     0.44757396     0.05639157
h     0.68196131     0.55242603     0.94360841
h     0.68196167     0.94757279     0.44360876
h     0.31803834     0.05242720     0.55639122
h     0.02004234     0.65163836     0.05416267
h     0.97995767     0.34836162     0.94583731
h     0.97995752     0.15163890     0.44583742
h     0.02004249     0.84836109     0.55416256
h     0.21224882     0.45569880     0.15975980
h     0.78775119     0.54430119     0.84024018
h     0.78775192     0.95569748     0.34024050
h     0.21224808     0.04430251     0.65975948
h     0.91836947     0.67313959     0.16917812
h     0.08163054     0.32686040     0.83082186
h     0.08163081     0.17313945     0.33082208
h     0.91836919     0.82686054     0.66917789
h     0.09326415     0.75062274     0.24485949
h     0.90673586     0.24937725     0.75514049
h     0.90673622     0.25062104     0.25514063
h     0.09326378     0.74937895     0.74485935
h     0.02181395     0.02163362     0.18167175
h     0.97818606     0.97836637     0.81832823
h     0.97818539     0.52163291     0.31832816
h     0.02181462     0.47836708     0.68167182
h     0.59328939     0.40790576     0.22356690
h     0.40671062     0.59209423     0.77643308
h     0.40671071     0.90790512     0.27643334
h     0.59328930     0.09209487     0.72356664
h     0.67683011     0.92215047     0.04530954
h     0.32316989     0.07784952     0.95469043
h     0.32317021     0.42214638     0.45469025
h     0.67682979     0.57785361     0.54530973
h     0.30307563     0.58391236     0.95699399
h     0.69692438     0.41608763     0.04300599
h     0.69692390     0.08391372     0.54300618
h     0.30307611     0.91608627     0.45699380
h     0.98050302     0.11566192     0.05448799
h     0.01949698     0.88433807     0.94551199
h     0.01949582     0.61566200     0.44551171
h     0.98050419     0.38433799     0.55448827

K_POINTS automatic
2 2 2 1 1 1

CELL_PARAMETERS cubic
   14.165835000000     0.000011000000    -0.012669000000
    0.000007000000     8.745160000000    -0.000002000000
  -10.140827000000    -0.000018000000    37.222921000000
