&control
 title='crystal',
 prefix='crystal',
 pseudo_dir='.',
 calculation='vc-relax',
/
&system
 ibrav=0,
 celldm(1)=1.0,
 nat=   132,
 ntyp=  4,
 ecutwfc=60.0,
 ecutrho=600.0,
 xdm=.true.,
 xdm_a1=0.4073,
 xdm_a2=2.4150,
/
&electrons
 conv_thr = 1d-8,
/
&ions
/
&cell
/
ATOMIC_SPECIES
h      1.007940 h.UPF
c     12.010700 c.UPF
n     14.006700 n.UPF
o     15.999400 o.UPF

ATOMIC_POSITIONS crystal
c     0.43556827     0.53306669     0.20272933
c     0.56443175     0.46693330     0.79727069
c     0.93556827     0.96693329     0.70272934
c     0.06443175     0.03306670     0.29727068
c     0.65307532     0.57421524     0.24026290
c     0.34692470     0.42578475     0.75973712
c     0.15307532     0.92578475     0.74026291
c     0.84692470     0.07421524     0.25973711
c     0.72302863     0.57178669     0.33654906
c     0.27697138     0.42821330     0.66345095
c     0.22302864     0.92821329     0.83654907
c     0.77697138     0.07178670     0.16345095
c     0.37831465     0.49655402     0.35180514
c     0.62168536     0.50344597     0.64819488
c     0.87831466     0.00344596     0.85180515
c     0.12168536     0.99655403     0.14819487
c     0.34349859     0.52865738     0.10022624
c     0.65650143     0.47134261     0.89977377
c     0.84349859     0.97134260     0.60022625
c     0.15650143     0.02865739     0.39977377
n     0.59047939     0.53422727     0.39280989
n     0.40952063     0.46577272     0.60719012
n     0.09047939     0.96577271     0.89280990
n     0.90952063     0.03422728     0.10719012
n     0.29944210     0.49450979     0.25819832
n     0.70055791     0.50549020     0.74180169
n     0.79944211     0.00549019     0.75819833
n     0.20055791     0.99450980     0.24180168
n     0.23945298     0.45901851     0.40638657
n     0.76054704     0.54098148     0.59361344
n     0.73945298     0.04098148     0.90638658
n     0.26054703     0.95901851     0.09361343
h     0.76555401     0.60513294     0.19630866
h     0.23444601     0.39486704     0.80369136
h     0.26555401     0.89486704     0.69630867
h     0.73444600     0.10513295     0.30369135
h     0.89321156     0.60141683     0.37010115
h     0.10678846     0.39858316     0.62989886
h     0.39321156     0.89858315     0.87010116
h     0.60678846     0.10141684     0.12989885
h     0.08574584     0.42648729     0.37594997
h     0.91425418     0.57351270     0.62405005
h     0.58574584     0.07351270     0.87594998
h     0.41425417     0.92648729     0.12405004
h     0.29577415     0.46044180     0.47777045
h     0.70422587     0.53955819     0.52222956
h     0.79577416     0.03955819     0.97777046
h     0.20422586     0.96044180     0.02222955
h     0.33196609     0.46130691     0.07715925
h     0.66803392     0.53869308     0.92284077
h     0.83196610     0.03869307     0.57715926
h     0.16803392     0.96130692     0.42284076
h     0.46305067     0.56377347     0.06148966
h     0.53694935     0.43622652     0.93851035
h     0.96305067     0.93622651     0.56148967
h     0.03694935     0.06377348     0.43851035
h     0.15863163     0.55550864     0.08297941
h     0.84136839     0.44449135     0.91702061
h     0.65863163     0.94449134     0.58297942
h     0.34136838     0.05550865     0.41702060
c     0.62239167     0.30173442     0.15704446
c     0.37760834     0.69826557     0.84295556
c     0.12239168     0.19826557     0.65704447
c     0.87760834     0.80173442     0.34295555
c     0.27080832     0.20603448     0.03821863
c     0.72919170     0.79396551     0.96178138
c     0.77080832     0.29396551     0.53821864
c     0.22919170     0.70603448     0.46178138
c     0.63585462     0.29142576     0.06248637
c     0.36414540     0.70857423     0.93751365
c     0.13585463     0.20857422     0.56248638
c     0.86414539     0.79142577     0.43751364
c     0.43242547     0.26122227     0.19376838
c     0.56757455     0.73877772     0.80623163
c     0.93242547     0.23877772     0.69376839
c     0.06757454     0.76122227     0.30623163
c     0.25757959     0.21539722     0.13196935
c     0.74242043     0.78460277     0.86803067
c     0.75757960     0.28460277     0.63196936
c     0.24242042     0.71539722     0.36803066
c     0.46381678     0.24345340     0.00319074
c     0.53618324     0.75654659     0.99680927
c     0.96381678     0.25654658     0.50319075
c     0.03618324     0.74345341     0.49680926
c     0.80997988     0.35639910     0.21535427
c     0.19002014     0.64360089     0.78464574
c     0.30997989     0.14360088     0.71535428
c     0.69002013     0.85639911     0.28464574
c     0.40728377     0.26342250     0.29442380
c     0.59271625     0.73657749     0.70557621
c     0.90728377     0.23657749     0.79442381
c     0.09271624     0.76342250     0.20557620
h     0.78700436     0.32137680     0.03661734
h     0.21299566     0.67862319     0.96338267
h     0.28700436     0.17862319     0.53661735
h     0.71299565     0.82137680     0.46338266
h     0.10701943     0.18619397     0.15900656
h     0.89298058     0.81380602     0.84099345
h     0.60701944     0.31380601     0.65900658
h     0.39298058     0.68619398     0.34099344
h     0.47855593     0.23460558     0.93051265
h     0.52144409     0.76539441     0.06948737
h     0.97855593     0.26539440     0.43051266
h     0.02144408     0.73460558     0.56948736
h     0.13273109     0.16863054     0.99305234
h     0.86726893     0.83136945     0.00694768
h     0.63273109     0.33136944     0.49305235
h     0.36726893     0.66863055     0.50694767
h     0.07451336     0.43961249     0.20923388
h     0.92548666     0.56038750     0.79076613
h     0.57451336     0.06038750     0.70923389
h     0.42548666     0.93961249     0.29076613
h     0.56141036     0.23120847     0.33820794
h     0.43858965     0.76879152     0.66179207
h     0.06141037     0.26879151     0.83820796
h     0.93858965     0.73120848     0.16179206
h     0.23800289     0.23130647     0.30369682
h     0.76199713     0.76869352     0.69630319
h     0.73800289     0.26869351     0.80369684
h     0.26199713     0.73130648     0.19630318
h     0.40612183     0.32900888     0.32133393
h     0.59387819     0.67099111     0.67866608
h     0.90612184     0.17099110     0.82133394
h     0.09387818     0.82900889     0.17866607
o     0.84145649     0.35788145     0.30133101
o     0.15854353     0.64211854     0.69866901
o     0.34145649     0.14211853     0.80133102
o     0.65854352     0.85788146     0.19866900
o     0.93882725     0.40396793     0.16608805
o     0.06117276     0.59603206     0.83391197
o     0.43882726     0.09603206     0.66608806
o     0.56117276     0.90396793     0.33391196

K_POINTS automatic
2 2 2 1 1 1

CELL_PARAMETERS cubic
   10.519169000000     0.000000000000     0.103412000000
    0.000000000000    29.369456000000     0.000000000000
   -5.122364000000     0.000000000000    27.127943000000
