&control
 title='crystal',
 prefix='crystal',
 pseudo_dir='.',
 calculation='vc-relax',
/
&system
 ibrav=0,
 celldm(1)=1.0,
 nat=   132,
 ntyp=  4,
 ecutwfc=60.0,
 ecutrho=600.0,
 xdm=.true.,
 xdm_a1=0.4073,
 xdm_a2=2.4150,
/
&electrons
 conv_thr = 1d-8,
/
&ions
/
&cell
/
ATOMIC_SPECIES
h      1.007940 h.UPF
c     12.010700 c.UPF
n     14.006700 n.UPF
o     15.999400 o.UPF

ATOMIC_POSITIONS crystal
n     0.91890720     0.09161948     0.65851931
n     0.08109279     0.90838051     0.34148065
n     0.41890720     0.40838051     0.65851932
n     0.58109279     0.59161947     0.34148064
c     0.95425926     0.05323532     0.78439108
c     0.04574073     0.94676466     0.21560888
c     0.45425926     0.44676467     0.78439110
c     0.54574073     0.55323532     0.21560887
n     0.89284255     0.99029205     0.91854358
n     0.10715744     0.00970793     0.08145638
n     0.39284255     0.50970794     0.91854359
n     0.60715744     0.49029205     0.08145637
n     0.04735440     0.07597610     0.78183003
n     0.95264559     0.92402388     0.21816993
n     0.54735440     0.42402389     0.78183004
n     0.45264559     0.57597610     0.21816992
c     0.10815365     0.13990801     0.64846339
c     0.89184634     0.86009197     0.35153657
c     0.60815365     0.36009198     0.64846341
c     0.39184634     0.63990801     0.35153656
c     0.07706156     0.18256216     0.51466447
c     0.92293843     0.81743782     0.48533550
c     0.57706156     0.31743783     0.51466448
c     0.42293843     0.68256216     0.48533548
h     0.12622099     0.23329189     0.40516065
h     0.87377900     0.76670809     0.59483932
h     0.62622099     0.26670810     0.40516066
h     0.37377900     0.73329189     0.59483930
c     0.98089218     0.15524203     0.52659489
c     0.01910781     0.84475795     0.47340508
c     0.48089218     0.34475796     0.52659490
c     0.51910781     0.65524203     0.47340506
h     0.95166474     0.18515580     0.42685453
h     0.04833525     0.81484418     0.57314543
h     0.45166474     0.31484419     0.42685454
h     0.54833524     0.68515580     0.57314542
c     0.21077009     0.16227280     0.64901052
c     0.78922990     0.83772719     0.35098945
c     0.71077009     0.33772720     0.64901053
c     0.28922990     0.66227279     0.35098943
h     0.20565984     0.20083869     0.77667174
h     0.79434015     0.79916129     0.22332823
h     0.70565984     0.29916130     0.77667175
h     0.29434015     0.70083869     0.22332821
h     0.25171738     0.08320086     0.63488160
h     0.74828261     0.91679912     0.36511836
h     0.75171738     0.41679913     0.63488162
h     0.24828261     0.58320086     0.36511835
h     0.25354654     0.21812254     0.53912763
h     0.74645345     0.78187745     0.46087234
h     0.75354654     0.28187745     0.53912764
h     0.24645345     0.71812253     0.46087232
h     0.82849085     0.96018259     0.90640475
h     0.17150913     0.03981739     0.09359522
h     0.32849086     0.53981740     0.90640476
h     0.67150913     0.46018258     0.09359520
h     0.91475093     0.96563583     0.02229119
h     0.08524906     0.03436415     0.97770877
h     0.41475093     0.53436416     0.02229121
h     0.58524906     0.46563583     0.97770875
c     0.30926424     0.03185616     0.23770650
c     0.69073575     0.96814382     0.76229347
c     0.80926424     0.46814383     0.23770651
c     0.19073575     0.53185616     0.76229345
c     0.41403201     0.04842279     0.22745426
c     0.58596798     0.95157719     0.77254570
c     0.91403201     0.45157720     0.22745428
c     0.08596798     0.54842278     0.77254569
c     0.46320621     0.95914761     0.27347775
c     0.53679378     0.04085237     0.72652222
c     0.96320621     0.54085238     0.27347776
c     0.03679378     0.45914761     0.72652220
c     0.56261319     0.96778638     0.25757681
c     0.43738680     0.03221360     0.74242316
c     0.06261319     0.53221361     0.25757682
c     0.93738680     0.46778637     0.74242314
c     0.61436296     0.06726521     0.19541004
c     0.38563703     0.93273478     0.80458992
c     0.11436296     0.43273479     0.19541005
c     0.88563702     0.56726520     0.80458991
c     0.56566142     0.15684418     0.15174847
c     0.43433857     0.84315580     0.84825150
c     0.06566142     0.34315581     0.15174848
c     0.93433857     0.65684418     0.84825148
c     0.46535023     0.15028388     0.16664447
c     0.53464976     0.84971610     0.83335550
c     0.96535023     0.34971611     0.16664448
c     0.03464976     0.65028387     0.83335548
c     0.41795571     0.25152374     0.12012500
c     0.58204428     0.74847624     0.87987497
c     0.91795571     0.24847625     0.12012501
c     0.08204428     0.75152373     0.87987495
o     0.26897891     0.09440790     0.16110169
o     0.73102108     0.90559208     0.83889828
o     0.76897891     0.40559209     0.16110170
o     0.23102108     0.59440790     0.83889826
o     0.26308620     0.94379634     0.33433040
o     0.73691379     0.05620364     0.66566957
o     0.76308620     0.55620365     0.33433041
o     0.23691379     0.44379634     0.66566955
h     0.42222478     0.88191121     0.32089302
h     0.57777521     0.11808877     0.67910695
h     0.92222478     0.61808878     0.32089303
h     0.07777521     0.38191121     0.67910693
h     0.59931627     0.89710741     0.29289134
h     0.40068372     0.10289257     0.70710862
h     0.09931627     0.60289258     0.29289136
h     0.90068372     0.39710741     0.70710861
h     0.69278331     0.07545213     0.18008777
h     0.30721668     0.92454785     0.81991219
h     0.19278331     0.42454786     0.18008779
h     0.80721668     0.57545212     0.81991218
h     0.60611100     0.23496043     0.10543285
h     0.39388899     0.76503955     0.89456711
h     0.10611100     0.26503956     0.10543287
h     0.89388899     0.73496042     0.89456710
h     0.34489718     0.27133625     0.22466995
h     0.65510281     0.72866373     0.77533001
h     0.84489718     0.22866374     0.22466997
h     0.15510281     0.77133625     0.77533000
h     0.40328724     0.23818296     0.99643951
h     0.59671275     0.76181703     0.00356046
h     0.90328724     0.26181703     0.99643952
h     0.09671275     0.73818295     0.00356044
h     0.46750292     0.32381429     0.10071827
h     0.53249707     0.67618569     0.89928169
h     0.96750292     0.17618570     0.10071829
h     0.03249707     0.82381429     0.89928168
h     0.19036827     0.93453426     0.33241484
h     0.80963172     0.06546573     0.66758512
h     0.69036827     0.56546573     0.33241486
h     0.30963172     0.43453425     0.66758511

K_POINTS automatic
2 2 2 1 1 1

CELL_PARAMETERS cubic
   27.103829000000     0.000000000000    -0.503064000000
    0.000000000000    22.620878000000     0.000000000000
    5.870187000000     0.000000000000    13.919230000000
