&control
 title='crystal',
 prefix='crystal',
 pseudo_dir='.',
 calculation='vc-relax',
/
&system
 ibrav=0,
 celldm(1)=1.0,
 nat=   132,
 ntyp=  4,
 ecutwfc=60.0,
 ecutrho=600.0,
 xdm=.true.,
 xdm_a1=0.4073,
 xdm_a2=2.4150,
/
&electrons
 conv_thr = 1d-8,
/
&ions
/
&cell
/
ATOMIC_SPECIES
h      1.007940 h.UPF
c     12.010700 c.UPF
n     14.006700 n.UPF
o     15.999400 o.UPF

ATOMIC_POSITIONS crystal
c     0.08090101     0.23809858     0.88340265
c     0.91909898     0.76190142     0.11659725
c     0.58090101     0.26190142     0.88340261
c     0.41909899     0.73809859     0.11659728
c     0.07052295     0.18138688     0.72650715
c     0.92947704     0.81861312     0.27349275
c     0.57052295     0.31861312     0.72650711
c     0.42947705     0.68138689     0.27349278
c     0.98132036     0.16597322     0.53240953
c     0.01867963     0.83402679     0.46759038
c     0.48132036     0.33402679     0.53240949
c     0.51867964     0.66597322     0.46759041
c     0.90250299     0.20463875     0.49419540
c     0.09749701     0.79536125     0.50580450
c     0.40250299     0.29536125     0.49419536
c     0.59749701     0.70463875     0.50580453
c     0.91181010     0.26043788     0.64980520
c     0.08818990     0.73956213     0.35019470
c     0.41181010     0.23956212     0.64980516
c     0.58818990     0.76043788     0.35019473
c     0.00018775     0.27627748     0.84099914
c     0.99981225     0.72372253     0.15900076
c     0.50018775     0.22372253     0.84099910
c     0.49981225     0.77627748     0.15900079
c     0.15141900     0.13692999     0.75467458
c     0.84858100     0.86307001     0.24532533
c     0.65141900     0.36307001     0.75467454
c     0.34858100     0.63693000     0.24532536
o     0.12518442     0.08535224     0.60353539
o     0.87481557     0.91464776     0.39646451
o     0.62518442     0.41464776     0.60353535
o     0.37481558     0.58535225     0.39646454
o     0.23487252     0.14659968     0.90122546
o     0.76512748     0.85340033     0.09877444
o     0.73487252     0.35340032     0.90122542
o     0.26512748     0.64659968     0.09877447
h     0.18541540     0.05659241     0.60180640
h     0.81458459     0.94340759     0.39819350
h     0.68541540     0.44340759     0.60180636
h     0.31458460     0.55659242     0.39819353
h     0.83466598     0.19150778     0.34047780
h     0.16533402     0.80849223     0.65952211
h     0.33466598     0.30849223     0.34047776
h     0.66533402     0.69150778     0.65952213
h     0.85107697     0.29164583     0.62538046
h     0.14892302     0.70835418     0.37461944
h     0.35107697     0.20835418     0.62538042
h     0.64892303     0.79164583     0.37461947
h     0.00667812     0.31956451     0.96703232
h     0.99332188     0.68043550     0.03296758
h     0.50667812     0.18043549     0.96703228
h     0.49332188     0.81956451     0.03296761
h     0.97550846     0.12277327     0.40834944
h     0.02449153     0.87722674     0.59165046
h     0.47550846     0.37722674     0.40834940
h     0.52449154     0.62277327     0.59165049
c     0.17353826     0.25968311     0.08820453
c     0.82646174     0.74031690     0.91179537
c     0.67353826     0.24031690     0.08820449
c     0.32646174     0.75968311     0.91179540
h     0.20033198     0.22890989     0.29555268
h     0.79966802     0.77109012     0.70444723
h     0.70033198     0.27109012     0.29555264
h     0.29966802     0.72890989     0.70444726
h     0.23228883     0.26324511     0.92731084
h     0.76771116     0.73675490     0.07268906
h     0.73228883     0.23675489     0.92731080
h     0.26771117     0.76324511     0.07268909
h     0.16153867     0.30341186     0.19879909
h     0.83846132     0.69658815     0.80120082
h     0.66153867     0.19658815     0.19879905
h     0.33846133     0.80341186     0.80120084
n     0.25962216     0.00566550     0.56071732
n     0.74037784     0.99433450     0.43928258
n     0.75962215     0.49433450     0.56071728
n     0.24037785     0.50566551     0.43928261
c     0.35338731     0.00445981     0.71889556
c     0.64661269     0.99554020     0.28110435
c     0.85338731     0.49554020     0.71889552
c     0.14661269     0.50445981     0.28110437
n     0.41586660     0.95842614     0.69175173
n     0.58413340     0.04157387     0.30824818
n     0.91586660     0.54157387     0.69175168
n     0.08413340     0.45842614     0.30824821
c     0.38074211     0.91285184     0.49679598
c     0.61925789     0.08714817     0.50320393
c     0.88074210     0.58714817     0.49679594
c     0.11925790     0.41285184     0.50320395
c     0.28561108     0.91031612     0.32756376
c     0.71438892     0.08968389     0.67243614
c     0.78561108     0.58968389     0.32756372
c     0.21438892     0.41031612     0.67243617
c     0.22576534     0.95907166     0.36597603
c     0.77423466     0.04092835     0.63402387
c     0.72576534     0.54092835     0.36597599
c     0.27423466     0.45907166     0.63402390
n     0.38604118     0.05125537     0.91175515
n     0.61395881     0.94874463     0.08824475
n     0.88604118     0.44874463     0.91175511
n     0.11395882     0.55125537     0.08824478
h     0.45464221     0.04910787     0.05260496
h     0.54535778     0.95089214     0.94739495
h     0.95464221     0.45089214     0.05260492
h     0.04535779     0.54910787     0.94739497
h     0.33883879     0.08553974     0.93858294
h     0.66116120     0.91446026     0.06141697
h     0.83883879     0.41446026     0.93858290
h     0.16116121     0.58553975     0.06141699
h     0.25927537     0.87250691     0.16989250
h     0.74072463     0.12749310     0.83010740
h     0.75927537     0.62749310     0.16989246
h     0.24072463     0.37250691     0.83010743
h     0.43123168     0.87617188     0.47387297
h     0.56876831     0.12382812     0.52612694
h     0.93123168     0.62382812     0.47387293
h     0.06876832     0.37617189     0.52612696
c     0.12256801     0.96203356     0.19368018
c     0.87743199     0.03796645     0.80631973
c     0.62256801     0.53796645     0.19368013
c     0.37743199     0.46203356     0.80631976
h     0.07166464     0.96691279     0.38324446
h     0.92833535     0.03308722     0.61675545
h     0.57166464     0.53308722     0.38324441
h     0.42833536     0.46691279     0.61675548
h     0.11200208     0.00088764     0.02378285
h     0.88799791     0.99911236     0.97621706
h     0.61200208     0.49911236     0.02378281
h     0.38799792     0.50088765     0.97621708
h     0.10335338     0.92165816     0.04477247
h     0.89664661     0.07834184     0.95522743
h     0.60335338     0.57834184     0.04477243
h     0.39664662     0.42165816     0.95522746

K_POINTS automatic
2 2 2 1 1 1

CELL_PARAMETERS cubic
   26.137824000000     0.000000000000    -0.057860000000
    0.000000000000    42.471378000000     0.000000000000
   -0.985149000000     0.000000000000     7.349811000000
