&control
 title='crystal',
 prefix='crystal',
 pseudo_dir='.',
 calculation='vc-relax',
/
&system
 ibrav=0,
 celldm(1)=1.0,
 nat=   132,
 ntyp=  4,
 ecutwfc=60.0,
 ecutrho=600.0,
 xdm=.true.,
 xdm_a1=0.4073,
 xdm_a2=2.4150,
/
&electrons
 conv_thr = 1d-8,
/
&ions
/
&cell
/
ATOMIC_SPECIES
h      1.007940 h.UPF
c     12.010700 c.UPF
n     14.006700 n.UPF
o     15.999400 o.UPF

ATOMIC_POSITIONS crystal
o     0.82306837     0.88381042     0.14763690
o     0.17693163     0.11618961     0.85236311
o     0.82306838     0.61618962     0.64763690
o     0.17693162     0.38381041     0.35236311
h     0.77837899     0.02462727     0.14655002
h     0.22162101     0.97537275     0.85344999
h     0.77837899     0.47537276     0.64655002
h     0.22162101     0.52462726     0.35344999
o     0.72557853     0.88402610     0.00652253
o     0.27442147     0.11597392     0.99347748
o     0.72557854     0.61597393     0.50652253
o     0.27442146     0.38402610     0.49347748
c     0.85700528     0.60341892     0.06964759
c     0.14299472     0.39658111     0.93035242
c     0.85700528     0.89658111     0.56964759
c     0.14299472     0.10341891     0.43035242
c     0.94737703     0.53884689     0.14384690
c     0.05262297     0.46115313     0.85615311
c     0.94737704     0.96115314     0.64384690
c     0.05262297     0.03884688     0.35615311
h     0.96831760     0.63433007     0.19995440
h     0.03168240     0.36566996     0.80004561
h     0.96831760     0.86566996     0.69995440
h     0.03168240     0.13433006     0.30004561
c     0.00859270     0.35602065     0.14707024
c     0.99140730     0.64397937     0.85292977
c     0.00859270     0.14397938     0.64707024
c     0.99140730     0.85602065     0.35292977
h     0.07860179     0.31084576     0.20537211
h     0.92139821     0.68915427     0.79462790
h     0.07860180     0.18915428     0.70537211
h     0.92139820     0.81084575     0.29462790
c     0.97794451     0.23214216     0.07535488
c     0.02205549     0.76785786     0.92464513
c     0.97794452     0.26785787     0.57535488
c     0.02205548     0.73214215     0.42464513
h     0.02337581     0.08666257     0.07673172
h     0.97662419     0.91333745     0.92326829
h     0.02337582     0.41333746     0.57673172
h     0.97662418     0.58666256     0.42326829
c     0.88787948     0.29349737     0.00186788
c     0.11212052     0.70650266     0.99813213
c     0.88787948     0.20650266     0.50186788
c     0.11212052     0.79349736     0.49813213
h     0.86250047     0.19457952     0.94645609
h     0.13749953     0.80542050     0.05354392
h     0.86250047     0.30542051     0.44645609
h     0.13749953     0.69457952     0.55354392
c     0.82635916     0.47856804     0.99655824
c     0.17364085     0.52143198     0.00344177
c     0.82635916     0.02143199     0.49655824
c     0.17364084     0.97856803     0.50344177
c     0.79538376     0.80210088     0.07073273
c     0.20461624     0.19789914     0.92926728
c     0.79538376     0.69789915     0.57073273
c     0.20461624     0.30210087     0.42926728
c     0.73116692     0.53144155     0.91433572
c     0.26883309     0.46855847     0.08566429
c     0.73116692     0.96855848     0.41433572
c     0.26883308     0.03144154     0.58566429
h     0.64410757     0.56720554     0.92237466
h     0.35589243     0.43279448     0.07762535
h     0.64410758     0.93279449     0.42237466
h     0.35589242     0.06720554     0.57762535
h     0.71822083     0.40439987     0.86962338
h     0.28177917     0.59560015     0.13037663
h     0.71822084     0.09560016     0.36962338
h     0.28177916     0.90439986     0.63037663
h     0.75715391     0.66641917     0.88583726
h     0.24284609     0.33358086     0.11416275
h     0.75715391     0.83358087     0.38583726
h     0.24284609     0.16641916     0.61416275
n     0.71979279     0.22522907     0.16176950
n     0.28020721     0.77477095     0.83823051
n     0.71979279     0.27477096     0.66176950
n     0.28020721     0.72522906     0.33823051
n     0.58178143     0.50501699     0.11549705
n     0.41821857     0.49498303     0.88450296
n     0.58178144     0.99498304     0.61549705
n     0.41821856     0.00501699     0.38450296
n     0.58531234     0.23931513     0.02494567
n     0.41468766     0.76068490     0.97505434
n     0.58531235     0.26068490     0.52494567
n     0.41468765     0.73931512     0.47505434
h     0.52433878     0.32062296     0.97704094
h     0.47566122     0.67937706     0.02295907
h     0.52433878     0.17937707     0.47704094
h     0.47566122     0.82062295     0.52295907
h     0.62728770     0.11125352     0.01255079
h     0.37271230     0.88874650     0.98744922
h     0.62728771     0.38874651     0.51255079
h     0.37271229     0.61125351     0.48744922
c     0.62995198     0.32479061     0.10155365
c     0.37004802     0.67520941     0.89844636
c     0.62995198     0.17520942     0.60155365
c     0.37004802     0.82479061     0.39844636
c     0.62162987     0.58372243     0.19360328
c     0.37837013     0.41627759     0.80639673
c     0.62162987     0.91627760     0.69360328
c     0.37837013     0.08372242     0.30639673
c     0.71319273     0.48800428     0.25922895
c     0.28680727     0.51199574     0.74077106
c     0.71319274     0.01199575     0.75922895
c     0.28680726     0.98800428     0.24077106
h     0.74468149     0.55028168     0.32304505
h     0.25531851     0.44971834     0.67695496
h     0.74468149     0.94971835     0.82304505
h     0.25531851     0.05028168     0.17695496
c     0.76053870     0.30973566     0.23888736
c     0.23946130     0.69026437     0.76111265
c     0.76053871     0.19026437     0.73888736
c     0.23946129     0.80973565     0.26111265
h     0.83379221     0.22854034     0.28567517
h     0.16620779     0.77145968     0.71432484
h     0.83379221     0.27145969     0.78567517
h     0.16620779     0.72854033     0.21432484
c     0.56454255     0.77759336     0.20904820
c     0.43545745     0.22240666     0.79095181
c     0.56454255     0.72240667     0.70904820
c     0.43545745     0.27759335     0.29095181
h     0.49103186     0.82510448     0.15261568
h     0.50896815     0.17489554     0.84738433
h     0.49103186     0.67489555     0.65261568
h     0.50896814     0.32510447     0.34738433
h     0.63205607     0.89983160     0.22727853
h     0.36794393     0.10016842     0.77272148
h     0.63205608     0.60016843     0.72727853
h     0.36794392     0.39983159     0.27272148
h     0.52876601     0.75813188     0.26179804
h     0.47123399     0.24186814     0.73820197
h     0.52876601     0.74186815     0.76179804
h     0.47123399     0.25813187     0.23820197

K_POINTS automatic
2 2 2 1 1 1

CELL_PARAMETERS cubic
   22.075198000000     0.000000000000     0.364337000000
    0.000000000000    12.400794000000     0.000000000000
  -10.747714000000     0.000000000000    29.618703000000
