&control
 title='crystal',
 prefix='crystal',
 pseudo_dir='.',
 calculation='vc-relax',
/
&system
 ibrav=0,
 celldm(1)=1.0,
 nat=    66,
 ntyp=  4,
 ecutwfc=60.0,
 ecutrho=600.0,
 xdm=.true.,
 xdm_a1=0.4073,
 xdm_a2=2.4150,
/
&electrons
 conv_thr = 1d-8,
/
&ions
/
&cell
/
ATOMIC_SPECIES
h      1.007940 h.UPF
c     12.010700 c.UPF
n     14.006700 n.UPF
o     15.999400 o.UPF

ATOMIC_POSITIONS crystal
c     0.84675290     0.33847856     0.34494384
c     0.15324712     0.66152141     0.65505617
n     0.71804185     0.53369266     0.37705211
n     0.28195817     0.46630730     0.62294789
c     0.57895255     0.48590178     0.56012525
c     0.42104747     0.51409818     0.43987476
c     0.56374423     0.25163416     0.71183587
c     0.43625579     0.74836580     0.28816414
c     0.70296526     0.05856381     0.66715461
c     0.29703476     0.94143616     0.33284540
n     0.84525717     0.10143271     0.48370926
n     0.15474284     0.89856726     0.51629075
h     0.47285485     0.64439017     0.58701121
h     0.52714517     0.35560979     0.41298880
h     0.44883977     0.21944674     0.85908689
h     0.55116025     0.78055322     0.14091312
c     0.69569030     0.80304045     0.81985418
c     0.30430972     0.19695952     0.18014583
h     0.86929371     0.62542520     0.76477445
h     0.13070631     0.37457477     0.23522555
h     0.66857721     0.71905434     0.94102295
h     0.33142281     0.28094562     0.05897706
h     0.53496014     0.87473435     0.87381867
h     0.46503987     0.12526561     0.12618133
n     0.99263126     0.37597489     0.16144084
n     0.00736876     0.62402507     0.83855916
h     0.03909182     0.27182960     0.14391865
h     0.96090820     0.72817036     0.85608136
h     0.96587124     0.57394511     0.06059317
h     0.03412878     0.42605486     0.93940684
c     0.59960394     0.77385157     0.73297120
c     0.40039608     0.22614840     0.26702881
c     0.76843901     0.47360044     0.79598492
c     0.23156101     0.52639952     0.20401508
c     0.86266873     0.26498139     0.79934943
c     0.13733129     0.73501857     0.20065058
c     0.78928381     0.37029050     0.72723228
c     0.21071621     0.62970946     0.27276773
c     0.62146561     0.67382989     0.66138818
c     0.37853441     0.32617008     0.33861183
c     0.52199150     0.87517429     0.66788228
c     0.47800852     0.12482568     0.33211773
h     0.52556476     0.93117417     0.73518345
h     0.47443525     0.06882580     0.26481656
h     0.82706680     0.39560101     0.84789174
h     0.17293322     0.60439896     0.15210827
h     0.56845967     0.74854666     0.60671063
h     0.43154034     0.25145330     0.39328938
h     0.38579154     0.10963423     0.62185822
h     0.61420848     0.89036574     0.37814179
c     0.88392894     0.16817650     0.71905032
c     0.11607107     0.83182346     0.28094969
o     0.95419107     0.90925856     0.82887126
o     0.04580895     0.09074141     0.17112875
o     0.88607907     0.28560856     0.58617816
o     0.11392094     0.71439140     0.41382185
h     0.98861811     0.12101550     0.56853164
h     0.01138190     0.87898446     0.43146837
c     0.03458274     0.94478256     0.87859169
c     0.96541728     0.05521740     0.12140832
h     0.20532021     0.82314356     0.78410815
h     0.79467981     0.17685641     0.21589186
h     0.09248897     0.92077703     0.89827216
h     0.90751105     0.07922294     0.10172785
h     0.93903941     0.83808007     0.01841042
h     0.06096061     0.16191989     0.98158958

K_POINTS automatic
2 2 2 1 1 1

CELL_PARAMETERS cubic
   33.609619000000    -0.351051000000     0.207944000000
   24.731247000000     8.843115000000     0.148666000000
   35.297292000000     4.269476000000    13.379735000000
