&control
 title='crystal',
 prefix='crystal',
 pseudo_dir='.',
 calculation='vc-relax',
/
&system
 ibrav=0,
 celldm(1)=1.0,
 nat=   132,
 ntyp=  4,
 ecutwfc=60.0,
 ecutrho=600.0,
 xdm=.true.,
 xdm_a1=0.4073,
 xdm_a2=2.4150,
/
&electrons
 conv_thr = 1d-8,
/
&ions
/
&cell
/
ATOMIC_SPECIES
h      1.007940 h.UPF
c     12.010700 c.UPF
n     14.006700 n.UPF
o     15.999400 o.UPF

ATOMIC_POSITIONS crystal
c     0.02364926     0.16029836     0.20273296
c     0.97635075     0.83970164     0.70273295
c     0.52364533     0.33970377     0.20274415
c     0.47635468     0.66029623     0.70274414
c     0.95601428     0.15019683     0.09640326
c     0.04398573     0.84980317     0.59640326
c     0.45600301     0.34980133     0.09641052
c     0.54399700     0.65019867     0.59641052
c     0.99576977     0.13835800     0.96449237
c     0.00423023     0.86164200     0.46449237
c     0.49575678     0.36164838     0.96447445
c     0.50424323     0.63835162     0.46447444
n     0.09544419     0.13995871     0.94190597
n     0.90455582     0.86004129     0.44190597
n     0.59545327     0.36003891     0.94190926
n     0.40454674     0.63996109     0.44190925
c     0.15596439     0.14958357     0.05180514
c     0.84403561     0.85041643     0.55180513
c     0.65596646     0.35041303     0.05179823
c     0.34403354     0.64958697     0.55179822
n     0.12391363     0.15838234     0.18208472
n     0.87608638     0.84161766     0.68208471
n     0.62391002     0.34162162     0.18208336
n     0.37608999     0.65837838     0.68208336
n     0.25725088     0.15415192     0.03001935
n     0.74274913     0.84584808     0.53001934
n     0.75724529     0.34584867     0.03002467
n     0.24275471     0.65415133     0.53002466
c     0.92706118     0.12376383     0.84477761
c     0.07293883     0.87623617     0.34477761
c     0.42706145     0.37623389     0.84478379
c     0.57293855     0.62376611     0.34478378
h     0.99809332     0.16969042     0.30753381
h     0.00190669     0.83030958     0.80753380
h     0.49809079     0.33031083     0.30753162
h     0.50190921     0.66968917     0.80753162
h     0.87494999     0.15148489     0.11312401
h     0.12505001     0.84851511     0.61312401
h     0.37495049     0.34851464     0.11312149
h     0.62504952     0.65148536     0.61312149
h     0.88323036     0.20960497     0.82853956
h     0.11676965     0.79039503     0.32853955
h     0.38322594     0.29039323     0.82854104
h     0.61677407     0.70960677     0.32854104
h     0.97011125     0.10333640     0.75276179
h     0.02988876     0.89666360     0.25276178
h     0.47011042     0.39666375     0.75275778
h     0.52988959     0.60333625     0.25275778
h     0.87199972     0.04882808     0.86269741
h     0.12800029     0.95117192     0.36269740
h     0.37199653     0.45117534     0.86269473
h     0.62800347     0.54882466     0.36269472
h     0.28169891     0.12395394     0.93790181
h     0.71830109     0.87604606     0.43790180
h     0.78169617     0.37604717     0.93789716
h     0.21830383     0.62395283     0.43789715
h     0.30404493     0.13917296     0.10993393
h     0.69595508     0.86082704     0.60993393
h     0.80404227     0.36082528     0.10993816
h     0.19595774     0.63917472     0.60993816
c     0.03722958     0.53411596     0.31619509
c     0.96277043     0.46588404     0.81619509
c     0.53722795     0.96587418     0.31618532
c     0.46277206     0.03412582     0.81618531
c     0.02734758     0.44427025     0.41798910
c     0.97265243     0.55572975     0.91798909
c     0.52734886     0.05573263     0.41799013
c     0.47265115     0.94426737     0.91799013
c     0.10682059     0.36298723     0.45005873
c     0.89317942     0.63701277     0.95005873
c     0.60681602     0.13701113     0.45004566
c     0.39318399     0.86298887     0.95004566
c     0.19761388     0.37467072     0.37673792
c     0.80238613     0.62532928     0.87673792
c     0.69761003     0.12533679     0.37674518
c     0.30238998     0.87466321     0.87674518
c     0.20811110     0.46523861     0.27528217
c     0.79188891     0.53476139     0.77528216
c     0.70812017     0.03475583     0.27527085
c     0.29187983     0.96524417     0.77527084
c     0.12784243     0.54502366     0.24431621
c     0.87215758     0.45497634     0.74431620
c     0.62784394     0.95497669     0.24430692
c     0.37215607     0.04502331     0.74430691
c     0.28335958     0.28621522     0.40607417
c     0.71664043     0.71378478     0.90607416
c     0.78336075     0.21378334     0.40607350
c     0.21663926     0.78621666     0.90607350
o     0.27374885     0.17313413     0.35035691
o     0.72625116     0.82686587     0.85035691
o     0.77374712     0.32686446     0.35035441
o     0.22625288     0.67313554     0.85035440
o     0.35623490     0.31477208     0.47619300
o     0.64376511     0.68522792     0.97619299
o     0.85623107     0.18522723     0.47619128
o     0.14376894     0.81477277     0.97619128
c     0.09577194     0.26620804     0.56002820
c     0.90422807     0.73379196     0.06002819
c     0.59577343     0.23379028     0.56002488
c     0.40422657     0.76620972     0.06002488
h     0.97395238     0.59569642     0.29347197
h     0.02604763     0.40430358     0.79347196
h     0.47395480     0.90430548     0.29347052
h     0.52604521     0.09569452     0.79347051
h     0.95588691     0.43507622     0.47185882
h     0.04411310     0.56492378     0.97185882
h     0.45588701     0.06492533     0.47185498
h     0.54411300     0.93507467     0.97185498
h     0.27963817     0.47507313     0.22178709
h     0.72036184     0.52492687     0.72178708
h     0.77963241     0.02492344     0.22178495
h     0.22036759     0.97507656     0.72178494
h     0.13684488     0.61528303     0.16497980
h     0.86315513     0.38471697     0.66497980
h     0.63684567     0.88471428     0.16497754
h     0.36315434     0.11528572     0.66497753
h     0.20733873     0.16871677     0.28854922
h     0.79266128     0.83128323     0.78854921
h     0.70733603     0.33128158     0.28855130
h     0.29266398     0.66871842     0.78855130
h     0.11792754     0.17272919     0.52470974
h     0.88207246     0.82727081     0.02470974
h     0.61792544     0.32726953     0.52470798
h     0.38207457     0.67273047     0.02470798
h     0.14458906     0.28760455     0.64737019
h     0.85541095     0.71239545     0.14737019
h     0.64459005     0.21239620     0.64737007
h     0.35540995     0.78760380     0.14737006
h     0.01748290     0.26017455     0.59468685
h     0.98251711     0.73982545     0.09468685
h     0.51748541     0.23982218     0.59468499
h     0.48251460     0.76017782     0.09468498

K_POINTS automatic
2 2 2 1 1 1

CELL_PARAMETERS cubic
   24.992084000000     0.000097000000     0.000000000000
    0.000044000000    20.213048000000     0.000000000000
    0.000000000000     0.000000000000    18.595705000000
