&control
 title='crystal',
 prefix='crystal',
 pseudo_dir='.',
 calculation='vc-relax',
/
&system
 ibrav=0,
 celldm(1)=1.0,
 nat=    66,
 ntyp=  4,
 ecutwfc=60.0,
 ecutrho=600.0,
 xdm=.true.,
 xdm_a1=0.4073,
 xdm_a2=2.4150,
/
&electrons
 conv_thr = 1d-8,
/
&ions
/
&cell
/
ATOMIC_SPECIES
h      1.007940 h.UPF
c     12.010700 c.UPF
n     14.006700 n.UPF
o     15.999400 o.UPF

ATOMIC_POSITIONS crystal
c     0.84564070     0.55644836     0.77138914
c     0.15435923     0.44355155     0.22861088
c     0.81439588     0.42307364     0.85140552
c     0.18560405     0.57692627     0.14859450
h     0.98255526     0.57486131     0.73083222
h     0.01744466     0.42513859     0.26916779
h     0.85667673     0.69821952     0.81473067
h     0.14332320     0.30178038     0.18526934
h     0.71525768     0.49711302     0.70657656
h     0.28474224     0.50288688     0.29342345
n     0.68569643     0.42755916     0.92669750
n     0.31430349     0.57244075     0.07330251
c     0.91535611     0.29962804     0.84808621
c     0.08464381     0.70037187     0.15191380
c     0.65908029     0.31275167     0.00261207
c     0.34091963     0.68724823     0.99738794
c     0.87945800     0.18643348     0.92817512
c     0.12054193     0.81356643     0.07182489
h     0.02055064     0.29562756     0.78757059
h     0.97944929     0.70437235     0.21242943
n     0.75423275     0.19109774     0.00553115
n     0.24576717     0.80890217     0.99446887
n     0.53385114     0.32005168     0.07957052
n     0.46614878     0.67994822     0.92042950
h     0.95580601     0.08951522     0.93143874
h     0.04419391     0.91048468     0.06856127
h     0.45818964     0.40930286     0.07786577
h     0.54181029     0.59069705     0.92213425
h     0.53560729     0.25502738     0.14596723
h     0.46439264     0.74497253     0.85403278
h     0.73249612     0.64534088     0.56490004
h     0.26750380     0.35465903     0.43509998
c     0.72598885     0.72740061     0.50181365
c     0.27401108     0.27259929     0.49818637
c     0.75533685     0.92001117     0.53462993
c     0.24466307     0.07998873     0.46537008
c     0.68891696     0.63966123     0.38848126
c     0.31108297     0.36033868     0.61151875
c     0.74512968     0.03048635     0.45653290
c     0.25487025     0.96951356     0.54346712
h     0.78638343     0.98742032     0.62330764
h     0.21361650     0.01257959     0.37669238
c     0.68095361     0.74758408     0.30942317
c     0.31904632     0.25241583     0.69057684
h     0.66620160     0.48912130     0.36195374
h     0.33379833     0.51087861     0.63804627
c     0.78293147     0.23865268     0.49773811
c     0.21706845     0.76134723     0.50226190
c     0.70561319     0.94048480     0.34204507
c     0.29438673     0.05951511     0.65795494
h     0.65138287     0.68249420     0.22058013
h     0.34861705     0.31750571     0.77941988
h     0.88169077     0.33243723     0.44701381
h     0.11830916     0.66756268     0.55298620
h     0.85473846     0.28643469     0.58426609
h     0.14526147     0.71356522     0.41573393
h     0.64140524     0.25943162     0.49465409
h     0.35859468     0.74056829     0.50534592
c     0.68525127     0.04401482     0.25279983
c     0.31474866     0.95598508     0.74720019
o     0.61367723     0.16776049     0.26694040
o     0.38632270     0.83223942     0.73305962
o     0.74830700     0.98977177     0.15726787
o     0.25169293     0.01022814     0.84273215
h     0.73748227     0.07167120     0.09717459
h     0.26251765     0.92832870     0.90282542

K_POINTS automatic
2 2 2 1 1 1

CELL_PARAMETERS cubic
   13.664147000000    -0.103457000000    -0.079616000000
   -5.560511000000    13.405694000000    -0.013600000000
   -0.751013000000    -4.646222000000    22.581566000000
