&control
 title='crystal',
 prefix='crystal',
 pseudo_dir='.',
 calculation='vc-relax',
/
&system
 ibrav=0,
 celldm(1)=1.0,
 nat=   132,
 ntyp=  4,
 ecutwfc=60.0,
 ecutrho=600.0,
 xdm=.true.,
 xdm_a1=0.4073,
 xdm_a2=2.4150,
/
&electrons
 conv_thr = 1d-8,
/
&ions
/
&cell
/
ATOMIC_SPECIES
h      1.007940 h.UPF
c     12.010700 c.UPF
n     14.006700 n.UPF
o     15.999400 o.UPF

ATOMIC_POSITIONS crystal
c     0.86193443     0.94530759     0.70079935
c     0.13806553     0.05469240     0.29920067
c     0.13806519     0.44530763     0.79920095
c     0.86193477     0.55469237     0.20079907
c     0.73244482     0.94750344     0.91386660
c     0.26755514     0.05249656     0.08613341
c     0.26755777     0.44750207     0.58613298
c     0.73244219     0.55249793     0.41386703
h     0.02113334     0.96067205     0.64977152
h     0.97886662     0.03932794     0.35022850
h     0.97886692     0.46067184     0.85022831
h     0.02113304     0.53932815     0.14977170
h     0.79437178     0.97297080     0.63834930
h     0.20562818     0.02702919     0.36165072
h     0.20562811     0.47297060     0.86165082
h     0.79437185     0.52702940     0.13834919
h     0.86863591     0.90216729     0.64817553
h     0.13136406     0.09783270     0.35182448
h     0.13136392     0.40216703     0.85182452
h     0.86863605     0.59783296     0.14817550
n     0.75546513     0.99319916     0.99973780
n     0.24453484     0.00680084     0.00026222
n     0.24453477     0.49319969     0.50026074
n     0.75546519     0.50680030     0.49973928
c     0.59272969     0.90409293     0.02201068
c     0.40727027     0.09590707     0.97798933
c     0.40726904     0.40409377     0.47798926
c     0.59273092     0.59590623     0.52201075
c     0.64323434     0.99588671     0.19386514
c     0.35676562     0.00411328     0.80613488
c     0.35676688     0.49588553     0.30613568
c     0.64323309     0.50411446     0.69386433
c     0.48694839     0.90976765     0.21938706
c     0.51305157     0.09023235     0.78061296
c     0.51305275     0.40976651     0.28061486
c     0.48694722     0.59023348     0.71938516
h     0.57029057     0.86742801     0.95402140
h     0.42970940     0.13257199     0.04597862
h     0.42970991     0.36742755     0.54597931
h     0.57029006     0.63257245     0.45402071
n     0.51039343     0.95433060     0.30756705
n     0.48960653     0.04566940     0.69243296
n     0.48960556     0.45433160     0.19243221
n     0.51039440     0.54566839     0.80756780
n     0.66570597     0.04218362     0.27665015
n     0.33429399     0.95781638     0.72334987
n     0.33429323     0.54218395     0.22334924
n     0.66570673     0.45781604     0.77665077
h     0.37802349     0.87693558     0.31237360
h     0.62197647     0.12306442     0.68762642
h     0.62197678     0.37693563     0.18762673
h     0.37802318     0.62306436     0.81237329
h     0.75035143     0.07592940     0.19161768
h     0.24964854     0.92407059     0.80838234
h     0.24964844     0.57592897     0.30838219
h     0.75035152     0.42407102     0.69161783
h     0.59837053     0.04358528     0.42298393
h     0.40162943     0.95641472     0.57701608
h     0.40162909     0.54358508     0.07701624
h     0.59837088     0.45641492     0.92298377
h     0.89840502     0.04302959     0.87540617
h     0.10159494     0.95697040     0.12459384
h     0.10159507     0.54302943     0.62459393
h     0.89840489     0.45697056     0.37540609
o     0.99484158     0.07407090     0.77286735
o     0.00515838     0.92592909     0.22713267
o     0.00515824     0.57407046     0.72713322
o     0.99484173     0.42592954     0.27286680
c     0.97724406     0.12506812     0.84839284
c     0.02275590     0.87493188     0.15160718
c     0.02275710     0.62506815     0.65160489
c     0.97724286     0.37493184     0.34839512
c     0.10097785     0.16983656     0.70430038
c     0.89902211     0.83016343     0.29569963
c     0.89902208     0.66983595     0.79569945
c     0.10097788     0.33016404     0.20430056
o     0.86941962     0.13491353     0.02208156
o     0.13058034     0.86508646     0.97791845
o     0.13057861     0.63491319     0.47792071
o     0.86942135     0.36508680     0.52207930
c     0.03862368     0.22748807     0.73256431
c     0.96137628     0.77251192     0.26743571
c     0.96137515     0.72748809     0.76743696
c     0.03862482     0.27251190     0.23256306
c     0.28435900     0.15312917     0.53577629
c     0.71564097     0.84687083     0.46422373
c     0.71563886     0.65312938     0.96422598
c     0.28436111     0.34687061     0.03577403
c     0.84121303     0.24895235     0.90467197
c     0.15878693     0.75104764     0.09532805
c     0.15878739     0.74895194     0.59532783
c     0.84121258     0.25104805     0.40467219
c     0.16467212     0.26614314     0.58745258
c     0.83532784     0.73385685     0.41254743
c     0.83532966     0.76614253     0.91254536
c     0.16467030     0.23385746     0.08745465
c     0.40804519     0.19231749     0.39470812
c     0.59195477     0.80768251     0.60529189
c     0.59195652     0.69231652     0.10528956
c     0.40804345     0.30768347     0.89471045
h     0.32846370     0.10853102     0.51744749
h     0.67153626     0.89146897     0.48255252
h     0.67153587     0.60853048     0.98255284
h     0.32846410     0.39146951     0.01744717
h     0.80778273     0.29230199     0.87877432
h     0.19221723     0.70769800     0.12122570
h     0.19221740     0.79230157     0.62122567
h     0.80778256     0.20769842     0.37877434
h     0.70524921     0.22229891     0.93985654
h     0.29475075     0.77770108     0.06014347
h     0.29475081     0.72229854     0.56014352
h     0.70524916     0.27770145     0.43985649
h     0.85594043     0.24923142     0.03096363
h     0.14405953     0.75076857     0.96903639
h     0.14405962     0.74923107     0.46903639
h     0.85594034     0.25076892     0.53096363
c     0.34614836     0.24921608     0.42090405
c     0.65385161     0.75078391     0.57909597
c     0.65384941     0.74921596     0.07909791
c     0.34615055     0.25078403     0.92090211
h     0.11405957     0.31029499     0.60398255
h     0.88594039     0.68970500     0.39601747
h     0.88594011     0.81029468     0.89601773
h     0.11405985     0.18970531     0.10398228
h     0.55029845     0.17852543     0.26562925
h     0.44970152     0.82147456     0.73437077
h     0.44970048     0.67852502     0.23437141
h     0.55029948     0.32147497     0.76562861
h     0.43735321     0.28034945     0.30963301
h     0.56264675     0.71965055     0.69036700
h     0.56264676     0.78034891     0.19036629
h     0.43735320     0.21965109     0.80963372

K_POINTS automatic
2 2 2 1 1 1

CELL_PARAMETERS cubic
   14.089571000000    -0.000002000000    -0.040829000000
   -0.000007000000    44.415316000000    -0.000061000000
    8.065840000000    -0.000019000000    13.210978000000
