&control
 title='crystal',
 prefix='crystal',
 pseudo_dir='.',
 calculation='vc-relax',
/
&system
 ibrav=0,
 celldm(1)=1.0,
 nat=   132,
 ntyp=  4,
 ecutwfc=60.0,
 ecutrho=600.0,
 xdm=.true.,
 xdm_a1=0.4073,
 xdm_a2=2.4150,
/
&electrons
 conv_thr = 1d-8,
/
&ions
/
&cell
/
ATOMIC_SPECIES
h      1.007940 h.UPF
c     12.010700 c.UPF
n     14.006700 n.UPF
o     15.999400 o.UPF

ATOMIC_POSITIONS crystal
c     0.77612454     0.88903881     0.68824454
c     0.22387548     0.11096117     0.31175545
c     0.77612454     0.61096116     0.18824454
c     0.22387548     0.38903882     0.81175545
c     0.71535729     0.05567971     0.66637540
c     0.28464273     0.94432026     0.33362459
c     0.71535729     0.44432025     0.16637540
c     0.28464273     0.55567973     0.83362459
c     0.75889441     0.25187593     0.60572852
c     0.24110561     0.74812405     0.39427147
c     0.75889441     0.24812404     0.10572852
c     0.24110561     0.75187594     0.89427147
c     0.85792352     0.28683258     0.56765573
c     0.14207650     0.71316739     0.43234426
c     0.85792352     0.21316738     0.06765573
c     0.14207650     0.78683259     0.93234426
c     0.91713475     0.12092557     0.58936609
c     0.08286527     0.87907441     0.41063390
c     0.91713475     0.37907440     0.08936609
c     0.08286527     0.62092558     0.91063390
c     0.87603086     0.92342094     0.64877084
c     0.12396916     0.07657904     0.35122915
c     0.87603086     0.57657903     0.14877084
c     0.12396916     0.42342095     0.85122915
c     0.73725035     0.67644554     0.75285691
c     0.26274967     0.32355444     0.24714308
c     0.73725035     0.82355443     0.25285691
c     0.26274967     0.17644555     0.74714308
c     0.60777613     0.03496660     0.70341346
c     0.39222389     0.96503338     0.29658653
c     0.60777613     0.46503337     0.20341346
c     0.39222389     0.53496661     0.79658653
h     0.77420583     0.39192721     0.81109087
h     0.22579419     0.60807277     0.18890912
h     0.77420583     0.10807276     0.31109087
h     0.22579419     0.89192722     0.68890912
h     0.58376279     0.82915727     0.69743806
h     0.41623723     0.17084271     0.30256193
h     0.58376279     0.67084269     0.19743806
h     0.41623723     0.32915728     0.80256193
h     0.57777117     0.18049862     0.67435771
h     0.42222885     0.81950136     0.32564228
h     0.57777117     0.31950135     0.17435771
h     0.42222885     0.68049863     0.82564228
h     0.57717361     0.07718235     0.76881993
h     0.42282641     0.92281762     0.23118006
h     0.57717361     0.42281761     0.26881993
h     0.42282641     0.57718237     0.73118006
h     0.71290281     0.38224080     0.58869960
h     0.28709721     0.61775918     0.41130039
h     0.71290281     0.11775917     0.08869960
h     0.28709721     0.88224081     0.91130039
h     0.88829241     0.44390355     0.52149092
h     0.11170761     0.55609643     0.47850907
h     0.88829241     0.05609642     0.02149092
h     0.11170761     0.94390356     0.97850907
h     0.99475377     0.14371115     0.55947260
h     0.00524625     0.85628883     0.44052739
h     0.99475377     0.35628882     0.05947260
h     0.00524625     0.64371116     0.94052739
h     0.92093357     0.78893925     0.66552982
h     0.07906645     0.21106073     0.33447016
h     0.92093357     0.71106072     0.16552982
h     0.07906645     0.28893926     0.83447016
o     0.80453524     0.53738750     0.76508091
o     0.19546478     0.46261248     0.23491908
o     0.80453524     0.96261247     0.26508091
o     0.19546478     0.03738751     0.73491908
o     0.65043011     0.63557695     0.79191746
o     0.34956991     0.36442303     0.20808253
o     0.65043011     0.86442302     0.29191746
o     0.34956991     0.13557696     0.70808253
c     0.78818561     0.79189862     0.94316369
c     0.21181441     0.20810136     0.05683630
c     0.78818561     0.70810135     0.44316369
c     0.21181441     0.29189863     0.55683630
c     0.69093835     0.74330608     0.98954757
c     0.30906167     0.25669390     0.01045241
c     0.69093835     0.75669389     0.48954757
c     0.30906167     0.24330609     0.51045241
c     0.64923722     0.09527499     0.92750530
c     0.35076280     0.90472499     0.07249469
c     0.64923722     0.40472498     0.42750530
c     0.35076280     0.59527500     0.57249469
c     0.81159603     0.00619229     0.88765535
c     0.18840399     0.99380768     0.11234464
c     0.81159603     0.49380767     0.38765535
c     0.18840399     0.50619231     0.61234464
c     0.91342116     0.08087399     0.83471636
c     0.08657886     0.91912599     0.16528363
c     0.91342116     0.41912598     0.33471636
c     0.08657886     0.58087400     0.66528363
h     0.92703379     0.06546454     0.77043032
h     0.07296623     0.93453543     0.22956967
h     0.92703379     0.43453542     0.27043032
h     0.07296623     0.56546456     0.72956967
h     0.96433407     0.94964952     0.84584121
h     0.03566595     0.05035046     0.15415878
h     0.96433407     0.55035045     0.34584121
h     0.03566595     0.44964953     0.65415878
h     0.92698918     0.29365142     0.84531417
h     0.07301084     0.70634855     0.15468581
h     0.92698918     0.20634854     0.34531417
h     0.07301084     0.79365144     0.65468581
h     0.50967625     0.19954269     0.95449377
h     0.49032377     0.80045728     0.04550622
h     0.50967625     0.30045727     0.45449377
h     0.49032377     0.69954270     0.54550622
h     0.60114488     0.39669075     0.87657660
h     0.39885514     0.60330923     0.12342338
h     0.60114488     0.10330922     0.37657660
h     0.39885514     0.89669076     0.62342338
h     0.66788864     0.57900267     0.03415781
h     0.33211138     0.42099730     0.96584217
h     0.66788864     0.92099729     0.53415781
h     0.33211138     0.07900268     0.46584217
h     0.84286071     0.66734988     0.94997974
h     0.15713931     0.33265009     0.05002025
h     0.84286071     0.83265008     0.44997974
h     0.15713931     0.16734989     0.55002025
n     0.62148013     0.89077451     0.98346997
n     0.37851989     0.10922547     0.01653001
n     0.62148013     0.60922546     0.48346997
n     0.37851989     0.39077452     0.51653001
n     0.74292234     0.15602006     0.87946477
n     0.25707768     0.84397992     0.12053522
n     0.74292234     0.34397991     0.37946477
n     0.25707768     0.65602007     0.62053522
n     0.58111201     0.24571426     0.91984549
n     0.41888801     0.75428572     0.08015449
n     0.58111201     0.25428571     0.41984549
n     0.41888801     0.74571427     0.58015449

K_POINTS automatic
2 2 2 1 1 1

CELL_PARAMETERS cubic
   28.957637000000     0.000000000000    -0.909268000000
    0.000000000000     9.275624000000     0.000000000000
   15.287240000000     0.000000000000    30.623299000000
