&control
 title='crystal',
 prefix='crystal',
 pseudo_dir='.',
 calculation='vc-relax',
/
&system
 ibrav=0,
 celldm(1)=1.0,
 nat=   132,
 ntyp=  4,
 ecutwfc=60.0,
 ecutrho=600.0,
 xdm=.true.,
 xdm_a1=0.4073,
 xdm_a2=2.4150,
/
&electrons
 conv_thr = 1d-8,
/
&ions
/
&cell
/
ATOMIC_SPECIES
h      1.007940 h.UPF
c     12.010700 c.UPF
n     14.006700 n.UPF
o     15.999400 o.UPF

ATOMIC_POSITIONS crystal
c     0.25006589     0.64264732     0.82474838
c     0.74993412     0.35735267     0.17525162
c     0.25006589     0.85735266     0.32474838
c     0.74993412     0.14264732     0.67525162
c     0.35399764     0.65309348     0.81292728
c     0.64600237     0.34690651     0.18707272
c     0.35399764     0.84690649     0.31292728
c     0.64600237     0.15309348     0.68707272
c     0.38860486     0.48066927     0.85262201
c     0.61139515     0.51933072     0.14737799
c     0.38860486     0.01933071     0.35262200
c     0.61139515     0.98066927     0.64737800
c     0.31796957     0.29568622     0.90607539
c     0.68203044     0.70431377     0.09392461
c     0.31796957     0.20431376     0.40607539
c     0.68203044     0.79568622     0.59392461
c     0.21418958     0.28791590     0.91952086
c     0.78581043     0.71208409     0.08047914
c     0.21418957     0.21208407     0.41952085
c     0.78581044     0.78791590     0.58047915
c     0.17740548     0.45728629     0.87970850
c     0.82259453     0.54271370     0.12029150
c     0.17740548     0.04271369     0.37970850
c     0.82259453     0.95728629     0.62029151
c     0.06433505     0.42745440     0.89794536
c     0.93566496     0.57254559     0.10205464
c     0.06433505     0.07254558     0.39794536
c     0.93566497     0.92745440     0.60205464
c     0.22043698     0.82672739     0.77757736
c     0.77956303     0.17327260     0.22242264
c     0.22043697     0.67327259     0.27757735
c     0.77956304     0.32672739     0.72242265
o     0.29653443     0.99359906     0.73062568
o     0.70346558     0.00640093     0.26937432
o     0.29653442     0.50640092     0.23062567
o     0.70346559     0.49359906     0.76937433
o     0.13242502     0.82216349     0.78097931
o     0.86757499     0.17783650     0.21902069
o     0.13242501     0.67783649     0.28097930
o     0.86757500     0.32216349     0.71902070
c     0.43158649     0.48859453     0.60459461
c     0.56841352     0.51140546     0.39540539
c     0.43158648     0.01140545     0.10459461
c     0.56841353     0.98859453     0.89540539
c     0.32970937     0.51441941     0.60221829
c     0.67029064     0.48558058     0.39778171
c     0.32970936     0.98558057     0.10221828
c     0.67029065     0.01441941     0.89778172
n     0.25289533     0.33810093     0.64638489
n     0.74710468     0.66189906     0.35361511
n     0.25289533     0.16189905     0.14638488
n     0.74710468     0.83810093     0.85361512
c     0.31368378     0.70867503     0.55669292
c     0.68631623     0.29132496     0.44330708
c     0.31368378     0.79132495     0.05669292
c     0.68631623     0.20867503     0.94330708
c     0.15924052     0.35583770     0.64527061
c     0.84075949     0.64416229     0.35472939
c     0.15924051     0.14416228     0.14527060
c     0.84075950     0.85583770     0.85472940
c     0.21617799     0.70535042     0.55773722
c     0.78382203     0.29464957     0.44226278
c     0.21617798     0.79464956     0.05773722
c     0.78382203     0.20535042     0.94226278
n     0.08199032     0.18694042     0.69147422
n     0.91800969     0.81305957     0.30852578
n     0.08199032     0.31305956     0.19147422
n     0.91800970     0.68694042     0.80852578
n     0.13924592     0.53180922     0.60025263
n     0.86075409     0.46819077     0.39974737
n     0.13924592     0.96819076     0.10025262
n     0.86075410     0.03180922     0.89974738
h     0.40775798     0.80135527     0.77204496
h     0.59224204     0.19864472     0.22795504
h     0.40775797     0.69864470     0.27204496
h     0.59224204     0.30135527     0.72795504
h     0.46975328     0.49262027     0.84200114
h     0.53024673     0.50737972     0.15799886
h     0.46975328     0.00737971     0.34200114
h     0.53024673     0.99262027     0.65799886
h     0.34282683     0.15725055     0.93788401
h     0.65717318     0.84274944     0.06211599
h     0.34282683     0.34274943     0.43788400
h     0.65717318     0.65725055     0.56211600
h     0.15931958     0.14625698     0.96255704
h     0.84068043     0.85374301     0.03744296
h     0.15931957     0.35374300     0.46255703
h     0.84068044     0.64625698     0.53744297
h     0.02388736     0.28727454     0.94663758
h     0.97611265     0.71272545     0.05336242
h     0.02388736     0.21272544     0.44663758
h     0.97611266     0.78727454     0.55336242
h     0.02300360     0.62661308     0.91152051
h     0.97699641     0.37338691     0.08847949
h     0.02300360     0.87338690     0.41152050
h     0.97699641     0.12661308     0.58847950
h     0.05656912     0.33832364     0.84991921
h     0.94343089     0.66167635     0.15008079
h     0.05656912     0.16167633     0.34991921
h     0.94343089     0.83832364     0.65008079
h     0.27258053     0.12381173     0.69856112
h     0.72741948     0.87618826     0.30143888
h     0.27258053     0.37618825     0.19856112
h     0.72741948     0.62381173     0.80143888
h     0.49046206     0.63220779     0.56467486
h     0.50953795     0.36779220     0.43532514
h     0.49046206     0.86779219     0.06467485
h     0.50953796     0.13220779     0.93532515
h     0.42017681     0.52961925     0.66248462
h     0.57982320     0.47038074     0.33751538
h     0.42017681     0.97038073     0.16248461
h     0.57982320     0.02961925     0.83751539
h     0.46239251     0.27700100     0.58984852
h     0.53760750     0.72299898     0.41015148
h     0.46239250     0.22299897     0.08984851
h     0.53760751     0.77700100     0.91015149
h     0.37447911     0.85451509     0.52128776
h     0.62552090     0.14548490     0.47871224
h     0.37447911     0.64548489     0.02128776
h     0.62552090     0.35451509     0.97871224
h     0.20016462     0.84781540     0.52169237
h     0.79983539     0.15218459     0.47830763
h     0.20016462     0.65218458     0.02169237
h     0.79983539     0.34781540     0.97830763
h     0.09514009     0.04701436     0.72501451
h     0.90485992     0.95298563     0.27498549
h     0.09514009     0.45298562     0.22501451
h     0.90485992     0.54701436     0.77498549
h     0.01171766     0.19582856     0.69127730
h     0.98828235     0.80417142     0.30872270
h     0.01171765     0.30417141     0.19127730
h     0.98828236     0.69582856     0.80872270

K_POINTS automatic
2 2 2 1 1 1

CELL_PARAMETERS cubic
   27.245668000000     0.000000000000    -0.374338000000
    0.000000000000     9.123694000000     0.000000000000
   18.031681000000     0.000000000000    32.777376000000
