&control
 title='crystal',
 prefix='crystal',
 pseudo_dir='.',
 calculation='vc-relax',
/
&system
 ibrav=0,
 celldm(1)=1.0,
 nat=    66,
 ntyp=  4,
 ecutwfc=60.0,
 ecutrho=600.0,
 xdm=.true.,
 xdm_a1=0.4073,
 xdm_a2=2.4150,
/
&electrons
 conv_thr = 1d-8,
/
&ions
/
&cell
/
ATOMIC_SPECIES
h      1.007940 h.UPF
c     12.010700 c.UPF
n     14.006700 n.UPF
o     15.999400 o.UPF

ATOMIC_POSITIONS crystal
c     0.23778958     0.01443721     0.87331074
c     0.76221043     0.98556280     0.12668925
c     0.14586522     0.22338336     0.90142149
c     0.85413480     0.77661665     0.09857850
c     0.10776526     0.29274682     0.82223981
c     0.89223476     0.70725319     0.17776018
c     0.16073899     0.15062971     0.71209292
c     0.83926102     0.84937030     0.28790707
c     0.25258658     0.94345647     0.68336623
c     0.74741344     0.05654354     0.31663376
c     0.29410889     0.87055328     0.76184552
c     0.70589112     0.12944673     0.23815447
c     0.39608724     0.64637580     0.72313295
c     0.60391278     0.35362421     0.27686704
c     0.27205220     0.95151007     0.96300777
c     0.72794782     0.04848994     0.03699222
o     0.20705302     0.10444542     0.06132422
o     0.79294699     0.89555459     0.93867577
o     0.35340504     0.77174096     0.94718928
o     0.64659498     0.22825905     0.05281071
c     0.12621295     0.40721032     0.32911951
c     0.87378707     0.59278969     0.67088048
c     0.20809199     0.19920673     0.32846091
c     0.79190803     0.80079328     0.67153908
n     0.25826187     0.02390026     0.22838062
n     0.74173815     0.97609975     0.77161937
c     0.23284942     0.18440125     0.42680900
c     0.76715060     0.81559876     0.57319099
c     0.33227837     0.83170655     0.22497910
c     0.66772165     0.16829347     0.77502089
c     0.30535503     0.97925411     0.41437795
c     0.69464499     0.02074590     0.58562204
n     0.38316129     0.66012104     0.12420989
n     0.61683872     0.33987898     0.87579010
n     0.35476546     0.80237211     0.31594638
n     0.64523455     0.19762790     0.68405361
h     0.10492701     0.33177823     0.98748151
h     0.89507301     0.66822179     0.01251848
h     0.03709431     0.45594973     0.84639755
h     0.96290570     0.54405028     0.15360244
h     0.13068324     0.20071898     0.64837183
h     0.86931677     0.79928104     0.35162816
h     0.29536862     0.83274378     0.59736474
h     0.70463140     0.16725623     0.40263525
h     0.42981468     0.57100092     0.63495652
h     0.57018534     0.42899909     0.36504347
h     0.52288179     0.66312533     0.77803339
h     0.47711823     0.33687469     0.22196660
h     0.31896365     0.52627254     0.72665918
h     0.68103637     0.47372747     0.27334081
h     0.23255955     0.05501126     0.12326790
h     0.76744046     0.94498876     0.87673209
h     0.07539449     0.53074448     0.41184852
h     0.92460553     0.46925553     0.58815147
h     0.22637301     0.48776763     0.31269235
h     0.77362701     0.51223238     0.68730764
h     0.01362761     0.36301798     0.26092998
h     0.98637241     0.63698203     0.73907001
h     0.19489382     0.32535963     0.50869706
h     0.80510619     0.67464039     0.49130293
h     0.32455550     0.95604107     0.48779313
h     0.67544451     0.04395894     0.51220686
h     0.37636642     0.68518242     0.05666776
h     0.62363359     0.31481759     0.94333223
h     0.45122483     0.52064490     0.12015883
h     0.54877519     0.47935511     0.87984116

K_POINTS automatic
2 2 2 1 1 1

CELL_PARAMETERS cubic
   14.003473000000    -0.616499000000     0.913076000000
    2.208810000000    12.966393000000     0.172470000000
   -5.913294000000   -13.172478000000    21.650440000000
