&control
 title='crystal',
 prefix='crystal',
 pseudo_dir='.',
 calculation='vc-relax',
/
&system
 ibrav=0,
 celldm(1)=1.0,
 nat=   264,
 ntyp=  4,
 ecutwfc=60.0,
 ecutrho=600.0,
 xdm=.true.,
 xdm_a1=0.4073,
 xdm_a2=2.4150,
/
&electrons
 conv_thr = 1d-8,
/
&ions
/
&cell
/
ATOMIC_SPECIES
h      1.007940 h.UPF
c     12.010700 c.UPF
n     14.006700 n.UPF
o     15.999400 o.UPF

ATOMIC_POSITIONS crystal
n     0.21468351     0.91624562     0.46257436
n     0.78531647     0.08375433     0.53742564
n     0.71468351     0.91624560     0.03742564
n     0.28531647     0.08375435     0.96257437
n     0.78531766     0.41624559     0.03742552
n     0.21468233     0.58375436     0.96257448
n     0.28531766     0.41624558     0.46257448
n     0.71468233     0.58375437     0.53742552
c     0.13517047     0.86855013     0.49373782
c     0.86482952     0.13144981     0.50626219
c     0.63517047     0.86855012     0.00626218
c     0.36482952     0.13144983     0.99373782
c     0.86482993     0.36855040     0.00626211
c     0.13517006     0.63144955     0.99373789
c     0.36482993     0.36855038     0.49373789
c     0.63517006     0.63144957     0.50626211
c     0.16402119     0.82754424     0.53858550
c     0.83597879     0.17245571     0.46141450
c     0.66402119     0.82754422     0.96141450
c     0.33597879     0.17245573     0.03858551
c     0.83597977     0.32754461     0.96141477
c     0.16402022     0.67245534     0.03858523
c     0.33597977     0.32754459     0.53858523
c     0.66402022     0.67245536     0.46141478
c     0.28274271     0.83453464     0.54997904
c     0.71725727     0.16546531     0.45002097
c     0.78274271     0.83453462     0.95002096
c     0.21725727     0.16546533     0.04997904
c     0.71725681     0.33453485     0.95002095
c     0.28274318     0.66546510     0.04997905
c     0.21725681     0.33453483     0.54997905
c     0.78274318     0.66546512     0.45002095
n     0.36392374     0.88256395     0.51928328
n     0.63607624     0.11743600     0.48071672
n     0.86392374     0.88256393     0.98071672
n     0.13607624     0.11743601     0.01928329
n     0.63607777     0.38256338     0.98071638
n     0.36392221     0.61743657     0.01928362
n     0.13607777     0.38256337     0.51928362
n     0.86392221     0.61743658     0.48071639
c     0.32816743     0.92371430     0.47637610
c     0.67183255     0.07628565     0.52362390
c     0.82816743     0.92371428     0.02362390
c     0.17183255     0.07628567     0.97637610
c     0.67183074     0.42371481     0.02362395
c     0.32816925     0.57628514     0.97637606
c     0.17183074     0.42371480     0.47637605
c     0.82816925     0.57628515     0.52362395
h     0.09733009     0.78883260     0.56312235
h     0.90266990     0.21116735     0.43687765
h     0.59733009     0.78883258     0.93687765
h     0.40266990     0.21116737     0.06312235
h     0.90267087     0.28883246     0.93687761
h     0.09732911     0.71116749     0.06312239
h     0.40267087     0.28883244     0.56312239
h     0.59732911     0.71116751     0.43687761
n     0.40884248     0.97459076     0.44569248
n     0.59115750     0.02540919     0.55430752
n     0.90884248     0.97459074     0.05430752
n     0.09115750     0.02540920     0.94569248
n     0.59115773     0.47458979     0.05430695
n     0.40884225     0.52541015     0.94569305
n     0.09115773     0.47458978     0.44569305
n     0.90884225     0.52541017     0.55430695
h     0.48944096     0.01729335     0.45739770
h     0.51055902     0.98270659     0.54260230
h     0.98944096     0.01729334     0.04260230
h     0.01055902     0.98270661     0.95739770
h     0.51055898     0.51729314     0.04260228
h     0.48944100     0.48270681     0.95739772
h     0.01055898     0.51729312     0.45739772
h     0.98944100     0.48270682     0.54260228
h     0.38014694     0.01259487     0.41370826
h     0.61985304     0.98740508     0.58629175
h     0.88014694     0.01259486     0.08629174
h     0.11985304     0.98740509     0.91370826
h     0.61985322     0.51259411     0.08629186
h     0.38014676     0.48740584     0.91370814
h     0.11985322     0.51259409     0.41370814
h     0.88014676     0.48740586     0.58629186
c     0.32613236     0.79003983     0.59689943
c     0.67386763     0.20996012     0.40310057
c     0.82613236     0.79003982     0.90310057
c     0.17386763     0.20996013     0.09689943
c     0.67386924     0.29003873     0.90310046
c     0.32613074     0.70996122     0.09689954
c     0.17386924     0.29003872     0.59689954
c     0.82613074     0.70996123     0.40310047
h     0.36599422     0.91414642     0.61243691
h     0.63400576     0.08585352     0.38756309
h     0.86599422     0.91414641     0.88756309
h     0.13400576     0.08585354     0.11243691
h     0.63400633     0.41414527     0.88756291
h     0.36599365     0.58585468     0.11243710
h     0.13400633     0.41414525     0.61243709
h     0.86599365     0.58585470     0.38756291
h     0.25560197     0.74171861     0.61906275
h     0.74439801     0.25828134     0.38093725
h     0.75560197     0.74171859     0.88093725
h     0.24439801     0.25828135     0.11906275
h     0.74439874     0.24171713     0.88093741
h     0.25560124     0.75828282     0.11906259
h     0.24439874     0.24171712     0.61906259
h     0.75560124     0.75828283     0.38093741
h     0.39454393     0.68286607     0.59545370
h     0.60545606     0.31713387     0.40454630
h     0.89454393     0.68286606     0.90454630
h     0.10545606     0.31713389     0.09545371
h     0.60545696     0.18286487     0.90454651
h     0.39454302     0.81713508     0.09545349
h     0.10545696     0.18286486     0.59545349
h     0.89454302     0.81713509     0.40454651
h     0.04486049     0.86100525     0.48196946
h     0.95513949     0.13899470     0.51803054
h     0.54486049     0.86100524     0.01803054
h     0.45513949     0.13899471     0.98196946
h     0.95513948     0.36100575     0.01803055
h     0.04486050     0.63899420     0.98196945
h     0.45513948     0.36100574     0.48196945
h     0.54486050     0.63899421     0.51803055
o     0.31528697     0.04698886     0.35749672
o     0.68471301     0.95301109     0.64250329
o     0.81528697     0.04698884     0.14250328
o     0.18471301     0.95301110     0.85749672
o     0.68472122     0.54698585     0.14250386
o     0.31527876     0.45301410     0.85749614
o     0.18472122     0.54698583     0.35749614
o     0.81527876     0.45301412     0.64250387
c     0.20857254     0.04928095     0.35062019
c     0.79142744     0.95071900     0.64937981
c     0.70857254     0.04928093     0.14937981
c     0.29142744     0.95071901     0.85062019
c     0.79141890     0.54927868     0.14937897
c     0.20858109     0.45072126     0.85062103
c     0.29141890     0.54927867     0.35062103
c     0.70858109     0.45072128     0.64937898
o     0.13014926     0.00615180     0.38219916
o     0.86985072     0.99384815     0.61780084
o     0.63014926     0.00615179     0.11780084
o     0.36985072     0.99384816     0.88219916
o     0.86985218     0.50615204     0.11780080
o     0.13014780     0.49384791     0.88219920
o     0.36985218     0.50615203     0.38219920
o     0.63014780     0.49384792     0.61780080
h     0.17106595     0.97105942     0.41289578
h     0.82893403     0.02894053     0.58710423
h     0.67106595     0.97105940     0.08710422
h     0.32893403     0.02894055     0.91289578
h     0.82893383     0.47105934     0.08710394
h     0.17106615     0.52894061     0.91289606
h     0.32893383     0.47105933     0.41289606
h     0.67106615     0.52894062     0.58710394
c     0.15938885     0.09938705     0.30516212
c     0.84061113     0.90061290     0.69483788
c     0.65938885     0.09938704     0.19483788
c     0.34061113     0.90061291     0.80516212
c     0.84061229     0.59938675     0.19483778
c     0.15938769     0.40061319     0.80516222
c     0.34061229     0.59938674     0.30516222
c     0.65938769     0.40061321     0.69483778
c     0.23125851     0.06398401     0.26747512
c     0.76874147     0.93601594     0.73252488
c     0.73125851     0.06398400     0.23252488
c     0.26874147     0.93601595     0.76747512
c     0.76874119     0.56398313     0.23252492
c     0.23125879     0.43601682     0.76747508
c     0.26874119     0.56398312     0.26747508
c     0.73125879     0.43601683     0.73252493
c     0.19438701     0.10634925     0.22354891
c     0.80561297     0.89365069     0.77645109
c     0.69438701     0.10634924     0.27645109
c     0.30561297     0.89365071     0.72354891
c     0.80561314     0.60634953     0.27645095
c     0.19438684     0.39365041     0.72354906
c     0.30561314     0.60634952     0.22354905
c     0.69438684     0.39365043     0.77645095
c     0.08553415     0.18950877     0.21700961
c     0.91446583     0.81049118     0.78299039
c     0.58553415     0.18950875     0.28299039
c     0.41446583     0.81049120     0.71700962
c     0.91446512     0.68950890     0.28299025
c     0.08553486     0.31049105     0.71700975
c     0.41446512     0.68950888     0.21700975
c     0.58553486     0.31049107     0.78299025
c     0.01472858     0.22778991     0.25440751
c     0.98527140     0.77221004     0.74559250
c     0.51472858     0.22778990     0.24559249
c     0.48527140     0.77221005     0.75440751
c     0.98527149     0.72778998     0.24559203
c     0.01472849     0.27220997     0.75440797
c     0.48527149     0.72778997     0.25440797
c     0.51472849     0.27220998     0.74559203
c     0.04845430     0.18204526     0.29886971
c     0.95154568     0.81795469     0.70113029
c     0.54845430     0.18204525     0.20113029
c     0.45154568     0.81795470     0.79886971
c     0.95154559     0.68204460     0.20113041
c     0.04845440     0.31795535     0.79886960
c     0.45154559     0.68204458     0.29886959
c     0.54845440     0.31795536     0.70113041
h     0.31630589     0.00082273     0.27329477
h     0.68369409     0.99917722     0.72670523
h     0.81630589     0.00082272     0.22670523
h     0.18369409     0.99917723     0.77329477
h     0.68369468     0.50082170     0.22670515
h     0.31630530     0.49917825     0.77329485
h     0.18369468     0.50082168     0.27329485
h     0.81630530     0.49917826     0.72670516
h     0.25079838     0.07399674     0.19479228
h     0.74920160     0.92600321     0.80520772
h     0.75079838     0.07399672     0.30520772
h     0.24920160     0.92600322     0.69479228
h     0.74920175     0.57399739     0.30520756
h     0.25079823     0.42600256     0.69479244
h     0.24920175     0.57399738     0.19479244
h     0.75079823     0.42600257     0.80520757
h     0.05381992     0.22383864     0.18306687
h     0.94618007     0.77616130     0.81693313
h     0.55381992     0.22383863     0.31693313
h     0.44618007     0.77616132     0.68306687
h     0.94617981     0.72383996     0.31693301
h     0.05382017     0.27615999     0.68306699
h     0.44617981     0.72383995     0.18306699
h     0.55382017     0.27616000     0.81693301
h     0.93057484     0.29465205     0.24902916
h     0.06942515     0.70534789     0.75097084
h     0.43057484     0.29465204     0.25097084
h     0.56942515     0.70534791     0.74902916
h     0.06942480     0.79465221     0.25097060
h     0.93057519     0.20534773     0.74902940
h     0.56942480     0.79465220     0.24902940
h     0.43057519     0.20534775     0.75097060
c     0.96620100     0.22716715     0.33723043
c     0.03379899     0.77283279     0.66276957
c     0.46620100     0.22716714     0.16276957
c     0.53379899     0.77283281     0.83723043
c     0.03379832     0.72716604     0.16276917
c     0.96620166     0.27283391     0.83723083
c     0.53379832     0.72716603     0.33723083
c     0.46620166     0.27283392     0.66276917
h     0.89491967     0.31462867     0.32450463
h     0.10508032     0.68537128     0.67549537
h     0.39491967     0.31462865     0.17549537
h     0.60508032     0.68537129     0.82450463
h     0.10508043     0.81462770     0.17549522
h     0.89491955     0.18537225     0.82450478
h     0.60508043     0.81462769     0.32450478
h     0.39491955     0.18537226     0.67549523
h     0.92908231     0.09941025     0.35194287
h     0.07091767     0.90058970     0.64805714
h     0.42908231     0.09941024     0.14805713
h     0.57091767     0.90058971     0.85194287
h     0.07091779     0.59940880     0.14805704
h     0.92908220     0.40059114     0.85194296
h     0.57091779     0.59940879     0.35194296
h     0.42908220     0.40059116     0.64805704
h     0.01114892     0.30054845     0.36487035
h     0.98885107     0.69945150     0.63512965
h     0.51114892     0.30054844     0.13512965
h     0.48885107     0.69945151     0.86487035
h     0.98885120     0.80054678     0.13512954
h     0.01114878     0.19945317     0.86487047
h     0.48885120     0.80054676     0.36487046
h     0.51114878     0.19945318     0.63512954

K_POINTS automatic
2 2 2 1 1 1

CELL_PARAMETERS cubic
   21.621132000000     0.000019000000     0.000000000000
    0.000012000000    13.542804000000     0.000000000000
    0.000000000000     0.000000000000    55.467880000000
