&control
 title='crystal',
 prefix='crystal',
 pseudo_dir='.',
 calculation='vc-relax',
/
&system
 ibrav=0,
 celldm(1)=1.0,
 nat=   132,
 ntyp=  4,
 ecutwfc=60.0,
 ecutrho=600.0,
 xdm=.true.,
 xdm_a1=0.4073,
 xdm_a2=2.4150,
/
&electrons
 conv_thr = 1d-8,
/
&ions
/
&cell
/
ATOMIC_SPECIES
h      1.007940 h.UPF
c     12.010700 c.UPF
n     14.006700 n.UPF
o     15.999400 o.UPF

ATOMIC_POSITIONS crystal
c     0.08090263     0.23809866     0.88340216
c     0.91909735     0.76190135     0.11659778
c     0.58090262     0.26190135     0.88340215
c     0.41909735     0.73809866     0.11659778
c     0.07052340     0.18138692     0.72650860
c     0.92947657     0.81861309     0.27349135
c     0.57052340     0.31861308     0.72650858
c     0.42947657     0.68138693     0.27349135
c     0.98131991     0.16597341     0.53241327
c     0.01868006     0.83402660     0.46758668
c     0.48131991     0.33402660     0.53241325
c     0.51868007     0.66597341     0.46758668
c     0.90250388     0.20463907     0.49419882
c     0.09749610     0.79536094     0.50580112
c     0.40250387     0.29536093     0.49419881
c     0.59749610     0.70463908     0.50580112
c     0.91181147     0.26043829     0.64980571
c     0.08818851     0.73956172     0.35019423
c     0.41181147     0.23956172     0.64980570
c     0.58818851     0.76043829     0.35019423
c     0.00018996     0.27627757     0.84099896
c     0.99981002     0.72372244     0.15900099
c     0.50018995     0.22372243     0.84099895
c     0.49981002     0.77627758     0.15900099
c     0.15141892     0.13692985     0.75467471
c     0.84858105     0.86307016     0.24532524
c     0.65141892     0.36307015     0.75467470
c     0.34858106     0.63692986     0.24532524
o     0.12518318     0.08535205     0.60353926
o     0.87481679     0.91464796     0.39646069
o     0.62518318     0.41464796     0.60353925
o     0.37481679     0.58535205     0.39646069
o     0.23487290     0.14659962     0.90122018
o     0.76512708     0.85340039     0.09877976
o     0.73487290     0.35340038     0.90122017
o     0.26512708     0.64659963     0.09877976
h     0.18541412     0.05659276     0.60180654
h     0.81458586     0.94340724     0.39819340
h     0.68541411     0.44340724     0.60180653
h     0.31458586     0.55659277     0.39819340
h     0.83466594     0.19150835     0.34048158
h     0.16533403     0.80849166     0.65951837
h     0.33466594     0.30849166     0.34048156
h     0.66533403     0.69150835     0.65951837
h     0.85107930     0.29164627     0.62538134
h     0.14892068     0.70835374     0.37461861
h     0.35107929     0.20835373     0.62538132
h     0.64892068     0.79164628     0.37461861
h     0.00668128     0.31956456     0.96703251
h     0.99331870     0.68043545     0.03296743
h     0.50668127     0.18043544     0.96703250
h     0.49331870     0.81956457     0.03296743
h     0.97550729     0.12277336     0.40835697
h     0.02449268     0.87722665     0.59164298
h     0.47550729     0.37722664     0.40835695
h     0.52449269     0.62277337     0.59164298
c     0.17354025     0.25968311     0.08820382
c     0.82645973     0.74031690     0.91179612
c     0.67354024     0.24031689     0.08820381
c     0.32645973     0.75968312     0.91179612
h     0.20033636     0.22890954     0.29554939
h     0.79966362     0.77109047     0.70445056
h     0.70033635     0.27109047     0.29554938
h     0.29966362     0.72890954     0.70445056
h     0.23228960     0.26324656     0.92730566
h     0.76771038     0.73675345     0.07269429
h     0.73228959     0.23675344     0.92730564
h     0.26771038     0.76324657     0.07269429
h     0.16153991     0.30341100     0.19880540
h     0.83846007     0.69658901     0.80119455
h     0.66153991     0.19658900     0.19880538
h     0.33846007     0.80341101     0.80119455
n     0.25962241     0.00566607     0.56071017
n     0.74037757     0.99433394     0.43928978
n     0.75962240     0.49433393     0.56071016
n     0.24037757     0.50566608     0.43928978
c     0.35338800     0.00446009     0.71888664
c     0.64661197     0.99553992     0.28111330
c     0.85338800     0.49553992     0.71888663
c     0.14661198     0.50446009     0.28111330
n     0.41586567     0.95842591     0.69174779
n     0.58413431     0.04157410     0.30825216
n     0.91586566     0.54157410     0.69174777
n     0.08413431     0.45842591     0.30825216
c     0.38074076     0.91285175     0.49679027
c     0.61925922     0.08714826     0.50320967
c     0.88074075     0.58714825     0.49679026
c     0.11925922     0.41285176     0.50320967
c     0.28560990     0.91031684     0.32755320
c     0.71439008     0.08968317     0.67244675
c     0.78560989     0.58968317     0.32755319
c     0.21439008     0.41031684     0.67244675
c     0.22576511     0.95907230     0.36596904
c     0.77423486     0.04092771     0.63403090
c     0.72576511     0.54092771     0.36596903
c     0.27423487     0.45907230     0.63403090
n     0.38604269     0.05125633     0.91174038
n     0.61395729     0.94874368     0.08825957
n     0.88604268     0.44874368     0.91174036
n     0.11395729     0.55125633     0.08825957
h     0.45464342     0.04910841     0.05259438
h     0.54535655     0.95089160     0.94740557
h     0.95464342     0.45089159     0.05259436
h     0.04535656     0.54910842     0.94740557
h     0.33884028     0.08554033     0.93856979
h     0.66115969     0.91445968     0.06143015
h     0.83884028     0.41445968     0.93856978
h     0.16115970     0.58554033     0.06143015
h     0.25927379     0.87250796     0.16987933
h     0.74072619     0.12749204     0.83012062
h     0.75927378     0.62749204     0.16987931
h     0.24072619     0.37250797     0.83012062
h     0.43122930     0.87617125     0.47387173
h     0.56877068     0.12382876     0.52612822
h     0.93122929     0.62382875     0.47387171
h     0.06877068     0.37617126     0.52612822
c     0.12256723     0.96203298     0.19367677
c     0.87743274     0.03796703     0.80632318
c     0.62256723     0.53796702     0.19367675
c     0.37743275     0.46203299     0.80632318
h     0.07166496     0.96691222     0.38324511
h     0.92833502     0.03308779     0.61675484
h     0.57166495     0.53308778     0.38324509
h     0.42833502     0.46691223     0.61675484
h     0.11199856     0.00088586     0.02377065
h     0.88800142     0.99911415     0.97622930
h     0.61199856     0.49911414     0.02377063
h     0.38800142     0.50088587     0.97622930
h     0.10335454     0.92165655     0.04477677
h     0.89664544     0.07834346     0.95522318
h     0.60335454     0.57834346     0.04477676
h     0.39664544     0.42165655     0.95522318

K_POINTS automatic
2 2 2 1 1 1

CELL_PARAMETERS cubic
   26.137915000000     0.000000000000    -0.057897000000
    0.000000000000    42.471537000000     0.000000000000
   -0.985162000000     0.000000000000     7.349740000000
