&control
 title='crystal',
 prefix='crystal',
 pseudo_dir='.',
 calculation='vc-relax',
/
&system
 ibrav=0,
 celldm(1)=1.0,
 nat=   132,
 ntyp=  4,
 ecutwfc=60.0,
 ecutrho=600.0,
 xdm=.true.,
 xdm_a1=0.4073,
 xdm_a2=2.4150,
/
&electrons
 conv_thr = 1d-8,
/
&ions
/
&cell
/
ATOMIC_SPECIES
h      1.007940 h.UPF
c     12.010700 c.UPF
n     14.006700 n.UPF
o     15.999400 o.UPF

ATOMIC_POSITIONS crystal
c     0.73804340     0.24036220     0.18891892
c     0.26195657     0.75963779     0.81108106
c     0.73804340     0.25963779     0.68891891
c     0.26195657     0.74036220     0.31108106
c     0.96387375     0.19939158     0.15337238
c     0.03612622     0.80060841     0.84662760
c     0.96387375     0.30060842     0.65337238
c     0.03612623     0.69939158     0.34662760
c     0.07380199     0.20994116     0.05907477
c     0.92619797     0.79005883     0.94092520
c     0.07380199     0.29005884     0.55907477
c     0.92619798     0.70994116     0.44092520
c     0.96386189     0.25871332     0.99893226
c     0.03613808     0.74128667     0.00106771
c     0.96386189     0.24128668     0.49893226
c     0.03613808     0.75871332     0.50106772
c     0.73684731     0.29682184     0.03277657
c     0.26315266     0.70317815     0.96722340
c     0.73684731     0.20317815     0.53277657
c     0.26315267     0.79682184     0.46722340
c     0.62789145     0.28713209     0.12624728
c     0.37210852     0.71286790     0.87375269
c     0.62789145     0.21286790     0.62624728
c     0.37210853     0.78713209     0.37375269
c     0.09053329     0.14407194     0.21261577
c     0.90946667     0.85592806     0.78738421
c     0.09053329     0.35592806     0.71261577
c     0.90946668     0.64407194     0.28738421
o     0.26902622     0.09707296     0.16391092
o     0.73097374     0.90292703     0.83608905
o     0.26902623     0.40292703     0.66391092
o     0.73097375     0.59707296     0.33608905
o     0.03404932     0.14160169     0.29872079
o     0.96595065     0.85839830     0.70127919
o     0.03404932     0.35839831     0.79872078
o     0.96595065     0.64160169     0.20127919
h     0.36158784     0.06144446     0.20766284
h     0.63841213     0.93855553     0.79233714
h     0.36158784     0.43855554     0.70766283
h     0.63841214     0.56144446     0.29233714
h     0.05269367     0.26762046     0.92649619
h     0.94730630     0.73237954     0.07350378
h     0.05269367     0.23237954     0.42649619
h     0.94730630     0.76762046     0.57350378
h     0.64630665     0.33487737     0.98684853
h     0.35369332     0.66512262     0.01315144
h     0.64630665     0.16512262     0.48684853
h     0.35369333     0.83487737     0.51315145
h     0.45107805     0.31682070     0.15235759
h     0.54892192     0.68317930     0.84764239
h     0.45107805     0.18317930     0.65235758
h     0.54892193     0.81682070     0.34764239
h     0.25014332     0.17956951     0.03411964
h     0.74985665     0.82043048     0.96588033
h     0.25014332     0.32043049     0.53411964
h     0.74985665     0.67956951     0.46588033
c     0.60997462     0.23758783     0.28919202
c     0.39002535     0.76241216     0.71080795
c     0.60997462     0.26241217     0.78919202
c     0.39002536     0.73758783     0.21080796
h     0.57602473     0.17239692     0.31483634
h     0.42397523     0.82760307     0.68516363
h     0.57602473     0.32760308     0.81483634
h     0.42397524     0.67239692     0.18516364
h     0.72169544     0.26732674     0.33486435
h     0.27830453     0.73267325     0.66513562
h     0.72169544     0.23267326     0.83486435
h     0.27830454     0.76732674     0.16513562
h     0.43378659     0.27119125     0.29747126
h     0.56621338     0.72880874     0.70252871
h     0.43378659     0.22880875     0.79747126
h     0.56621339     0.77119125     0.20252871
n     0.53848156     0.00708488     0.25728904
n     0.46151841     0.99291512     0.74271093
n     0.53848156     0.49291512     0.75728904
n     0.46151842     0.50708488     0.24271094
c     0.52549331     0.00494141     0.35125739
c     0.47450666     0.99505858     0.64874258
c     0.52549331     0.49505859     0.85125739
c     0.47450666     0.50494141     0.14874259
n     0.69740464     0.96719681     0.39289745
n     0.30259533     0.03280318     0.60710253
n     0.69740464     0.53280319     0.89289744
n     0.30259533     0.46719681     0.10710253
c     0.88488943     0.92953527     0.33690400
c     0.11511054     0.07046473     0.66309598
c     0.88488943     0.57046473     0.83690399
c     0.11511055     0.42953527     0.16309598
c     0.90944646     0.92725061     0.24025216
c     0.09055351     0.07274939     0.75974781
c     0.90944646     0.57274939     0.74025216
c     0.09055351     0.42725061     0.25974782
c     0.72901835     0.96863463     0.20208675
c     0.27098162     0.03136536     0.79791322
c     0.72901835     0.53136537     0.70208675
c     0.27098163     0.46863463     0.29791323
n     0.33304319     0.04239861     0.40556041
n     0.66695678     0.95760138     0.59443956
n     0.33304319     0.45760138     0.90556041
n     0.66695679     0.54239861     0.09443957
h     0.31765726     0.03994379     0.47726724
h     0.68234271     0.96005620     0.52273273
h     0.31765726     0.46005621     0.97726724
h     0.68234271     0.53994379     0.02273273
h     0.20776922     0.07415056     0.37473244
h     0.79223075     0.92584943     0.62526753
h     0.20776922     0.42584943     0.87473244
h     0.79223076     0.57415056     0.12526754
h     0.06469915     0.89614560     0.19654341
h     0.93530081     0.10385439     0.80345657
h     0.06469916     0.60385440     0.69654340
h     0.93530082     0.39614560     0.30345657
h     0.02160407     0.89956019     0.37105119
h     0.97839590     0.10043980     0.62894878
h     0.02160407     0.60043981     0.87105119
h     0.97839591     0.39956019     0.12894878
c     0.73809870     0.97372624     0.09916468
c     0.26190126     0.02627375     0.90083529
c     0.73809871     0.52627375     0.59916468
c     0.26190127     0.47372624     0.40083530
h     0.56836036     0.94855852     0.08103899
h     0.43163961     0.05144148     0.91896099
h     0.56836036     0.55144148     0.58103898
h     0.43163961     0.44855852     0.41896099
h     0.75291656     0.04057913     0.07654836
h     0.24708340     0.95942086     0.92345162
h     0.75291657     0.45942087     0.57654835
h     0.24708341     0.54057913     0.42345162
h     0.89450895     0.93826199     0.06058217
h     0.10549102     0.06173801     0.93941781
h     0.89450895     0.56173801     0.56058216
h     0.10549103     0.43826199     0.43941781

K_POINTS automatic
2 2 2 1 1 1

CELL_PARAMETERS cubic
   10.467718000000     0.000000000000    -0.218432000000
    0.000000000000    29.650804000000     0.000000000000
    5.799324000000     0.000000000000    26.981199000000
