&control
 title='crystal',
 prefix='crystal',
 pseudo_dir='.',
 calculation='vc-relax',
/
&system
 ibrav=0,
 celldm(1)=1.0,
 nat=   132,
 ntyp=  4,
 ecutwfc=60.0,
 ecutrho=600.0,
 xdm=.true.,
 xdm_a1=0.4073,
 xdm_a2=2.4150,
/
&electrons
 conv_thr = 1d-8,
/
&ions
/
&cell
/
ATOMIC_SPECIES
h      1.007940 h.UPF
c     12.010700 c.UPF
n     14.006700 n.UPF
o     15.999400 o.UPF

ATOMIC_POSITIONS crystal
o     0.68741506     0.02431972     0.32461285
o     0.31258492     0.97568029     0.67538715
o     0.31257859     0.52431881     0.17537491
o     0.68742139     0.47568120     0.82462509
o     0.72933278     0.96771320     0.53902148
o     0.27066719     0.03228681     0.46097852
o     0.27066713     0.46771356     0.96097572
o     0.72933285     0.53228645     0.03902428
c     0.14431181     0.13999337     0.93941280
c     0.85568817     0.86000664     0.06058720
c     0.85568788     0.63999462     0.56059091
c     0.14431210     0.36000539     0.43940909
c     0.89300755     0.06086170     0.63946557
c     0.10699243     0.93913830     0.36053443
c     0.10699174     0.56086051     0.86052832
c     0.89300824     0.43913949     0.13947168
c     0.06154371     0.15493327     0.76129737
c     0.93845627     0.84506674     0.23870263
c     0.93845542     0.65493215     0.73869864
c     0.06154456     0.34506786     0.26130136
c     0.10516864     0.08493092     0.96988111
c     0.89483134     0.91506908     0.03011889
c     0.89483178     0.58492966     0.53011679
c     0.10516820     0.41507035     0.46988321
c     0.97980406     0.04609409     0.82038551
c     0.02019592     0.95390591     0.17961449
c     0.02019734     0.54609554     0.67961671
c     0.97980264     0.45390446     0.32038329
c     0.93608293     0.11650923     0.60855775
c     0.06391705     0.88349078     0.39144225
c     0.06391718     0.61651038     0.89144407
c     0.93608279     0.38348963     0.10855593
c     0.76098236     0.01656905     0.48647128
c     0.23901762     0.98343096     0.51352872
c     0.23902187     0.51656968     0.01354063
c     0.76097811     0.48343033     0.98645937
c     0.85942488     0.13651074     0.42369364
c     0.14057509     0.86348927     0.57630636
c     0.14057491     0.63651018     0.07630554
c     0.85942507     0.36348983     0.92369446
n     0.69797601     0.16031767     0.01042789
n     0.30202397     0.83968234     0.98957211
n     0.30202481     0.66031873     0.48957471
n     0.69797517     0.33968128     0.51042529
n     0.47820458     0.11737714     0.70238497
n     0.52179539     0.88262286     0.29761503
n     0.52179697     0.61737597     0.79761611
n     0.47820300     0.38262404     0.20238389
n     0.59650047     0.06449078     0.95950728
n     0.40349951     0.93550923     0.04049272
n     0.40351305     0.56448267     0.54050453
n     0.59648693     0.43551734     0.45949547
c     0.57167923     0.21644079     0.74370821
c     0.42832075     0.78355922     0.25629179
c     0.42832147     0.71644241     0.75629535
c     0.57167851     0.28355760     0.24370465
c     0.59091485     0.11516482     0.89049217
c     0.40908513     0.88483518     0.10950783
c     0.40908057     0.61517080     0.60950934
c     0.59091941     0.38482921     0.39049066
c     0.46745116     0.16764633     0.62931920
c     0.53254882     0.83235367     0.37068080
c     0.53254818     0.66764602     0.87067954
c     0.46745180     0.33235398     0.12932046
c     0.68626677     0.20961129     0.93426511
c     0.31373320     0.79038871     0.06573489
c     0.31373467     0.70960770     0.56573202
c     0.68626531     0.29039231     0.43426798
c     0.33888586     0.17022912     0.42202095
c     0.66111411     0.82977089     0.57797905
c     0.66111435     0.67022927     0.07798000
c     0.33888563     0.32977073     0.92202000
h     0.94904390     0.00297237     0.84236113
h     0.05095607     0.99702764     0.15763887
h     0.05095693     0.50297186     0.65763789
h     0.94904305     0.49702815     0.34236211
h     0.24020339     0.17125733     0.05413766
h     0.75979659     0.82874267     0.94586234
h     0.75979606     0.67125732     0.44586242
h     0.24020391     0.32874268     0.55413758
h     0.64054359     0.93648283     0.43037524
h     0.35945639     0.06351718     0.56962476
h     0.35945729     0.43648256     0.06962509
h     0.64054269     0.56351745     0.93037491
h     0.09961663     0.19755175     0.73982124
h     0.90038335     0.80244826     0.26017876
h     0.90038275     0.69755205     0.76017930
h     0.09961723     0.30244795     0.23982070
h     0.17295255     0.07217987     0.10924739
h     0.82704743     0.92782013     0.89075261
h     0.82704805     0.57218010     0.39075298
h     0.17295193     0.42781991     0.60924702
h     0.65995975     0.13248418     0.30394582
h     0.34004023     0.86751583     0.69605418
h     0.34003973     0.63248375     0.19605383
h     0.65996025     0.36751626     0.80394617
h     0.91293705     0.18109595     0.43532849
h     0.08706293     0.81890406     0.56467151
h     0.08706307     0.68109560     0.06467182
h     0.91293690     0.31890441     0.93532818
h     0.94694677     0.11150289     0.38353835
h     0.05305320     0.88849711     0.61646165
h     0.05305258     0.61150253     0.11646116
h     0.94694739     0.38849747     0.88353884
h     0.56636952     0.25737342     0.68673524
h     0.43363046     0.74262659     0.31326475
h     0.43363166     0.75737256     0.81326431
h     0.56636832     0.24262745     0.18673569
h     0.77363245     0.24585850     0.03207280
h     0.22636753     0.75414151     0.96792720
h     0.22636692     0.74585864     0.46792619
h     0.77363306     0.25414137     0.53207381
h     0.25939619     0.12924068     0.35115604
h     0.74060379     0.87075933     0.64884396
h     0.74060393     0.62924084     0.14884445
h     0.25939604     0.37075917     0.85115555
h     0.18863058     0.20157768     0.34915722
h     0.81136940     0.79842233     0.65084278
h     0.81136897     0.70157790     0.15084229
h     0.18863101     0.29842210     0.84915771
h     0.46822264     0.18398115     0.40447192
h     0.53177733     0.81601886     0.59552808
h     0.53177732     0.68398129     0.09552804
h     0.46822266     0.31601872     0.90447196
h     0.65981272     0.06202423     0.09393759
h     0.34018725     0.93797578     0.90606241
h     0.34018480     0.56202439     0.40605732
h     0.65981518     0.43797562     0.59394268
h     0.50140014     0.03092280     0.86696797
h     0.49859984     0.96907720     0.13303203
h     0.49859237     0.53092569     0.63302433
h     0.50140760     0.46907431     0.36697567

K_POINTS automatic
2 2 2 1 1 1

CELL_PARAMETERS cubic
   13.603221000000    -0.000014000000    -0.147671000000
   -0.000035000000    44.346933000000     0.000045000000
  -11.523267000000     0.000026000000    13.367207000000
