%nprocs=4
%mem=4GB
#p pbepbe aug-cc-pvtz output=wfx scf=(conver=6) int=(grid=ultrafine)

title

0 1
c -2.541727545937401 0.490415981297795 0.937657645301695
c -1.580959633925448 0.248959406795117 -0.048110608973280
c -1.929384350026438 -0.539294596230491 -1.157835716596647
c -3.205139422002108 -1.079670970120345 -1.271807087929936
c -4.166262373026102 -0.839788142846329 -0.274167350526524
c -3.828408108182523 -0.049504476469116 0.835824584545126
c -0.205427925216692 0.893410790202994 0.025424920483421
n 0.823046538584198 0.054227417576561 -0.546963863427134
c 1.744352986771982 -0.121801561346439 0.335537482401351
c 1.370326334956588 0.547656201726675 1.650503967690892
o 0.156711490855268 1.131942880420141 1.423355002850495
c -0.216175296784924 2.285569953767788 -0.686500510117741
c 2.983702193906532 -0.867531580401951 0.087923681910745
c 3.316076401738672 -1.228725303471158 -1.235223956479103
c 4.484130020251670 -1.938573600501888 -1.497936212154944
c 5.339554337019656 -2.299901603057595 -0.447299191861402
c 5.019185728498564 -1.942931731059194 0.865687201231369
c 3.850317360893950 -1.227717257797804 1.138301821453396
o 1.939974459100238 0.595568763011824 2.711990571128533
c 1.132153620756749 2.934809994096512 -0.749970102031512
c 1.705992295318896 3.701273608487143 0.173989144130917
o -5.389941871189642 -1.417159604564368 -0.474050139043106
c -6.397602010850563 -1.203217297771092 0.519978513776664
f 1.814922432848230 2.632760231197302 -1.895802775716860
h -0.607027293315188 2.133199843890340 -1.697809419979057
h -1.187184517943205 -0.735319432753386 -1.926681639647225
h -3.477252916896047 -1.696833597451433 -2.124538483786817
h -4.549834532268260 0.148437192768342 1.622349281904880
h -2.286608305499995 1.093351035075823 1.804762772918216
h 3.605935119636017 -0.946431679077389 2.156969175357589
h 5.681478170564594 -2.220044308993703 1.683247040921400
h 6.253274438960037 -2.853743100752888 -0.654856664859816
h 4.734103860338305 -2.208409333665793 -2.522055578078987
h 2.649447804582868 -0.936042721800404 -2.041835919279583
h -7.279375053613346 -1.746174388408459 0.169359989000939
h -6.633510997753063 -0.132753630869575 0.620406300387834
h -6.079773843430323 -1.597894823760909 1.497037574581240
h 1.166124393968448 3.924182400307440 1.088515129477330
h 2.707720918918412 4.097480777811350 0.034842124762776
h -0.916934910608694 2.916218264738486 -0.130218705727076

i12e.wfx

