%nprocs=4
%mem=4GB
#p pbepbe aug-cc-pvtz output=wfx scf=(conver=6) int=(grid=ultrafine)

title

0 1
c -0.082877963085743 3.828488984459228 -0.104839152542639
c 0.185411073928903 2.862208431817619 -1.313863225170125
c 0.270612638131838 1.504979269653787 -0.564565773548612
c 0.020047106890368 1.976653058993313 0.925880356097161
c 1.209106597657704 2.758725385632178 1.439005935950709
c 1.165190753441265 3.919728998733695 0.772872056967349
c -0.980233684688482 -2.405640472638779 0.357917333079380
c -1.330465356477672 -3.145552000326110 -0.777396394883703
c -0.502851260917629 -4.177098536512443 -1.237706713029999
c 0.685563682587422 -4.471197608684534 -0.563452069559343
c 1.042383145949294 -3.733740063440843 0.573487195272709
c 0.214759275788736 -2.706260082333660 1.030694837671352
o -0.965942182637023 3.032628176598933 0.700435609648422
cl -0.832206337682143 5.401572280180117 -0.552168608148213
c -0.596565879743396 0.764493700693367 1.617484810350718
n -1.165326445442030 0.026823740305071 0.613688188947901
c -0.932193332987057 0.544405188891970 -0.740050558196916
c -1.836608100752565 -1.249650477814404 0.836769557799136
o -0.566482312710469 0.492879849132347 2.810003871053924
c 1.587154855789768 0.753018251513175 -0.765269117775837
h -0.662638015075662 2.908221868640240 -2.003879842392489
h 1.106122334521826 3.116957454838460 -1.847618551636941
h 1.966952783493186 2.381497354100611 2.116200462346896
h 1.871602006686558 4.741740988549657 0.753435287626818
h -2.257640220580675 -2.914247709877775 -1.301249289115846
h -0.785508845225430 -4.747067584123603 -2.120828369603523
h 1.330591783524572 -5.272521675522290 -0.918604713854512
h 1.963586458733510 -3.965159127747615 1.105131215768840
h 0.484872126206532 -2.129172997776824 1.913611031977978
h -0.701887051376886 -0.290043926892881 -1.414649798440955
h -1.823857824679456 1.073277206177402 -1.104252096638777
h -2.801534469985289 -1.243534790224498 0.311415534195675
h -2.023118968002639 -1.321052753615088 1.914433423010152
h 2.441128633778522 1.392669978589163 -0.514389347576559
h 1.684538188599193 0.437307900514164 -1.812046765194420
h 1.618314806341034 -0.146338260483211 -0.135636320455696

i21e.wfx

