%nprocs=4
%mem=4GB
#p pbepbe aug-cc-pvtz output=wfx scf=(conver=6) int=(grid=ultrafine)

title

1 1
c -0.184877629219145 -0.331534327861281 0.058245291278665
c 0.511801781751593 0.866367754686036 -0.525953268429567
c 0.403302616893069 -1.671307371848736 -0.241549840455412
c -0.011404549549400 2.236884011302919 0.026187309099305
c 0.477076437915719 0.818984155864000 -2.076937102969614
c -0.442413506047330 2.083895175068650 1.496028549801883
h 0.851682138793794 2.914842623553908 -0.001232592536450
c -1.121751250967565 2.903217669033829 -0.801805483889877
c -1.614114288617088 1.102202744373348 1.619232306139151
h 0.397986772332889 1.715997789946061 2.100111502869332
h -0.731656045125000 3.060623868427528 1.899987323693388
c -1.265374526396039 -0.241078155495090 0.954045374308681
h -1.860320877217387 0.908028984403672 2.669115910096927
h -2.507996118005950 1.555448142541121 1.172978345881672
h -1.303336593956059 -1.114861850831907 1.622104874954068
si -2.983293851996203 -0.968604004750405 -0.050410160966475
c 1.868989695300738 -1.722702901260181 0.282426469053644
c 2.703652897883067 -0.604943545558249 -0.355834930327395
c 2.028764061748853 0.745526701127759 -0.072257162963044
h -0.185364922200167 -2.468927692320461 0.217963393885497
h 0.427229086040171 -1.836246548209003 -1.326812968767141
h 1.861025982370680 -1.612514534879707 1.374549224074073
h 2.284527973870106 -2.709704503823678 0.049794641205967
c 4.150071153871246 -0.605716353415375 0.123111458107929
h 2.718231803833428 -0.769176376110744 -1.440988386445999
h 2.080030122817323 0.955030603982844 1.002147443303909
h 2.559589208818613 1.552134970329464 -0.591058775731659
c -4.209399755518745 -0.927989226057246 1.384924259560856
c -3.474659984189238 0.176064663945140 -1.463845622514403
c -2.650091967208349 -2.724342459029563 -0.650516367312819
h -5.178309469816972 -1.302671654632163 1.023729728768989
h -3.887098553070449 -1.572315666556851 2.212955464047682
h -4.363266796466231 0.086811875865939 1.769115289033017
h -4.332069500752144 -0.290782209301628 -1.972027531490641
h -3.800146733640748 1.162890820092445 -1.116456124104611
h -2.680829458753408 0.305331849406682 -2.208226000886683
h -3.599994696737198 -3.124128831567635 -1.035989858851400
h -1.919795270089860 -2.767707962701136 -1.466525603692113
h -2.318128990189556 -3.390572795242137 0.155468893108618
h 1.016578608055315 1.693253659111484 -2.457592571795885
h 0.962584664690684 -0.079320066273694 -2.465471715912976
h -0.548433429926016 0.858737384903526 -2.456131070752518
h -1.425613974194846 3.837026168888061 -0.313625661988051
h -0.781513911544055 3.149296617266452 -1.812391143696434
h -2.005531677710294 2.266236749821626 -0.891144916594445
c 5.150361944283806 -0.673013570661423 -0.762833093166371
c 4.398630300468112 -0.524417190776443 1.610324753213481
h 6.190782057616323 -0.666117285019943 -0.442525014714789
h 4.958452929839947 -0.739065616096948 -1.833323448699512
h 3.992651246925978 -1.403545668929856 2.131548461049444
h 5.471389749986228 -0.472479545589414 1.822716677641146
h 3.921395092997832 0.360952930858441 2.054653475478975

i24e.wfx

