&control
 title='crystal',
 prefix='crystal',
 pseudo_dir='.',
 calculation='vc-relax',
/
&system
 ibrav=0,
 celldm(1)=1.0,
 nat=    90,
 ntyp=  4,
 ecutwfc=60.0,
 ecutrho=600.0,
 xdm=.true.,
 xdm_a1=0.4073,
 xdm_a2=2.4150,
/
&electrons
 conv_thr = 1d-8,
/
&ions
/
&cell
/
ATOMIC_SPECIES
h      1.007940 h.UPF
c     12.010700 c.UPF
n     14.006700 n.UPF
o     15.999400 o.UPF

ATOMIC_POSITIONS crystal
c     0.35119230     0.99042071     0.03577203
c     0.99042067     0.35119227     0.96422799
c     0.00957351     0.36075732     0.70244114
c     0.36075728     0.00957347     0.29755889
c     0.63924524     0.64880918     0.36910294
c     0.64880915     0.63924521     0.63089708
c     0.51695073     0.03357257     0.10089664
c     0.03357253     0.51695070     0.89910338
c     0.96643855     0.48337279     0.76755751
c     0.48337275     0.96643852     0.23244252
c     0.51662040     0.48305276     0.43423134
c     0.48305273     0.51662037     0.56576869
c     0.19962977     0.04879832     0.87779150
c     0.04879829     0.19962974     0.12220852
c     0.95117677     0.15082435     0.54443991
c     0.15082432     0.95117674     0.45556011
c     0.84918074     0.80035392     0.21109693
c     0.80035388     0.84918071     0.78890309
c     0.50946776     0.24871946     0.90756277
c     0.24871942     0.50946773     0.09243725
c     0.75129182     0.26074786     0.57421792
c     0.26074782     0.75129179     0.42578210
c     0.73927956     0.49054007     0.24091179
c     0.49054004     0.73927953     0.75908823
o     0.21708288     0.85720040     0.06703239
o     0.85720036     0.21708285     0.93296763
o     0.14278028     0.35985657     0.73370774
o     0.35985653     0.14278025     0.26629229
o     0.64013223     0.78291487     0.40034393
o     0.78291483     0.64013220     0.59965609
o     0.59522194     0.95400799     0.03575907
o     0.95400795     0.59522191     0.96424095
o     0.04600023     0.64121142     0.70241067
o     0.64121139     0.04600020     0.29758936
o     0.35878017     0.40475958     0.36908222
o     0.40475954     0.35878014     0.63091780
n     0.35523201     0.09250417     0.94500612
n     0.09250413     0.35523198     0.05499390
n     0.90749246     0.26272079     0.61166545
n     0.26272075     0.90749243     0.38833457
n     0.73728831     0.64476730     0.27833722
n     0.64476727     0.73728828     0.72166281
h     0.60272492     0.17156145     0.10483261
h     0.17156141     0.60272489     0.89516742
h     0.82845057     0.43114032     0.77149713
h     0.43114029     0.82845054     0.22850290
h     0.56883927     0.39728817     0.43817516
h     0.39728814     0.56883924     0.56182486
h     0.70272131     0.04738596     0.00058050
h     0.04738592     0.70272128     0.99941952
h     0.95262253     0.65534167     0.66725859
h     0.65534164     0.95262250     0.33274143
h     0.34465808     0.29727012     0.33390708
h     0.29727008     0.34465805     0.66609294
h     0.19438804     0.98286033     0.79205003
h     0.98286029     0.19438801     0.20794999
h     0.01711526     0.21153567     0.45869883
h     0.21153563     0.01711523     0.54130119
h     0.78845574     0.80556955     0.12536259
h     0.80556952     0.78845571     0.87463743
h     0.08987686     0.96369442     0.93349178
h     0.96369439     0.08987683     0.06650824
h     0.03627234     0.12616496     0.60013095
h     0.12616492     0.03627231     0.39986907
h     0.87385876     0.91012112     0.26678741
h     0.91012108     0.87385873     0.73321261
h     0.19523479     0.16447635     0.85680003
h     0.16447631     0.19523476     0.14320000
h     0.83548907     0.03074730     0.52344165
h     0.03074727     0.83548904     0.47655837
h     0.96924905     0.80474992     0.19008971
h     0.80474989     0.96924902     0.80991032
h     0.62053004     0.23185044     0.90769384
h     0.23185040     0.62053001     0.09230619
h     0.76817578     0.38868791     0.57435419
h     0.38868787     0.76817575     0.42564584
h     0.61134488     0.37945791     0.24105694
h     0.37945787     0.61134485     0.75894308
h     0.49039634     0.28124954     0.81453761
h     0.28124951     0.49039630     0.18546242
h     0.71875962     0.20914835     0.48119183
h     0.20914831     0.71875959     0.51880819
h     0.79087665     0.50959715     0.14788748
h     0.50959711     0.79087662     0.85211255
h     0.53433976     0.35525132     0.96839523
h     0.35525129     0.53433973     0.03160479
h     0.64475326     0.17907698     0.63504737
h     0.17907694     0.64475322     0.36495265
h     0.82095932     0.46571001     0.30175215
h     0.46570997     0.82095929     0.69824787

K_POINTS automatic
2 2 2 1 1 1

CELL_PARAMETERS cubic
   17.155586000000    -0.000709000000     0.000024000000
   -8.578407000000    14.856819000000    -0.000024000000
    0.000010000000    -0.000005000000    20.635769000000
