&control
 title='crystal',
 prefix='crystal',
 pseudo_dir='.',
 calculation='vc-relax',
/
&system
 ibrav=0,
 celldm(1)=1.0,
 nat=   132,
 ntyp=  4,
 ecutwfc=60.0,
 ecutrho=600.0,
 xdm=.true.,
 xdm_a1=0.4073,
 xdm_a2=2.4150,
/
&electrons
 conv_thr = 1d-8,
/
&ions
/
&cell
/
ATOMIC_SPECIES
h      1.007940 h.UPF
c     12.010700 c.UPF
n     14.006700 n.UPF
o     15.999400 o.UPF

ATOMIC_POSITIONS crystal
c     0.58405764     0.59178584     0.15086311
c     0.41594240     0.40821416     0.84913688
c     0.91594621     0.09177849     0.34912954
c     0.08405384     0.90822150     0.65087045
c     0.56695438     0.37859071     0.12623733
c     0.43304566     0.62140928     0.87376266
c     0.93304508     0.87858498     0.37375521
c     0.06695496     0.12141502     0.62624477
h     0.47246415     0.36525376     0.06678391
h     0.52753589     0.63474623     0.93321607
h     0.02753388     0.86524403     0.43321084
h     0.97246616     0.13475597     0.56678914
c     0.66060620     0.29274063     0.08868002
c     0.33939385     0.70725936     0.91131996
c     0.83938952     0.79273502     0.41130910
c     0.16061052     0.20726497     0.58869089
h     0.65906712     0.36805201     0.02200145
h     0.34093293     0.63194798     0.97799853
h     0.84092767     0.86804541     0.47798754
h     0.15907238     0.13195458     0.52201245
h     0.63789635     0.14067223     0.06918651
h     0.36210370     0.85932776     0.93081347
h     0.86209719     0.64066557     0.43080276
h     0.13790285     0.35933443     0.56919722
h     0.75574239     0.29977971     0.14616486
h     0.24425765     0.70022029     0.85383513
h     0.74425485     0.79977955     0.35382283
h     0.25574519     0.20022045     0.64617715
c     0.56864665     0.29242026     0.22363931
c     0.43135340     0.70757974     0.77636067
c     0.93135709     0.79241672     0.27635487
c     0.06864295     0.20758327     0.72364511
h     0.66714536     0.27259498     0.27417535
h     0.33285469     0.72740501     0.72582463
h     0.83285935     0.77259021     0.22581719
h     0.16714069     0.22740978     0.77418279
c     0.51637043     0.45480162     0.26770844
c     0.48362961     0.54519838     0.73229154
c     0.98363330     0.95480082     0.23228643
c     0.01636674     0.04519917     0.76771356
h     0.41370094     0.45093394     0.23900299
h     0.58629910     0.54906605     0.76099700
h     0.08630276     0.95093196     0.26099173
h     0.91369728     0.04906803     0.73900825
c     0.57570103     0.46768566     0.38120559
c     0.42429901     0.53231434     0.61879439
c     0.92430188     0.96768818     0.11879084
c     0.07569816     0.03231181     0.88120915
h     0.54705713     0.60405892     0.40441571
h     0.45294291     0.39594107     0.59558428
h     0.95294295     0.10406235     0.09557885
h     0.04705710     0.89593765     0.90442113
h     0.67738519     0.47422901     0.40381080
h     0.32261485     0.52577098     0.59618919
h     0.82261769     0.97422922     0.09618615
h     0.17738236     0.02577077     0.90381383
c     0.54385978     0.29935974     0.43545429
c     0.45614026     0.70064025     0.56454569
c     0.95614465     0.79936503     0.06454313
c     0.04385540     0.20063496     0.93545686
h     0.60013059     0.31151016     0.51581614
h     0.39986945     0.68848984     0.48418385
h     0.89987518     0.81151919     0.98418114
h     0.10012486     0.18848080     0.01581885
h     0.44576473     0.30673555     0.42599800
h     0.55423531     0.69326445     0.57400199
h     0.05424056     0.80673950     0.07400106
h     0.94575948     0.19326049     0.92599892
c     0.56631505     0.09791513     0.40245648
c     0.43368499     0.90208486     0.59754351
c     0.93368854     0.59792018     0.09754090
c     0.06631150     0.40207981     0.90245908
h     0.66139589     0.08508721     0.40514008
h     0.33860416     0.91491278     0.59485990
h     0.83860809     0.58509442     0.09485897
h     0.16139196     0.41490557     0.90514102
h     0.55582353     0.99005524     0.45358695
h     0.44417651     0.00994476     0.54641304
h     0.94417694     0.49006166     0.04641011
h     0.05582310     0.50993833     0.95358987
c     0.50158333     0.09868826     0.21211156
c     0.49841672     0.90131173     0.78788842
c     0.99842369     0.59868612     0.28788623
c     0.00157635     0.40131387     0.71211375
h     0.56177498     0.98631141     0.20123354
h     0.43822507     0.01368858     0.79876644
h     0.93823227     0.48630869     0.29876456
h     0.06176778     0.51369130     0.70123542
c     0.37040068     0.08771369     0.12753453
c     0.62959936     0.91228630     0.87246545
c     0.12960631     0.58770748     0.37246420
c     0.87039374     0.41229251     0.62753578
h     0.32715241     0.23126632     0.11299294
h     0.67284763     0.76873368     0.88700704
h     0.17285151     0.73126109     0.38701010
h     0.82714854     0.26873891     0.61298988
h     0.37471627     0.03412727     0.05832402
h     0.62528377     0.96587272     0.94167597
h     0.12529035     0.53410589     0.44167242
h     0.87470970     0.46589410     0.55832757
c     0.29584325     0.95791603     0.16920225
c     0.70415679     0.04208396     0.83079773
c     0.20416717     0.45792411     0.33079301
c     0.79583288     0.54207589     0.66920698
h     0.19881048     0.00403708     0.14676639
h     0.80118956     0.99596291     0.85323360
h     0.30119782     0.50405501     0.35322824
h     0.69880222     0.49594499     0.64677174
h     0.29556270     0.80509661     0.14867913
h     0.70443734     0.19490338     0.85132085
h     0.20445350     0.30510241     0.35131528
h     0.79554654     0.69489758     0.64868471
c     0.36317320     0.97623419     0.28179076
c     0.63682684     0.02376580     0.71820922
c     0.13683587     0.47624671     0.21820321
c     0.86316417     0.52375328     0.78179678
n     0.47787289     0.05277216     0.30168354
n     0.52212716     0.94722783     0.69831644
n     0.02213267     0.55277350     0.19831375
n     0.97786738     0.44722649     0.80168623
o     0.62178565     0.71775332     0.11094102
o     0.37821440     0.28224667     0.88905896
o     0.87822141     0.21775266     0.38905600
o     0.12177864     0.78224733     0.61094399
o     0.54930934     0.63315399     0.22741424
o     0.45069070     0.36684600     0.77258575
o     0.95069520     0.13315185     0.27258046
o     0.04930484     0.86684815     0.72741952
o     0.32195352     0.92966694     0.34549133
o     0.67804652     0.07033305     0.65450865
o     0.17805507     0.42969250     0.15450429
o     0.82194497     0.57030749     0.84549570

K_POINTS automatic
2 2 2 1 1 1

CELL_PARAMETERS cubic
   22.013062000000     0.000007000000    -0.091815000000
   -0.000003000000    13.089602000000     0.000066000000
  -10.722091000000     0.000129000000    25.333894000000
