&control
 title='crystal',
 prefix='crystal',
 pseudo_dir='.',
 calculation='vc-relax',
/
&system
 ibrav=0,
 celldm(1)=1.0,
 nat=   108,
 ntyp=  5,
 ecutwfc=60.0,
 ecutrho=600.0,
 xdm=.true.,
 xdm_a1=0.4073,
 xdm_a2=2.4150,
/
&electrons
 conv_thr = 1d-8,
/
&ions
/
&cell
/
ATOMIC_SPECIES
h      1.007940 h.UPF
c     12.010700 c.UPF
o     15.999400 o.UPF
s     32.065000 s.UPF
cl    35.453000 cl.UPF

ATOMIC_POSITIONS crystal
s     0.41595256     0.53372421     0.16311460
s     0.58404744     0.46627574     0.83688538
s     0.08407827     0.03364976     0.33688451
s     0.91592172     0.96635019     0.66311547
cl    0.57686245     0.24119820     0.06761809
cl    0.42313755     0.75880175     0.93238190
cl    0.92317135     0.74123246     0.43238073
cl    0.07682865     0.25876749     0.56761925
c     0.25425422     0.21590438     0.15281496
c     0.74574578     0.78409557     0.84718503
c     0.24572639     0.71561318     0.34716421
c     0.75427360     0.28438677     0.65283577
h     0.26378472     0.27453311     0.21551112
h     0.73621527     0.72546684     0.78448886
h     0.23617923     0.77423640     0.28446231
h     0.76382076     0.22576355     0.71553768
c     0.31587640     0.32256139     0.11094003
c     0.68412360     0.67743856     0.88905995
c     0.18414460     0.82240718     0.38905436
c     0.81585539     0.17759277     0.61094562
c     0.51717920     0.31020875     0.20384967
c     0.48282079     0.68979119     0.79615032
c     0.98285422     0.81014907     0.29614764
c     0.01714578     0.18985088     0.70385234
c     0.57579510     0.20077837     0.16432961
c     0.42420489     0.79922158     0.83567037
c     0.92424920     0.70072290     0.33567560
c     0.07575080     0.29927705     0.66432439
c     0.30488179     0.24891269     0.03025751
c     0.69511821     0.75108726     0.96974247
c     0.19517324     0.74886276     0.46975403
c     0.80482675     0.25113719     0.53024595
h     0.35331511     0.33221410     0.99825545
h     0.64668489     0.66778585     0.00174454
h     0.14678122     0.83230276     0.50177207
h     0.85321877     0.16769719     0.49822791
c     0.18090507     0.03215252     0.11284168
c     0.81909492     0.96784743     0.88715831
c     0.31905801     0.53178881     0.38712602
c     0.68094198     0.46821114     0.61287396
h     0.13289891     0.94627570     0.14494757
h     0.86710108     0.05372425     0.85505241
h     0.36704342     0.44583077     0.35501368
h     0.63295657     0.55416918     0.64498630
c     0.23123156     0.06452830     0.99172324
c     0.76876844     0.93547165     0.00827675
c     0.26880339     0.56439269     0.50827563
c     0.73119661     0.43560726     0.49172436
h     0.22448740     0.00327171     0.92961745
h     0.77551259     0.99672824     0.07038254
h     0.27556950     0.50317900     0.57039196
h     0.72443049     0.49682095     0.42960802
c     0.64397078     0.00184007     0.21916245
c     0.35602921     0.99815987     0.78083753
c     0.85607864     0.50177529     0.28085220
c     0.14392135     0.49822465     0.71914778
c     0.16869176     0.95224907     0.03235310
c     0.83130823     0.04775088     0.96764689
c     0.33128953     0.45192644     0.46762595
c     0.66871046     0.54807351     0.53237403
c     0.54806576     0.20449907     0.29088102
c     0.45193424     0.79550087     0.70911896
c     0.95195509     0.70446016     0.20911484
c     0.04804490     0.29553979     0.79088515
h     0.58667302     0.35838791     0.33479016
h     0.41332697     0.64161204     0.66520982
h     0.91332643     0.85836540     0.16521200
h     0.08667356     0.14163455     0.83478798
o     0.44175420     0.70846145     0.10557384
o     0.55824579     0.29153850     0.89442615
o     0.05828074     0.20837868     0.39443663
o     0.94171926     0.79162127     0.60556335
o     0.39379493     0.65079225     0.23359929
o     0.60620507     0.34920769     0.76640070
o     0.10623696     0.15075252     0.26641044
o     0.89376304     0.84924743     0.73358955
o     0.47327618     0.09900269     0.31748746
o     0.52672382     0.90099726     0.68251252
o     0.02673903     0.59900975     0.18249017
o     0.97326096     0.40099020     0.81750981
o     0.62465369     0.00241859     0.29196320
o     0.37534631     0.99758136     0.70803678
o     0.87538527     0.50236404     0.20804529
o     0.12461472     0.49763591     0.79195470
o     0.70356226     0.85561077     0.20326385
o     0.29643773     0.14438917     0.79673613
o     0.79650046     0.35555231     0.29675907
o     0.20349954     0.64444764     0.70324091
c     0.09095543     0.74874663     0.99119639
c     0.90904456     0.25125331     0.00880359
c     0.40898639     0.24827649     0.50875216
c     0.59101360     0.75172346     0.49124782
h     0.05050647     0.67949084     0.03208867
h     0.94949352     0.32050911     0.96791131
h     0.44938228     0.17894403     0.46782959
h     0.55061771     0.82105592     0.53217039
h     0.12618794     0.57729368     0.97206189
h     0.87381206     0.42270627     0.02793809
h     0.37372215     0.07689506     0.52788872
h     0.62627785     0.92310488     0.47211126
h     0.03552362     0.82754538     0.93544583
h     0.96447638     0.17245457     0.06455416
h     0.46446348     0.32695001     0.56449680
h     0.53553651     0.67304994     0.43550318
h     0.44174603     0.94560346     0.28261740
h     0.55825396     0.05439649     0.71738259
h     0.05828872     0.44561804     0.21736242
h     0.94171127     0.55438190     0.78263756

K_POINTS automatic
2 2 2 1 1 1

CELL_PARAMETERS cubic
   26.437581000000     0.000694000000    -0.038422000000
    0.000249000000     9.530335000000     0.000125000000
  -10.422707000000     0.000191000000    30.882188000000
