%nprocs=4
%mem=4GB
#p pbepbe aug-cc-pvtz output=wfx scf=(conver=6) int=(grid=ultrafine)

title

0 1
o 0.000000000000000 0.000000000000000 -0.390328945234281
h -0.762147269008126 0.000000000000000 0.195164472617143
h 0.762147269008126 0.000000000000000 0.195164472617143

h2o.wfx

