%nprocs=4
%mem=4GB
#p pbepbe aug-cc-pvtz output=wfx scf=(conver=6) int=(grid=ultrafine)

title

1 1
o 0.000000000000000 0.000000000000000 0.196663933300297
h -0.472067637048730 0.817645131977382 -0.065554644433431
h -0.472067637048730 -0.817645131977382 -0.065554644433431
h 0.944135274097455 0.000000000000000 -0.065554644433431

h2op.wfx

