%nprocs=4
%mem=4GB
#p pbepbe aug-cc-pvtz output=wfx scf=(conver=6) int=(grid=ultrafine)

title

1 1
cl 0.000000000000000 0.000000000000000 -0.592400489558613
h -0.970966018403131 0.000000000000000 0.296200244779307
h 0.970966018403131 0.000000000000000 0.296200244779307

hclp.wfx

