%nprocs=4
%mem=4GB
#p pbepbe aug-cc-pvtz output=wfx scf=(conver=6) int=(grid=ultrafine)

title

0 1
c 0.663041349624990 0.000000000000000 0.000000000000000
c -0.663041349624990 0.000000000000000 0.000000000000000
h 1.233862343597854 0.921821517915811 0.000000000000000
h 1.233862343597854 -0.921821517915811 0.000000000000000
h -1.233862343597854 -0.921821517915811 0.000000000000000
h -1.233862343597854 0.921821517915811 0.000000000000000

p2.wfx

