&control
 title='crystal',
 prefix='crystal',
 pseudo_dir='..',
 calculation='vc-relax',
 etot_conv_thr=1.0D-5,
/
&system
 ibrav=0,
 celldm(1)=1.0,
 nat=   352,
 ntyp=  4,
 ecutwfc=80.0,
 ecutrho=800.0,
 xdm=.true.,
 xdm_a1=0.6512,
 xdm_a2=1.4633,
/
&electrons
 conv_thr = 1d-8,
/
&ions
/
&cell
/
ATOMIC_SPECIES
h      1.007940 h.UPF
c     12.010700 c.UPF
n     14.006700 n.UPF
o     15.999400 o.UPF

ATOMIC_POSITIONS crystal
o        0.483057579   0.622226644   0.003454215
o        0.516942431   0.377773346   0.996545795
o        0.983057579   0.622226644   0.996545795
o        0.016942431   0.377773356   0.003454215
o        0.016942254   0.622218548   0.503448785
o        0.983057756   0.377781452   0.496551235
o        0.516942264   0.622218538   0.496551235
o        0.483057756   0.377781462   0.503448785
h        0.470041245   0.686121830   0.021254526
h        0.529958765   0.313878160   0.978745484
h        0.970041245   0.686121830   0.978745484
h        0.029958765   0.313878170   0.021254526
h        0.029957180   0.686116028   0.521240596
h        0.970042830   0.313883962   0.478759414
h        0.529957180   0.686116018   0.478759414
h        0.470042830   0.313883972   0.521240596
o        0.596653389   0.701916869   0.915872629
o        0.403346621   0.298083121   0.084127391
o        0.096653389   0.701916859   0.084127391
o        0.903346621   0.298083131   0.915872629
o        0.903349937   0.701915677   0.415849021
o        0.096650073   0.298084313   0.584150999
o        0.403349937   0.701915677   0.584150999
o        0.596650073   0.298084323   0.415849021
o        0.607028202   0.467265488   0.881821186
o        0.392971808   0.532734502   0.118178834
o        0.107028202   0.467265488   0.118178834
o        0.892971808   0.532734512   0.881821186
o        0.892970088   0.467264669   0.381801458
o        0.107029922   0.532735321   0.618198552
o        0.392970088   0.467264659   0.618198552
o        0.607029922   0.532735331   0.381801458
h        0.571201760   0.436039095   0.922746418
h        0.428798250   0.563960895   0.077253592
h        0.071201760   0.436039095   0.077253592
h        0.928798250   0.563960905   0.922746418
h        0.928795882   0.436040208   0.422734415
h        0.071204128   0.563959782   0.577265605
h        0.428795882   0.436040198   0.577265605
h        0.571204128   0.563959792   0.422734415
o        0.698277352   0.569870767   0.786956817
o        0.301722658   0.430129223   0.213043193
o        0.198277352   0.569870757   0.213043193
o        0.801722658   0.430129233   0.786956817
o        0.801722307   0.569871264   0.286936224
o        0.198277703   0.430128726   0.713063786
o        0.301722317   0.569871264   0.713063786
o        0.698277703   0.430128736   0.286936224
n        0.697043070   0.716824064   0.826624555
n        0.302956940   0.283175936   0.173375455
n        0.197043080   0.716824054   0.173375455
n        0.802956940   0.283175946   0.826624555
n        0.802958266   0.716823004   0.326612943
n        0.197041744   0.283176996   0.673387077
n        0.302958276   0.716822994   0.673387077
n        0.697041734   0.283177006   0.326612943
n        0.783807966   0.634853576   0.870290455
n        0.216192044   0.365146424   0.129709555
n        0.283807966   0.634853566   0.129709555
n        0.716192044   0.365146434   0.870290455
n        0.716193572   0.634850348   0.370288344
n        0.283806438   0.365149642   0.629711666
n        0.216193572   0.634850338   0.629711666
n        0.783806438   0.365149662   0.370288344
h        0.807216668   0.690070418   0.896658600
h        0.192783352   0.309929572   0.103341410
h        0.307216668   0.690070408   0.103341410
h        0.692783342   0.309929582   0.896658600
h        0.692785954   0.690068298   0.396663926
h        0.307214056   0.309931702   0.603336094
h        0.192785954   0.690068288   0.603336094
h        0.807214056   0.309931712   0.396663926
h        0.805776897   0.577101971   0.859966218
h        0.194223113   0.422898019   0.140033792
h        0.305776897   0.577101961   0.140033792
h        0.694223113   0.422898029   0.859966218
h        0.694225417   0.577101729   0.359958662
h        0.305774593   0.422898271   0.640041348
h        0.194225427   0.577101719   0.640041348
h        0.805774593   0.422898281   0.359958662
c        0.537352306   0.611279557   0.084539375
c        0.462647704   0.388720433   0.915460635
c        0.037352316   0.611279557   0.915460635
c        0.962647694   0.388720443   0.084539375
c        0.962645560   0.611273507   0.584524053
c        0.037354460   0.388726483   0.415475957
c        0.462645560   0.611273497   0.415475957
c        0.537354450   0.388726493   0.584524053
h        0.537564901   0.546466318   0.137661140
h        0.462435109   0.453533672   0.862338870
h        0.037564911   0.546466318   0.862338870
h        0.962435099   0.453533682   0.137661140
h        0.962429859   0.546458612   0.637640637
h        0.037570151   0.453541378   0.362359373
h        0.462429859   0.546458602   0.362359373
h        0.537570151   0.453541388   0.637640637
h        0.540494769   0.659901204   0.175996185
h        0.459505251   0.340098786   0.824003825
h        0.040494769   0.659901194   0.824003825
h        0.959505241   0.340098796   0.175996185
h        0.959502074   0.659893026   0.675984330
h        0.040497936   0.340106964   0.324015680
h        0.459502074   0.659893016   0.324015680
h        0.540497936   0.340106974   0.675984330
c        0.592049189   0.616866983   0.985477927
c        0.407950821   0.383133017   0.014522083
c        0.092049189   0.616866973   0.014522083
c        0.907950821   0.383133027   0.985477927
c        0.907950845   0.616865519   0.485455830
c        0.092049165   0.383134481   0.514544190
c        0.407950845   0.616865509   0.514544190
c        0.592049165   0.383134491   0.485455830
h        0.631007216   0.604031191   0.058095228
h        0.368992794   0.395968809   0.941904782
h        0.131007216   0.604031181   0.941904782
h        0.868992794   0.395968819   0.058095228
h        0.868991115   0.604032544   0.558068338
h        0.131008895   0.395967446   0.441931672
h        0.368991125   0.604032534   0.441931672
h        0.631008895   0.395967456   0.558068338
c        0.592768152   0.554980348   0.848508765
c        0.407231858   0.445019642   0.151491245
c        0.092768152   0.554980348   0.151491245
c        0.907231858   0.445019652   0.848508765
c        0.907231187   0.554978949   0.348486967
c        0.092768823   0.445021051   0.651513053
c        0.407231187   0.554978939   0.651513053
c        0.592768823   0.445021061   0.348486967
h        0.549536726   0.560941579   0.791156937
h        0.450463284   0.439058411   0.208843083
h        0.049536726   0.560941569   0.208843083
h        0.950463284   0.439058421   0.791156937
h        0.950462691   0.560939343   0.291134919
h        0.049537319   0.439060647   0.708865091
h        0.450462701   0.560939343   0.708865091
h        0.549537319   0.439060657   0.291134919
c        0.638621954   0.597176075   0.744616755
c        0.361378066   0.402823915   0.255383255
c        0.138621954   0.597176075   0.255383255
c        0.861378056   0.402823925   0.744616755
c        0.861377838   0.597176126   0.244594994
c        0.138622172   0.402823874   0.755405016
c        0.361377838   0.597176116   0.755405016
c        0.638622172   0.402823884   0.244594994
h        0.632772324   0.581967320   0.624336218
h        0.367227686   0.418032670   0.375663802
h        0.132772324   0.581967320   0.375663802
h        0.867227686   0.418032680   0.624336218
h        0.867227356   0.581967386   0.124314172
h        0.132772654   0.418032604   0.875685838
h        0.367227356   0.581967376   0.875685838
h        0.632772654   0.418032614   0.124314172
c        0.636879348   0.694918335   0.786568841
c        0.363120662   0.305081655   0.213431169
c        0.136879358   0.694918325   0.213431169
c        0.863120662   0.305081665   0.786568841
c        0.863121309   0.694918286   0.286548918
c        0.136878701   0.305081704   0.713451092
c        0.363121309   0.694918286   0.713451092
c        0.636878701   0.305081714   0.286548918
h        0.618854205   0.738064885   0.698866511
h        0.381145805   0.261935115   0.301133499
h        0.118854205   0.738064875   0.301133499
h        0.881145805   0.261935125   0.698866511
h        0.881145590   0.738065651   0.198846208
h        0.118854420   0.261934349   0.801153802
h        0.381145600   0.738065641   0.801153802
h        0.618854420   0.261934359   0.198846208
c        0.727393902   0.643789990   0.829700095
c        0.272606118   0.356210000   0.170299925
c        0.227393902   0.643789980   0.170299925
c        0.772606108   0.356210010   0.829700095
c        0.772608838   0.643791529   0.329688158
c        0.227391172   0.356208461   0.670311852
c        0.272608838   0.643791529   0.670311852
c        0.727391172   0.356208471   0.329688158
o        0.228842862   0.875040744   0.084321378
o        0.771157148   0.124959246   0.915678632
o        0.728842872   0.875040744   0.915678632
o        0.271157148   0.124959256   0.084321378
o        0.271157343   0.875036559   0.584308079
o        0.728842667   0.124963441   0.415691931
o        0.771157343   0.875036549   0.415691931
o        0.228842667   0.124963451   0.584308079
h        0.217951237   0.812766334   0.118541614
h        0.782048773   0.187233666   0.881458406
h        0.717951237   0.812766324   0.881458406
h        0.282048773   0.187233676   0.118541614
h        0.282050649   0.812764611   0.618538414
h        0.717949361   0.187235379   0.381461596
h        0.782050659   0.812764611   0.381461596
h        0.217949361   0.187235389   0.618538414
o        0.346649125   0.794231117   0.075363387
o        0.653350895   0.205768883   0.924636623
o        0.846649125   0.794231107   0.924636623
o        0.153350885   0.205768893   0.075363387
o        0.153349996   0.794224246   0.575338185
o        0.846650014   0.205775744   0.424661825
o        0.653349996   0.794224246   0.424661825
o        0.346650014   0.205775754   0.575338185
o        0.362451941   0.027023006   0.028874518
o        0.637548069   0.972976984   0.971125492
o        0.862451941   0.027023006   0.971125492
o        0.137548069   0.972976994   0.028874518
o        0.137554030   0.027017562   0.528841451
o        0.862445980   0.972982428   0.471158559
o        0.637554030   0.027017562   0.471158559
o        0.362445980   0.972982438   0.528841451
h        0.328121669   0.067437326   0.051132414
h        0.671878341   0.932562674   0.948867596
h        0.828121669   0.067437316   0.948867596
h        0.171878341   0.932562684   0.051132414
h        0.171882387   0.067433441   0.551109948
h        0.828117623   0.932566559   0.448890062
h        0.671882397   0.067433431   0.448890062
h        0.328117623   0.932566569   0.551109948
o        0.459803929   0.931165637   0.090430211
o        0.540196081   0.068834363   0.909569799
o        0.959803939   0.931165627   0.909569799
o        0.040196081   0.068834373   0.090430211
o        0.040199160   0.931165311   0.590392027
o        0.959800850   0.068834679   0.409607993
o        0.540199170   0.931165311   0.409607993
o        0.459800840   0.068834689   0.590392027
n        0.453012015   0.783312065   0.071853992
n        0.546987995   0.216687925   0.928146018
n        0.953012015   0.783312055   0.928146018
n        0.046987995   0.216687935   0.071853992
n        0.046984402   0.783313854   0.571826638
n        0.953015618   0.216686136   0.428173372
n        0.546984402   0.783313854   0.428173372
n        0.453015608   0.216686146   0.571826638
n        0.531493673   0.859621349   0.954466617
n        0.468506337   0.140378641   0.045533393
n        0.031493673   0.859621349   0.045533393
n        0.968506337   0.140378651   0.954466617
n        0.968502879   0.859620200   0.454425920
n        0.031497131   0.140379790   0.545574090
n        0.468502879   0.859620190   0.545574090
n        0.531497131   0.140379810   0.454425920
h        0.552920362   0.802128297   0.931208407
h        0.447079648   0.197871703   0.068791603
h        0.052920372   0.802128287   0.068791603
h        0.947079648   0.197871713   0.931208407
h        0.947080530   0.802130601   0.431181324
h        0.052919480   0.197869399   0.568818686
h        0.447080530   0.802130591   0.568818686
h        0.552919480   0.197869409   0.431181324
h        0.555793393   0.915882529   0.952234986
h        0.444206617   0.084117461   0.047765034
h        0.055793403   0.915882519   0.047765034
h        0.944206617   0.084117471   0.952234986
h        0.944209213   0.915883123   0.452210060
h        0.055790797   0.084116877   0.547789950
h        0.444209213   0.915883113   0.547789950
h        0.555790797   0.084116887   0.452210060
c        0.266238527   0.870805404   0.953859794
c        0.733761493   0.129194596   0.046140216
c        0.766238527   0.870805394   0.046140216
c        0.233761483   0.129194606   0.953859794
c        0.233764546   0.870792443   0.453841398
c        0.766235464   0.129207557   0.546158612
c        0.733764546   0.870792433   0.546158612
c        0.266235464   0.129207567   0.453841398
h        0.256706698   0.927092188   0.880457800
h        0.743293312   0.072907802   0.119542210
h        0.756706698   0.927092178   0.119542210
h        0.243293312   0.072907812   0.880457800
h        0.243298789   0.927073209   0.380426869
h        0.756701221   0.072926791   0.619573141
h        0.743298789   0.927073199   0.619573141
h        0.256701221   0.072926801   0.380426869
h        0.256861913   0.811899730   0.886704854
h        0.743138097   0.188100270   0.113295156
h        0.756861913   0.811899720   0.113295156
h        0.243138097   0.188100280   0.886704854
h        0.243141461   0.811880803   0.386702196
h        0.756858559   0.188119187   0.613297814
h        0.743141461   0.811880793   0.613297814
h        0.256858549   0.188119197   0.386702196
c        0.331662003   0.872941402   0.993503135
c        0.668338007   0.127058598   0.006496885
c        0.831662003   0.872941392   0.006496885
c        0.168338007   0.127058608   0.993503135
c        0.168340342   0.872932562   0.493476414
c        0.831659668   0.127067438   0.506523596
c        0.668340352   0.872932552   0.506523596
c        0.331659658   0.127067448   0.493476414
h        0.357412671   0.877391528   0.886976661
h        0.642587339   0.122608462   0.113023359
h        0.857412681   0.877391528   0.113023359
h        0.142587339   0.122608472   0.886976661
h        0.142591456   0.877382654   0.386947268
h        0.857408554   0.122617336   0.613052752
h        0.642591456   0.877382644   0.613052752
h        0.357408554   0.122617346   0.386947268
c        0.351330398   0.946384228   0.101499323
c        0.648669612   0.053615762   0.898500687
c        0.851330398   0.946384218   0.898500687
c        0.148669612   0.053615772   0.101499323
c        0.148673115   0.946378116   0.601468364
c        0.851326905   0.053621874   0.398531646
c        0.648673115   0.946378106   0.398531646
c        0.351326895   0.053621884   0.601468364
h        0.317287259   0.953490384   0.190036155
h        0.682712751   0.046509616   0.809963855
h        0.817287259   0.953490374   0.809963855
h        0.182712751   0.046509626   0.190036155
h        0.182716403   0.953483129   0.690005006
h        0.817283607   0.046516861   0.309995004
h        0.682716403   0.953483119   0.309995004
h        0.317283607   0.046516871   0.690005006
c        0.406958968   0.908783237   0.177006833
c        0.593041042   0.091216753   0.822993187
c        0.906958978   0.908783227   0.822993187
c        0.093041042   0.091216763   0.177006833
c        0.093042805   0.908780803   0.676973375
c        0.906957205   0.091219197   0.323026635
c        0.593042805   0.908780793   0.323026635
c        0.406957205   0.091219207   0.676973375
h        0.413217758   0.932137234   0.293051703
h        0.586782262   0.067862756   0.706948307
h        0.913217758   0.932137234   0.706948307
h        0.086782252   0.067862766   0.293051703
h        0.086783050   0.932137667   0.793017538
h        0.913216970   0.067862323   0.206982472
h        0.586783050   0.932137667   0.206982472
h        0.413216960   0.067862333   0.793017538
c        0.401415973   0.808945462   0.158100801
c        0.598584037   0.191054528   0.841899219
c        0.901415983   0.808945452   0.841899219
c        0.098584037   0.191054538   0.158100801
c        0.098582784   0.808943052   0.658075032
c        0.901417226   0.191056938   0.341924988
c        0.598582784   0.808943052   0.341924988
c        0.401417226   0.191056948   0.658075032
h        0.397007821   0.771667924   0.263768617
h        0.602992189   0.228332066   0.736231393
h        0.897007821   0.771667924   0.736231393
h        0.102992189   0.228332076   0.263768617
h        0.102990624   0.771667724   0.763746116
h        0.897009386   0.228332266   0.236253894
h        0.602990624   0.771667724   0.236253894
h        0.397009386   0.228332276   0.763746116
c        0.482097338   0.854708261   0.036630209
c        0.517902672   0.145291729   0.963369801
c        0.982097348   0.854708251   0.963369801
c        0.017902672   0.145291739   0.036630209
c        0.017910207   0.854703343   0.536607855
c        0.982089803   0.145296647   0.463392155
c        0.517910207   0.854703333   0.463392155
c        0.482089803   0.145296657   0.536607855

K_POINTS automatic
4 4 4 1 1 1

CELL_PARAMETERS cubic
  42.694362948  -0.000053028   0.000000000
  -0.000035164  28.951739917   0.000000000
   0.000000000   0.000000000  16.643410079
