&control
 title='crystal',
 prefix='crystal',
 pseudo_dir='.',
 calculation='vc-relax',
/
&system
 ibrav=0,
 celldm(1)=1.0,
 nat=   120,
 ntyp=  5,
 ecutwfc=60.0,
 ecutrho=600.0,
 xdm=.true.,
 xdm_a1=0.4073,
 xdm_a2=2.4150,
/
&electrons
 conv_thr = 1d-8,
/
&ions
/
&cell
/
ATOMIC_SPECIES
h      1.007940 h.UPF
c     12.010700 c.UPF
n     14.006700 n.UPF
o     15.999400 o.UPF
p     30.973761 p.UPF

ATOMIC_POSITIONS crystal
p     0.87007004     0.81228778     0.81162112
p     0.37007004     0.68771223     0.81162112
p     0.31228778     0.37007004     0.31162113
p     0.18771222     0.87007004     0.31162113
p     0.81228778     0.12992996     0.31162113
p     0.68771223     0.62992996     0.31162113
p     0.62992996     0.31228778     0.81162112
p     0.12992996     0.18771222     0.81162112
c     0.76788350     0.93461529     0.82404487
c     0.26788350     0.56538472     0.82404487
c     0.43461529     0.26788350     0.32404487
c     0.06538471     0.76788350     0.32404487
c     0.93461529     0.23211650     0.32404487
c     0.56538472     0.73211650     0.32404487
c     0.73211650     0.43461529     0.82404487
c     0.23211650     0.06538471     0.82404487
o     0.97676076     0.85562389     0.71982949
o     0.47676075     0.64437612     0.71982949
o     0.35562389     0.47676075     0.21982950
o     0.14437612     0.97676076     0.21982950
o     0.85562389     0.02323925     0.21982950
o     0.64437612     0.52323925     0.21982950
o     0.52323925     0.35562389     0.71982949
o     0.02323925     0.14437612     0.71982949
o     0.90958487     0.78312726     0.99671423
o     0.40958487     0.71687275     0.99671423
o     0.28312726     0.40958487     0.49671424
o     0.21687274     0.90958487     0.49671424
o     0.78312726     0.09041513     0.49671424
o     0.71687275     0.59041514     0.49671424
o     0.59041514     0.28312726     0.99671423
o     0.09041513     0.21687274     0.99671423
o     0.80361977     0.71102159     0.73566323
o     0.30361976     0.78897842     0.73566323
o     0.21102159     0.30361976     0.23566324
o     0.28897842     0.80361977     0.23566324
o     0.71102159     0.19638024     0.23566324
o     0.78897842     0.69638024     0.23566324
o     0.69638024     0.21102159     0.73566323
o     0.19638024     0.28897842     0.73566323
n     0.83023020     0.04205053     0.88052084
n     0.33023020     0.45794947     0.88052084
n     0.54205053     0.33023020     0.38052084
n     0.95794947     0.83023020     0.38052084
n     0.04205053     0.16976980     0.38052084
n     0.45794947     0.66976980     0.38052084
n     0.66976980     0.54205053     0.88052084
n     0.16976980     0.95794947     0.88052084
c     0.66125521     0.91312985     0.93242642
c     0.16125520     0.58687016     0.93242642
c     0.41312985     0.16125520     0.43242642
c     0.08687016     0.66125521     0.43242642
c     0.91312985     0.33874480     0.43242642
c     0.58687016     0.83874480     0.43242642
c     0.83874480     0.41312985     0.93242642
c     0.33874480     0.08687016     0.93242642
h     0.90704909     0.05858318     0.81469583
h     0.40704909     0.44141683     0.81469583
h     0.55858318     0.40704909     0.31469583
h     0.94141683     0.90704909     0.31469583
h     0.05858318     0.09295091     0.31469583
h     0.44141683     0.59295092     0.31469583
h     0.59295092     0.55858318     0.81469583
h     0.09295091     0.94141683     0.81469583
h     0.77683749     0.11374722     0.85405178
h     0.27683749     0.38625279     0.85405178
h     0.61374722     0.27683749     0.35405178
h     0.88625278     0.77683749     0.35405178
h     0.11374722     0.22316251     0.35405178
h     0.38625279     0.72316251     0.35405178
h     0.72316251     0.61374722     0.85405178
h     0.22316251     0.88625278     0.85405178
h     0.84741388     0.03740676     0.00970976
h     0.34741387     0.46259325     0.00970976
h     0.53740676     0.34741387     0.50970977
h     0.96259325     0.84741388     0.50970977
h     0.03740676     0.15258613     0.50970977
h     0.46259325     0.65258613     0.50970977
h     0.65258613     0.53740676     0.00970976
h     0.15258613     0.96259325     0.00970976
h     0.61258263     0.83781059     0.88636839
h     0.11258262     0.66218942     0.88636839
h     0.33781059     0.11258262     0.38636840
h     0.16218941     0.61258263     0.38636840
h     0.83781059     0.38741738     0.38636840
h     0.66218942     0.88741738     0.38636840
h     0.88741738     0.33781059     0.88636839
h     0.38741738     0.16218941     0.88636839
h     0.68629056     0.89775360     0.06232096
h     0.18629055     0.60224641     0.06232096
h     0.39775360     0.18629055     0.56232097
h     0.10224641     0.68629056     0.56232097
h     0.89775360     0.31370945     0.56232097
h     0.60224641     0.81370945     0.56232097
h     0.81370945     0.39775360     0.06232096
h     0.31370945     0.10224641     0.06232096
h     0.74178352     0.95063743     0.69462955
h     0.24178351     0.54936258     0.69462955
h     0.45063743     0.24178351     0.19462956
h     0.04936258     0.74178352     0.19462956
h     0.95063743     0.25821649     0.19462956
h     0.54936258     0.75821649     0.19462956
h     0.75821649     0.45063743     0.69462955
h     0.25821649     0.04936258     0.69462955
h     0.85150623     0.74570078     0.07539594
h     0.35150623     0.75429923     0.07539594
h     0.24570078     0.35150623     0.57539594
h     0.25429922     0.85150623     0.57539594
h     0.74570078     0.14849377     0.57539594
h     0.75429923     0.64849378     0.57539594
h     0.64849378     0.24570078     0.07539594
h     0.14849377     0.25429922     0.07539594
h     0.60330861     0.98895493     0.92890744
h     0.10330860     0.51104508     0.92890744
h     0.48895493     0.10330860     0.42890744
h     0.01104508     0.60330861     0.42890744
h     0.98895493     0.39669140     0.42890744
h     0.51104508     0.89669140     0.42890744
h     0.89669140     0.48895493     0.92890744
h     0.39669140     0.01104508     0.92890744

K_POINTS automatic
2 2 2 1 1 1

CELL_PARAMETERS cubic
   21.730637000000     0.000000000000     0.000000000000
    0.000000000000    21.730637000000     0.000000000000
    0.000000000000     0.000000000000    15.172186000000
