&control
 title='crystal',
 prefix='crystal',
 pseudo_dir='.',
 calculation='vc-relax',
/
&system
 ibrav=0,
 celldm(1)=1.0,
 nat=    80,
 ntyp=  4,
 ecutwfc=60.0,
 ecutrho=600.0,
 xdm=.true.,
 xdm_a1=0.4073,
 xdm_a2=2.4150,
/
&electrons
 conv_thr = 1d-8,
/
&ions
/
&cell
/
ATOMIC_SPECIES
h      1.007940 h.UPF
c     12.010700 c.UPF
o     15.999400 o.UPF
s     32.065000 s.UPF

ATOMIC_POSITIONS crystal
c     0.25473728     0.12344293     0.59262816
c     0.74526277     0.87655706     0.40737184
c     0.25473726     0.37655706     0.09262814
c     0.74526279     0.62344295     0.90737185
c     0.22673812     0.24446311     0.57891069
c     0.77326193     0.75553688     0.42108931
c     0.22673810     0.25553688     0.07891067
c     0.77326195     0.74446312     0.92108932
c     0.32848586     0.31611812     0.71698383
c     0.67151420     0.68388187     0.28301617
c     0.32848584     0.18388187     0.21698381
c     0.67151421     0.81611813     0.78301618
c     0.45658191     0.26801608     0.87115530
c     0.54341815     0.73198391     0.12884470
c     0.45658189     0.23198391     0.37115528
c     0.54341817     0.76801610     0.62884471
c     0.48567715     0.14817357     0.88669658
c     0.51432290     0.85182642     0.11330342
c     0.48567713     0.35182642     0.38669657
c     0.51432292     0.64817359     0.61330343
c     0.38595547     0.07704395     0.74794911
c     0.61404458     0.92295604     0.25205088
c     0.38595545     0.42295604     0.24794910
c     0.61404460     0.57704397     0.75205089
c     0.15532249     0.04045046     0.45120809
c     0.84467757     0.95954954     0.54879191
c     0.15532247     0.45954954     0.95120808
c     0.84467759     0.54045047     0.04879191
c     0.86963873     0.30741172     0.38799013
c     0.13036133     0.69258827     0.61200987
c     0.86963871     0.19258827     0.88799011
c     0.13036134     0.80741173     0.11200988
h     0.94837890     0.02220165     0.22377601
h     0.05162115     0.97779834     0.77622399
h     0.94837888     0.47779834     0.72377599
h     0.05162117     0.52220166     0.27622400
h     0.30681135     0.40958951     0.70178384
h     0.69318871     0.59041048     0.29821616
h     0.30681133     0.09041048     0.20178383
h     0.69318872     0.90958953     0.79821617
h     0.53612702     0.32522875     0.97726566
h     0.46387303     0.67477124     0.02273434
h     0.53612700     0.17477124     0.47726565
h     0.46387305     0.82522876     0.52273434
h     0.58707695     0.11006517     0.00589015
h     0.41292310     0.88993482     0.99410985
h     0.58707693     0.38993482     0.50589014
h     0.41292312     0.61006518     0.49410985
h     0.40701410     0.98347216     0.75629213
h     0.59298595     0.01652783     0.24370787
h     0.40701408     0.51652783     0.25629212
h     0.59298597     0.48347217     0.74370787
h     0.76070081     0.34070326     0.26749720
h     0.23929924     0.65929674     0.73250280
h     0.76070079     0.15929674     0.76749718
h     0.23929926     0.84070327     0.23250281
h     0.89044957     0.36432128     0.48930460
h     0.10955049     0.63567871     0.51069540
h     0.89044955     0.13567871     0.98930458
h     0.10955050     0.86432129     0.01069541
h     0.84532796     0.21745193     0.40778904
h     0.15467209     0.78254806     0.59221096
h     0.84532794     0.28254806     0.90778903
h     0.15467211     0.71745194     0.09221097
o     0.13164720     0.44515731     0.42204369
o     0.86835285     0.55484268     0.57795631
o     0.13164718     0.05484268     0.92204368
o     0.86835287     0.94515733     0.07795632
o     0.00504892     0.08403728     0.32066880
o     0.99495113     0.91596271     0.67933120
o     0.00504890     0.41596271     0.82066879
o     0.99495115     0.58403729     0.17933120
o     0.20778647     0.94009552     0.45590936
o     0.79221359     0.05990447     0.54409064
o     0.20778645     0.55990447     0.95590935
o     0.79221360     0.44009554     0.04409064
s     0.07358816     0.31659307     0.38143130
s     0.92641190     0.68340692     0.61856870
s     0.07358814     0.18340692     0.88143129
s     0.92641191     0.81659309     0.11856871

K_POINTS automatic
2 2 2 1 1 1

CELL_PARAMETERS cubic
   16.475246000000     0.000000000000     0.122723000000
    0.000000000000    21.738539000000     0.000000000000
   -9.603409000000     0.000000000000    15.052628000000
