&control
 title='crystal',
 prefix='crystal',
 pseudo_dir='.',
 calculation='vc-relax',
/
&system
 ibrav=0,
 celldm(1)=1.0,
 nat=   108,
 ntyp=  3,
 ecutwfc=60.0,
 ecutrho=600.0,
 xdm=.true.,
 xdm_a1=0.4073,
 xdm_a2=2.4150,
/
&electrons
 conv_thr = 1d-8,
/
&ions
/
&cell
/
ATOMIC_SPECIES
h      1.007940 h.UPF
c     12.010700 c.UPF
o     15.999400 o.UPF

ATOMIC_POSITIONS crystal
o     0.46539271     0.14925810     0.70968815
o     0.46539270     0.85074186     0.20968815
h     0.45337630     0.32125536     0.76055743
h     0.45337629     0.67874459     0.26055743
c     0.51490763     0.95538962     0.77118351
c     0.51490762     0.04461033     0.27118351
h     0.56659741     0.07201565     0.79999018
h     0.56659740     0.92798431     0.29999018
h     0.53363933     0.78773963     0.70954042
h     0.53363933     0.21226033     0.20954042
o     0.42259749     0.59928514     0.83337317
o     0.42259748     0.40071481     0.33337317
h     0.38200371     0.54325925     0.89295322
h     0.38200370     0.45674071     0.39295322
c     0.47516336     0.81423976     0.87594329
c     0.47516336     0.18576019     0.37594329
h     0.44155181     0.97964469     0.92376624
h     0.44155181     0.02035526     0.42376624
o     0.58995459     0.51991330     0.90102597
o     0.58995459     0.48008665     0.40102597
c     0.53370732     0.69555897     0.96179183
c     0.53370732     0.30444099     0.46179183
h     0.56311253     0.87778967     0.00446956
h     0.56311252     0.12221028     0.50446956
h     0.50393372     0.56802668     0.02962102
h     0.50393371     0.43197328     0.52962102
c     0.64697066     0.39644338     0.96720438
c     0.64697066     0.60355658     0.46720438
c     0.65570393     0.44278335     0.08670619
c     0.65570393     0.55721660     0.58670619
h     0.61664479     0.58544688     0.13462654
h     0.61664479     0.41455307     0.63462654
c     0.71619428     0.30574059     0.14516316
c     0.71619427     0.69425937     0.64516316
h     0.72224028     0.34512713     0.23821592
h     0.72224027     0.65487282     0.73821592
c     0.76865546     0.12240962     0.08782226
c     0.76865546     0.87759034     0.58782226
c     0.75809333     0.07710009     0.96835737
c     0.75809333     0.92289986     0.46835737
h     0.79747462     0.93349090     0.92102858
h     0.79747461     0.06650905     0.42102858
c     0.69875246     0.21192200     0.90827579
c     0.69875246     0.78807795     0.40827579
h     0.69177105     0.17518744     0.81542988
h     0.69177104     0.82481251     0.31542988
c     0.83374712     0.97709240     0.15135965
c     0.83374711     0.02290755     0.65135965
h     0.88499973     0.95027171     0.09477958
h     0.88499972     0.04972825     0.59477958
h     0.81673455     0.76039671     0.18196445
h     0.81673454     0.23960324     0.68196445
h     0.85166824     0.10361675     0.22716200
h     0.85166823     0.89638320     0.72716200
o     0.30882968     0.60992830     0.46169086
o     0.30882967     0.39007166     0.96169086
h     0.32016390     0.78509256     0.51004699
h     0.32016389     0.21490740     0.01004699
c     0.25299279     0.44013833     0.52531602
c     0.25299278     0.55986162     0.02531602
h     0.23057471     0.27637509     0.46554636
h     0.23057470     0.72362486     0.96554636
h     0.20449618     0.57862076     0.55321235
h     0.20449617     0.42137919     0.05321235
c     0.28825794     0.29488149     0.63141878
c     0.28825793     0.70511846     0.13141878
h     0.32326114     0.45731212     0.67745777
h     0.32326114     0.54268784     0.17745777
o     0.33858682     0.06456120     0.59312055
o     0.33858681     0.93543875     0.09312055
h     0.38685943     0.06797024     0.64139005
h     0.38685943     0.93202971     0.14139005
c     0.22713574     0.19154067     0.71854889
c     0.22713573     0.80845928     0.21854889
h     0.25493424     0.06263332     0.78680863
h     0.25493424     0.93736663     0.28680863
h     0.19873098     0.37937898     0.75995689
h     0.19873097     0.62062098     0.25995689
o     0.17058184     0.02021183     0.65868021
o     0.17058183     0.97978812     0.15868021
c     0.11358433     0.89200719     0.72526065
c     0.11358432     0.10799276     0.22526065
c     0.06371862     0.70490140     0.66611292
c     0.06371862     0.29509856     0.16611292
h     0.07250893     0.67164808     0.57305391
h     0.07250892     0.32835187     0.07305391
c     0.00524911     0.55977262     0.72660257
c     0.00524910     0.44022734     0.22660257
h     0.96767171     0.41130188     0.67980861
h     0.96767171     0.58869808     0.17980861
c     0.99398532     0.59705697     0.84676535
c     0.99398531     0.40294298     0.34676535
c     0.04409610     0.78592675     0.90421736
c     0.04409609     0.21407320     0.40421736
h     0.03734621     0.82052091     0.99772446
h     0.03734620     0.17947905     0.49772446
c     0.10346616     0.93354570     0.84523435
c     0.10346615     0.06645425     0.34523435
h     0.14086253     0.07923776     0.89325449
h     0.14086253     0.92076219     0.39325449
c     0.92978644     0.43987924     0.91011061
c     0.92978644     0.56012071     0.41011061
h     0.90829280     0.25880861     0.85827985
h     0.90829279     0.74119134     0.35827985
h     0.87996085     0.58144670     0.92930470
h     0.87996084     0.41855326     0.42930470
h     0.94897783     0.35271805     0.99367614
h     0.94897783     0.64728190     0.49367614

K_POINTS automatic
2 2 2 1 1 1

CELL_PARAMETERS cubic
   32.549073000000     0.000000000000     0.231162000000
    0.000000000000     8.730672000000     0.000000000000
    0.119810000000     0.000000000000    21.703440000000
