%nprocs=4
%mem=4GB
#p pbepbe aug-cc-pvtz output=wfx scf=(conver=6) int=(grid=ultrafine)

title

0 1
c -0.893958377795631 -0.893958377795631 -0.893958377795631
c 0.893958377795631 0.893958377795631 -0.893958377795631
c -0.893958377795631 0.893958377795631 0.893958377795631
c 0.893958377795631 -0.893958377795631 0.893958377795631
c -1.756280859765341 0.000000000000000 0.000000000000000
c 0.000000000000000 0.000000000000000 -1.756280859765341
c 0.000000000000000 1.756280859765341 0.000000000000000
c 0.000000000000000 -1.756280859765341 0.000000000000000
c 1.756280859765341 0.000000000000000 0.000000000000000
c 0.000000000000000 0.000000000000000 1.756280859765341
h -2.406936280931380 -0.623880765091470 0.623880765091470
h 0.623880765091470 -0.623880765091470 -2.406936280931380
h 0.623880765091470 2.406936280931380 0.623880765091470
h -0.623880765091470 -2.406936280931380 0.623880765091470
h 2.406936280931380 -0.623880765091470 -0.623880765091470
h 0.623880765091470 0.623880765091470 2.406936280931380
h -0.623880765091470 -0.623880765091470 2.406936280931380
h 0.623880765091470 -2.406936280931380 -0.623880765091470
h 2.406936280931380 0.623880765091470 0.623880765091470
h -2.406936280931380 0.623880765091470 -0.623880765091470
h -0.623880765091470 0.623880765091470 -2.406936280931380
h -0.623880765091470 2.406936280931380 -0.623880765091470
c -1.771949791063383 -1.771949791063383 -1.771949791063383
c 1.771949791063383 1.771949791063383 -1.771949791063383
c -1.771949791063383 1.771949791063383 1.771949791063383
c 1.771949791063383 -1.771949791063383 1.771949791063383
h 1.162537499680756 2.412366740019042 -2.412366740019042
h -2.412366740019042 2.412366740019042 1.162537499680756
h -2.412366740019042 -1.162537499680756 -2.412366740019042
h 2.412366740019042 1.162537499680756 -2.412366740019042
h -1.162537499680756 2.412366740019042 2.412366740019042
h -2.412366740019042 -2.412366740019042 -1.162537499680756
h 2.412366740019042 2.412366740019042 -1.162537499680756
h -2.412366740019042 1.162537499680756 2.412366740019042
h -1.162537499680756 -2.412366740019042 -2.412366740019042
h 1.162537499680756 -2.412366740019042 2.412366740019042
h 2.412366740019042 -2.412366740019042 1.162537499680756
h 2.412366740019042 -1.162537499680756 2.412366740019042

c4.wfx

