%nprocs=4
%mem=4GB
#p pbepbe aug-cc-pvtz output=wfx scf=(conver=6) int=(grid=ultrafine)

title

0 1
c -3.148837420499979 -0.563078115319227 0.000000000000000
c -1.922847409048113 0.340589759334539 0.000000000000000
c -0.617915210291084 -0.444600592118500 0.000000000000000
c 0.617915210291084 0.444600592118500 0.000000000000000
c 1.922847409048113 -0.340589759334539 0.000000000000000
c 3.148837420499979 0.563078115319227 0.000000000000000
h -3.154974257727288 -1.206499016337830 0.879687926029871
h -4.073465145962961 0.011963068765673 0.000000000000000
h -3.154974257727288 -1.206499016337830 -0.879687926029871
h -1.946536258174353 0.994686934081617 0.874516893198908
h -1.946536258174353 0.994686934081617 -0.874516893198908
h -0.591947431939633 -1.100061842347025 0.875365704234135
h -0.591947431939633 -1.100061842347025 -0.875365704234135
h 0.591947431939633 1.100061842347025 0.875365704234135
h 0.591947431939633 1.100061842347025 -0.875365704234135
h 1.946536258174353 -0.994686934081617 0.874516893198908
h 1.946536258174353 -0.994686934081617 -0.874516893198908
h 3.154974257727288 1.206499016337830 0.879687926029871
h 4.073465145962961 -0.011963068765673 0.000000000000000
h 3.154974257727288 1.206499016337830 -0.879687926029871

h5.wfx

