%nprocs=4
%mem=4GB
#p pbepbe aug-cc-pvtz output=wfx scf=(conver=6) int=(grid=ultrafine)

title

0 1
c 0.000000000000000 -3.804560504827621 -0.336889601394228
c 0.000000000000000 -2.543292085047427 0.516984784888282
c 0.000000000000000 -1.271009567608413 -0.320061034320951
c 0.000000000000000 0.000000000000000 0.518549293567006
c 0.000000000000000 1.271009567608413 -0.320061034320951
c 0.000000000000000 2.543292085047427 0.516984784888282
c 0.000000000000000 3.804560504827621 -0.336889601394228
h 0.879647619585109 -3.836482222733657 -0.979549104446241
h 0.000000000000000 -4.705430900905818 0.274711753906472
h -0.879647619585109 -3.836482222733657 -0.979549104446241
h 0.874532555942094 -2.540699206537287 1.171436596358887
h -0.874532555942094 -2.540699206537287 1.171436596358887
h 0.875323613811033 -1.271322584001908 -0.976040411315943
h -0.875323613811033 -1.271322584001908 -0.976040411315943
h 0.875451949935480 0.000000000000000 1.174285288943521
h -0.875451949935480 0.000000000000000 1.174285288943521
h 0.875323613811033 1.271322584001908 -0.976040411315943
h -0.875323613811033 1.271322584001908 -0.976040411315943
h 0.874532555942094 2.540699206537287 1.171436596358887
h -0.874532555942094 2.540699206537287 1.171436596358887
h 0.879647619585109 3.836482222733657 -0.979549104446241
h 0.000000000000000 4.705430900905818 0.274711753906472
h -0.879647619585109 3.836482222733657 -0.979549104446241

h6.wfx

