%nprocs=4
%mem=4GB
#p pbepbe aug-cc-pvtz output=wfx scf=(conver=6) int=(grid=ultrafine)

title

0 1
c -1.481886047802146 1.138288806806542 -1.028036941983340
c -1.296503528454948 -0.080318414962204 -0.131064226777028
c 0.000000000000000 0.000000000000000 0.673597253676954
c 1.296503528454948 0.080318414962204 -0.131064226777028
c 2.482312045000792 0.219536231012547 0.817978214177573
c -2.482312045000792 -0.219536231012547 0.817978214177573
c 1.481886047802146 -1.138288806806542 -1.028036941983340
h -1.476860871681367 2.050490222544002 -0.427415997441179
h -0.694174229418541 1.223658536101984 -1.775141268404600
h -2.435490002791380 1.091732031326254 -1.553993644758036
h -1.263375469785291 -0.973098462456650 -0.760704389353889
h -0.061765011570337 0.874540352759386 1.331037284796967
h 0.061765011570337 -0.874540352759386 1.331037284796967
h 1.263375469785291 0.973098462456650 -0.760704389353889
h 2.554021926231329 -0.656551845610308 1.465172571210843
h 2.377665559943681 1.097663025172048 1.455232206442909
h 3.420367746197201 0.308205349897881 0.270137565251331
h -2.554021926231329 0.656551845610308 1.465172571210843
h -2.377665559943681 -1.097663025172048 1.455232206442909
h -3.420367746197201 -0.308205349897881 0.270137565251331
h 1.476860871681367 -2.050490222544002 -0.427415997441179
h 2.435490002791380 -1.091732031326254 -1.553993644758036
h 0.694174229418541 -1.223658536101984 -1.775141268404600

h7.wfx

