&control
 title='crystal',
 prefix='crystal',
 pseudo_dir='.',
 calculation='vc-relax',
/
&system
 ibrav=0,
 celldm(1)=1.0,
 nat=    80,
 ntyp=  4,
 ecutwfc=60.0,
 ecutrho=600.0,
 xdm=.true.,
 xdm_a1=0.4073,
 xdm_a2=2.4150,
/
&electrons
 conv_thr = 1d-8,
/
&ions
/
&cell
/
ATOMIC_SPECIES
h      1.007940 h.UPF
c     12.010700 c.UPF
n     14.006700 n.UPF
o     15.999400 o.UPF

ATOMIC_POSITIONS crystal
o     0.86460965     0.90514047     0.98849397
o     0.13539037     0.09485951     0.01150599
o     0.36460964     0.59485951     0.48849399
o     0.63539038     0.40514048     0.51150597
n     0.92175970     0.09232569     0.77407587
n     0.07824032     0.90767430     0.22592409
n     0.42175969     0.40767429     0.27407589
n     0.57824033     0.59232570     0.72592407
h     0.99882010     0.10297392     0.86148189
h     0.00117991     0.89702607     0.13851807
h     0.49882009     0.39702607     0.36148191
h     0.50117992     0.60297392     0.63851805
o     0.75298777     0.00390082     0.70088755
o     0.24701224     0.99609917     0.29911241
o     0.25298776     0.49609917     0.20088757
o     0.74701225     0.50390082     0.79911239
c     0.85059517     0.99443894     0.83537298
c     0.14940485     0.00556105     0.16462698
c     0.35059516     0.50556105     0.33537300
c     0.64940486     0.49443894     0.66462697
c     0.76767197     0.10703486     0.51811199
c     0.23232805     0.89296513     0.48188798
c     0.26767196     0.39296512     0.01811201
c     0.73232806     0.60703487     0.98188796
h     0.69188643     0.16815435     0.50200472
h     0.30811359     0.83184564     0.49799524
h     0.19188642     0.33184564     0.00200474
h     0.80811359     0.66815435     0.99799522
h     0.78196958     0.05391764     0.35059312
h     0.21803043     0.94608235     0.64940684
h     0.28196958     0.44608235     0.85059314
h     0.71803044     0.55391764     0.14940682
c     0.94748139     0.23008981     0.40690334
c     0.05251862     0.76991018     0.59309662
c     0.44748138     0.26991018     0.90690336
c     0.55251863     0.73008981     0.09309660
h     0.96859067     0.13715057     0.31120534
h     0.03140935     0.86284942     0.68879462
h     0.46859066     0.36284942     0.81120536
h     0.53140936     0.63715057     0.18879460
c     0.87078487     0.18891600     0.60470662
c     0.12921515     0.81108399     0.39529334
c     0.37078486     0.31108399     0.10470664
c     0.62921516     0.68891600     0.89529332
h     0.84516267     0.28079545     0.69924165
h     0.15483735     0.71920453     0.30075831
h     0.34516266     0.21920453     0.19924167
h     0.65483736     0.78079546     0.80075829
c     0.88653478     0.32710407     0.23361146
c     0.11346524     0.67289592     0.76638850
c     0.38653477     0.17289592     0.73361148
c     0.61346524     0.82710407     0.26638848
h     0.81180964     0.28152725     0.14736787
h     0.18819038     0.71847274     0.85263209
h     0.31180963     0.21847274     0.64736789
h     0.68819039     0.78152725     0.35263207
h     0.94140089     0.35832556     0.09273926
h     0.05859913     0.64167443     0.90726071
h     0.44140088     0.14167442     0.59273927
h     0.55859914     0.85832557     0.40726069
h     0.85998529     0.41822217     0.32716790
h     0.14001472     0.58177782     0.67283206
h     0.35998528     0.08177781     0.82716792
h     0.64001473     0.91822218     0.17283205
c     0.05503017     0.29404526     0.51151146
c     0.94496985     0.70595473     0.48848850
c     0.55503016     0.20595473     0.01151148
c     0.44496986     0.79404526     0.98848848
h     0.03583783     0.38111289     0.62436832
h     0.96416219     0.61888710     0.37563165
h     0.53583782     0.11888710     0.12436833
h     0.46416219     0.88111289     0.87563163
h     0.10677621     0.33110005     0.36982012
h     0.89322380     0.66889994     0.63017984
h     0.60677620     0.16889994     0.86982014
h     0.39322381     0.83110005     0.13017982
h     0.10507687     0.22205467     0.61949833
h     0.89492315     0.77794532     0.38050163
h     0.60507686     0.27794531     0.11949835
h     0.39492316     0.72205468     0.88050161

K_POINTS automatic
2 2 2 1 1 1

CELL_PARAMETERS cubic
   22.677255000000     0.000000000000     0.234115000000
    0.000000000000    18.659775000000     0.000000000000
   -0.589168000000     0.000000000000    10.614555000000
