&control
 title='cyanamide',
 prefix='cyanamide',
 pseudo_dir='.',
 calculation='vc-relax',
 etot_conv_thr=1.0D-5,
 forc_conv_thr=1.0D-4,
/
&system
 ibrav = 0,
 celldm(1) = 1.d0,
 nat = 40,
 ntyp = 3,
 ecutwfc=80.0,
 ecutrho=800.0,
 xdm=.true.,
 xdm_a1=0.6512,
 xdm_a2=1.4633,
/
&electrons
 conv_thr = 1d-8,
/
&ions
/
&cell
/
ATOMIC_SPECIES
 c 12.0107 c.UPF
 h 1.00794 h.UPF
 n 14.0067 n.UPF

ATOMIC_POSITIONS crystal
c        0.140707853   0.060354431   0.239231270
c        0.359288651   0.560362722   0.239229188
c        0.140703958   0.439632296   0.739235410
c        0.359301693   0.939616947   0.739242745
c        0.859292147   0.939645569   0.760768730
c        0.640711349   0.439637278   0.760770812
c        0.859296042   0.560367704   0.260764590
c        0.640698307   0.060383053   0.260757255
h        0.210489199   0.105190459   0.019134257
h        0.289509105   0.605187438   0.019134498
h        0.210489042   0.394815812   0.519136697
h        0.289506595   0.894821098   0.519146858
h        0.789510801   0.894809541   0.980865743
h        0.710490895   0.394812562   0.980865502
h        0.789510958   0.605184188   0.480863303
h        0.710493405   0.105178902   0.480853142
h        0.039783124   0.273968133   0.104857732
h        0.460215687   0.773973739   0.104851436
h        0.039785228   0.226030468   0.604848837
h        0.460213490   0.726015287   0.604844168
h        0.960216876   0.726031867   0.895142268
h        0.539784313   0.226026261   0.895148564
h        0.960214772   0.773969532   0.395151163
h        0.539786510   0.273984713   0.395155832
n        0.135677614   0.156782748   0.112934090
n        0.364323841   0.656787411   0.112929303
n        0.135681577   0.343212726   0.612933087
n        0.364339930   0.843215444   0.612933956
n        0.864322386   0.843217252   0.887065910
n        0.635676159   0.343212589   0.887070697
n        0.864318423   0.656787274   0.387066913
n        0.635660070   0.156784556   0.387066044
n        0.144811816  -0.024478187   0.354785492
n        0.355191639   0.475510774   0.354775176
n        0.144812929   0.524484918   0.854781135
n        0.355166652   1.024499180   0.854775221
n        0.855188184   1.024478187   0.645214508
n        0.644808361   0.524489226   0.645224824
n        0.855187071   0.475515082   0.145218865
n        0.644833348  -0.024499180   0.145224779

K_POINTS automatic
2 2 2 1 1 1

CELL_PARAMETERS cubic
  12.874418132   0.000012227  -0.000036561
   0.000018439  12.879409188   0.000094443
  -0.000184164  -0.000172104  16.750988995
