&control
 title='crystal',
 prefix='crystal',
 pseudo_dir='.',
 calculation='relax',
 etot_conv_thr=1.0D-5,
 forc_conv_thr=1.0D-4,
/
&system
 ibrav=0,
 celldm(1)=1.0,
 nat=    22,
 ntyp=  3,
 ecutwfc=80.0,
 ecutrho=800.0,
 xdm=.true.,
 xdm_a1=0.6512,
 xdm_a2=1.4633,
/
&electrons
 conv_thr = 1d-8,
/
&ions
/
ATOMIC_SPECIES
h      1.007940 h.UPF
c     12.010700 c.UPF
n     14.006700 n.UPF

ATOMIC_POSITIONS angstrom
h   -1.33797566913193       0.165468608123690        2.08942130227231     
c  -0.974831481102782       0.689329658845129        1.19394098829598     
h   -1.33797566913193        1.72676882865346        1.18799438174359     
n   0.501416184754574       0.709106672602232        1.22819540785811     
n   -1.50421578730004       1.213893986589797E-015  5.091018898519598E-016
c   0.974847407648651      -0.689307135399978        1.19394098829598     
c   0.974847407648651        1.37863679424511       4.299030546245153E-016
c  -0.974847407648652       0.689307135399979       -1.19394098829598     
c  -0.974847407648651       -1.37863679424511       0.000000000000000E+000
h   0.601992544327703       -1.20630167372726        2.08942130227231     
h   0.601992544327703        2.41264276394710       0.000000000000000E+000
h    2.07400251294048      -0.685873935293639        1.18799438174359     
h    2.07400251294048        1.37177028185095       0.000000000000000E+000
h   -1.33800354091499       0.165429191631117       -2.08942130227231     
h   -1.33800354091499       -1.89221502551348      -0.901426920528726     
h   -1.33799151635319       -1.89219802028457       0.901426920528726     
h   -1.33799151635319        1.72674641738979       -1.18799438174359     
n   0.501399801272736       0.709083502954673       -1.22819540785810     
n   0.501399801272734       -1.41819017555691       0.000000000000000E+000
c   0.974831481102782      -0.689329658845129       -1.19394098829598     
h   0.601964672544645       -1.20634109021984       -2.08942130227231     
h    2.07398666571922      -0.685896346557310       -1.18799438174359     

K_POINTS gamma

CELL_PARAMETERS cubic
50. 0. 0.
0. 50. 0.
0. 0. 50.
