&control
 title='pyrazole',
 prefix='pyrazole',
 pseudo_dir='.',
 etot_conv_thr=1.0D-5,
 forc_conv_thr=1.0D-4,
 calculation='relax',
/
&system
 ibrav=1,
 celldm(1)=30,
 nat=9,
 ntyp=3,
 ecutwfc=80.0,
 ecutrho=800.0,
 xdm=.true.,
 xdm_a1=0.6512,
 xdm_a2=1.4633,
/
&electrons
 conv_thr = 1d-8,
/
&ions
/
ATOMIC_SPECIES
c 12.0107000000 c.UPF
h 1.0079400000 h.UPF
n 14.0067000000 n.UPF

ATOMIC_POSITIONS angstrom
c -0.30456 -2.01164 -0.00001
c 1.07865 -2.01494 0.00007
c 1.43730 -0.64538 -0.00007
n -0.67978 -0.70472 -0.00006
h -1.61560 -0.32951 -0.00013
h -1.02848 -2.81348 0.00001
h 1.73079 -2.87543 0.00014
h 2.42604 -0.20737 -0.00009
n 0.36626 0.14948 -0.00001

K_POINTS gamma

