&control
 title='naphthalene',
 prefix='naphthalene',
 pseudo_dir='.',
 etot_conv_thr=1.0D-5,
 forc_conv_thr=1.0D-4,
 calculation='relax',
/
&system
 ibrav=1,
 celldm(1)=30,
 nat=18,
 ntyp=2,
 ecutwfc=80.0,
 ecutrho=800.0,
 xdm=.true.,
 xdm_a1=0.6512,
 xdm_a2=1.4633,
/
&electrons
 conv_thr = 1d-8,
/
&ions
/
ATOMIC_SPECIES
c 12.0107000000 c.UPF
h 1.0079400000 h.UPF

ATOMIC_POSITIONS angstrom
c -5.05775 -1.81225 0.00033
c -3.67945 -1.81020 0.00015
c -2.95126 -0.58817 0.00024
c -3.67606 0.64969 0.00052
c -5.09813 0.61263 0.00069
c -5.77439 -0.58836 0.00061
h -0.98133 -1.49009 -0.00016
h -5.60092 -2.75285 0.00026
h -3.12867 -2.74747 -0.00006
c -1.52918 -0.55111 0.00006
c -2.94787 1.87174 0.00060
h -5.64599 1.55161 0.00091
h -6.86047 -0.60178 0.00075
c -1.56957 1.87378 0.00042
c -0.85293 0.64989 0.00015
h -3.49866 2.80899 0.00081
h -1.02638 2.81436 0.00050
h 0.23315 0.66331 0.00001

K_POINTS gamma

