&control
 title='pyrazine',
 prefix='pyrazine',
 pseudo_dir='.',
 etot_conv_thr=1.0D-5,
 forc_conv_thr=1.0D-4,
 calculation='relax',
/
&system
 ibrav=1,
 celldm(1)=30,
 nat=10,
 ntyp=3,
 ecutwfc=80.0,
 ecutrho=800.0,
 xdm=.true.,
 xdm_a1=0.6512,
 xdm_a2=1.4633,
/
&electrons
 conv_thr = 1d-8,
/
&ions
/
ATOMIC_SPECIES
c 12.0107000000 c.UPF
h 1.0079400000 h.UPF
n 14.0067000000 n.UPF

ATOMIC_POSITIONS angstrom
c 0.39250 -0.54132 -0.00000
c 1.79067 -0.54131 0.00001
n 2.50028 0.59381 -0.00001
c 1.79065 1.72890 -0.00005
c 0.39247 1.72889 -0.00006
n -0.31714 0.59378 -0.00004
h -0.16583 -1.47446 0.00003
h 2.34901 -1.47444 0.00005
h 2.34896 2.66205 -0.00008
h -0.16586 2.66202 -0.00011

K_POINTS gamma

