&control
 title='oxalic_acid_beta',
 prefix='oxalic_acid_beta',
 pseudo_dir='.',
 calculation='vc-relax',
 etot_conv_thr=1.0D-5,
 forc_conv_thr=1.0D-4,
/
&system
 ibrav = 0,
 celldm(1) = 1.d0,
 nat = 16,
 ntyp = 3,
 ecutwfc=80.0,
 ecutrho=800.0,
 xdm=.true.,
 xdm_a1=0.6512,
 xdm_a2=1.4633,
/
&electrons
 conv_thr = 1d-8,
/
&ions
/
&cell
/
ATOMIC_SPECIES
 c 12.0107 c.UPF
 h 1.00794 h.UPF
 o 15.9994 o.UPF

ATOMIC_POSITIONS crystal
c        0.145180763   0.002480316  -0.001721326
c        0.854819237   0.502480316   0.501721326
c        0.854819237   0.997519684   1.001721326
c        0.145180763   0.497519684   0.498278674
h        0.525731047   0.901745440   0.194409437
h        0.474268953   0.401745440   0.305590563
h        0.474268953   0.098254560   0.805590563
h        0.525731047   0.598254560   0.694409437
o        0.181452360   0.101952988   0.816082946
o        0.818547640   0.601952988   0.683917054
o        0.818547640   0.898047012   0.183917054
o        0.181452360   0.398047012   0.316082946
o        0.335492761   0.895428718   0.204821575
o        0.664507239   0.395428718   0.295178425
o        0.664507239   0.104571282   0.795178425
o        0.335492761   0.604571282   0.704821575

K_POINTS automatic
4 4 4 1 1 1

CELL_PARAMETERS cubic
   9.952888134   0.000000000   0.035597426
   0.000000000  11.427800663   0.000000000
  -4.389696409   0.000000000   9.158307954
