&control
 title='triazine',
 prefix='triazine',
 pseudo_dir='.',
 calculation='vc-relax',
 etot_conv_thr=1.0D-5,
 forc_conv_thr=1.0D-4,
/
&system
 ibrav = 0,
 celldm(1) = 1.d0,
 nat = 54,
 ntyp = 3,
 ecutwfc=80.0,
 ecutrho=800.0,
 xdm=.true.,
 xdm_a1=0.6512,
 xdm_a2=1.4633,
/
&electrons
 conv_thr = 1d-8,
/
&ions
/
&cell
/
ATOMIC_SPECIES
 c 12.0107 c.UPF
 h 1.00794 h.UPF
 n 14.0067 n.UPF

ATOMIC_POSITIONS crystal
c        0.000000777   0.135962129   0.250019913
c       -0.000000777   0.864037871   0.749980087
c        0.135961351  -0.000000777   0.250019913
c        0.135962129   0.135961351   0.749980087
c        0.197371809   0.530704760   0.916657239
c        0.197371246   0.666666230   0.416676318
c        0.333333770   0.530705027   0.416676318
c        0.333332941   0.802628191   0.916657239
c        0.469295240   0.666667059   0.916657239
c        0.469294973   0.802628754   0.416676318
c        0.530705027   0.197371246   0.583323682
c        0.530704760   0.333332941   0.083342761
c        0.666667059   0.197371809   0.083342761
c        0.666666230   0.469294973   0.583323682
c        0.802628754   0.333333770   0.583323682
c        0.802628191   0.469295240   0.083342761
c        0.864038649   0.000000777   0.749980087
c        0.864037871   0.864038649   0.250019913
h        0.000000434   0.249857814   0.249955774
h       -0.000000434   0.750142186   0.750044226
h        0.083475841   0.416808965   0.916688016
h        0.083475458   0.666666388   0.416644651
h        0.249857380  -0.000000434   0.249955774
h        0.249857814   0.249857380   0.750044226
h        0.333333612   0.416809081   0.416644651
h        0.333333113   0.916524159   0.916688016
h        0.416809081   0.083475458   0.583355349
h        0.416808965   0.333333113   0.083311984
h        0.583191035   0.666666887   0.916688016
h        0.583190919   0.916524542   0.416644651
h        0.666666887   0.083475841   0.083311984
h        0.666666388   0.583190919   0.583355349
h        0.750142620   0.000000434   0.750044226
h        0.750142186   0.750142620   0.249955774
h        0.916524542   0.333333612   0.583355349
h        0.916524159   0.583191035   0.083311984
n        0.000000821   0.143489292   0.749973670
n       -0.000000821   0.856510708   0.250026330
n        0.143488471  -0.000000821   0.749973670
n        0.143489292   0.143488471   0.250026330
n        0.189844665   0.523177545   0.416679481
n        0.189844252   0.666666258   0.916654162
n        0.333333742   0.523178004   0.916654162
n        0.333332870   0.810155335   0.416679481
n        0.476822455   0.666667130   0.416679481
n        0.476821996   0.810155748   0.916654162
n        0.523178004   0.189844252   0.083345838
n        0.523177545   0.333332870   0.583320519
n        0.666667130   0.189844665   0.583320519
n        0.666666258   0.476821996   0.083345838
n        0.810155748   0.333333742   0.083345838
n        0.810155335   0.476822455   0.583320519
n        0.856511529   0.000000821   0.250026330
n        0.856510708   0.856511529   0.749973670

K_POINTS automatic
2 2 2 1 1 1

CELL_PARAMETERS hexagonal
  18.105955169   0.000000000   0.000000000
  -9.052977585  15.680217136   0.000000000
   0.000000000   0.000000000  13.072651985
