&control
 title='trioxane',
 prefix='trioxane',
 pseudo_dir='.',
 calculation='vc-relax',
 etot_conv_thr=1.0D-5,
 forc_conv_thr=1.0D-4,
/
&system
 ibrav = 0,
 celldm(1) = 1.d0,
 nat = 72,
 ntyp = 3,
 ecutwfc=80.0,
 ecutrho=800.0,
 xdm=.true.,
 xdm_a1=0.6512,
 xdm_a2=1.4633,
/
&electrons
 conv_thr = 1d-8,
/
&ions
/
&cell
/
ATOMIC_SPECIES
 c 12.0107 c.UPF
 h 1.00794 h.UPF
 o 15.9994 o.UPF

ATOMIC_POSITIONS crystal
c        0.017403282   0.151833510   0.474984638
c        0.017404001   0.865570360   0.974984480
c        0.134429640   0.151833642   0.974984480
c        0.134430226   0.982596718   0.474984638
c        0.181501836   0.532234723   0.141648174
c        0.181502213   0.649266184   0.641649034
c        0.350733816   0.532236039   0.641649034
c        0.350732877   0.818498164   0.141648174
c        0.467765277   0.649267123   0.141648174
c        0.467763961   0.818497787   0.641649034
c        0.514841037   0.198911243   0.808283695
c        0.514841040   0.315928880   0.308283728
c        0.684071120   0.198912149   0.308283728
c        0.684070216   0.485158963   0.808283695
c        0.801088757   0.315929784   0.808283695
c        0.801087851   0.485158960   0.308283728
c        0.848166490   0.865569774   0.474984638
c        0.848166358   0.982595999   0.974984480
h        0.030320402   0.266092547   0.526895537
h        0.030321659   0.764228238   0.026894703
h        0.017375073   0.153215129   0.337902610
h        0.017375641   0.864159834   0.837902652
h        0.067244840   0.430890734   0.193560861
h        0.067243147   0.636352713   0.693557935
h        0.135840166   0.153215808   0.837902652
h        0.135840057   0.982624927   0.337902610
h        0.180118609   0.530826207   0.004566186
h        0.180117199   0.649291802   0.504567527
h        0.235771762   0.266093420   0.026894703
h        0.235772146   0.969679598   0.526895537
h        0.363647287   0.430890445   0.693557935
h        0.363645885   0.932755160   0.193560861
h        0.350708198   0.530825406   0.504567527
h        0.350707588   0.819881391   0.004566186
h        0.400603511   0.097599068   0.860252425
h        0.400602350   0.303003037   0.360250662
h        0.469173793   0.649292412   0.004566186
h        0.469174594   0.819882801   0.504567527
h        0.513491581   0.197517579   0.671197623
h        0.513490903   0.315973362   0.171197934
h        0.569109266   0.636354115   0.193560861
h        0.569109555   0.932756853   0.693557935
h        0.696996963   0.097599303   0.360250662
h        0.696995567   0.599396489   0.860252425
h        0.684026638   0.197517531   0.171197934
h        0.684026007   0.486508419   0.671197623
h        0.733907453   0.764227854   0.526895537
h        0.733906580   0.969678341   0.026894703
h        0.802482421   0.315973993   0.671197623
h        0.802482469   0.486509097   0.171197934
h        0.846784871   0.864159943   0.337902610
h        0.846784192   0.982624359   0.837902652
h        0.902400932   0.303004433   0.860252425
h        0.902400697   0.599397650   0.360250662
o        0.153390212   0.017512053   0.033250153
o        0.153389921   0.135878603   0.533250048
o        0.197453281   0.513278164   0.699915235
o        0.197452564   0.684174182   0.199913503
o        0.315825818   0.513278392   0.199913503
o        0.315824873   0.802546719   0.699915235
o        0.486721836   0.684175127   0.699915235
o        0.486721608   0.802547436   0.199913503
o        0.530790974   0.179944401   0.366545576
o        0.530790406   0.350845655   0.866545085
o        0.649154345   0.179944742   0.866545085
o        0.649153435   0.469209026   0.366545576
o        0.820055599   0.350846565   0.366545576
o        0.820055258   0.469209594   0.866545085
o        0.864121397   0.017511317   0.533250048
o        0.864121843   0.846609788   0.033250153
o        0.982487947   0.135878157   0.033250153
o        0.982488683   0.846610079   0.533250048

K_POINTS automatic
2 2 2 1 1 1

CELL_PARAMETERS hexagonal
  17.579537102   0.000000000   0.000000000
  -8.789768550  15.224325717   0.000000000
   0.000000000   0.000000000  15.223185227
