&control
 title='urea',
 prefix='urea',
 pseudo_dir='.',
 calculation='vc-relax',
 etot_conv_thr=1.0D-5,
 forc_conv_thr=1.0D-4,
/
&system
 ibrav = 0,
 celldm(1) = 1.d0,
 nat = 16,
 ntyp = 4,
 ecutwfc=80.0,
 ecutrho=800.0,
 xdm=.true.,
 xdm_a1=0.6512,
 xdm_a2=1.4633,
/
&electrons
 conv_thr = 1d-8,
/
&ions
/
&cell
/
ATOMIC_SPECIES
 c 12.0107 c.UPF
 h 1.00794 h.UPF
 o 15.9994 o.UPF
 n 14.0067 n.UPF

ATOMIC_POSITIONS crystal
c        0.000000000   0.500000000   0.327475279
c        0.500000000   0.000000000   0.672524721
h        0.261213652   0.761213652   0.282501927
h        0.761213652   0.738786348   0.717498073
h        0.738786348   0.238786348   0.282501927
h        0.238786348   0.261213652   0.717498073
h        0.145164942   0.645164942   0.959679490
h        0.645164942   0.854835058   0.040320510
h        0.854835058   0.354835058   0.959679490
h        0.354835058   0.145164942   0.040320510
o        0.000000000   0.500000000   0.600193088
o        0.500000000   0.000000000   0.399806912
n        0.147047063   0.647047063   0.177683918
n        0.647047063   0.852952937   0.822316082
n        0.852952937   0.352952937   0.177683918
n        0.352952937   0.147047063   0.822316082

K_POINTS automatic
4 4 4 1 1 1

CELL_PARAMETERS cubic
  10.473277845   0.000000000   0.000000000
   0.000000000  10.473277845   0.000000000
   0.000000000   0.000000000   8.826950084
