%nprocs=4
%mem=4GB
#p pbepbe aug-cc-pvtz output=wfx scf=(conver=6) int=(grid=ultrafine)

title

0 2
c -1.211487717801774 0.007967979982902 0.000407000245494
o 1.293965277532612 -0.108694056998803 0.000133000224544
h 0.009476029191942 -0.118020276122993 0.002799003468256
h -1.525527932239509 -0.233250200825092 1.010072288668248
h -1.430667625827666 1.033234375088233 -0.278082093936836
h -1.552711765444778 -0.710113479751093 -0.737704779406975
h 1.416639138027945 0.849895639400141 -0.000591000981870

RKT04.wfx

