%nprocs=4
%mem=4GB
#p pbepbe aug-cc-pvtz output=wfx scf=(conver=6) int=(grid=ultrafine)

title

0 1
o 0.000000000000000 0.000000000000000 0.484118298455770
c 0.000000000000000 0.000000000000000 -0.645490359038082

co.wfx

