%nprocs=4
%mem=4GB
#p pbepbe aug-cc-pvtz output=wfx scf=(conver=6) int=(grid=ultrafine)

title

0 2
c -1.800620704125021 0.168058214612847 0.217373297035766
h -2.151645113671111 -0.764385894264083 -0.204420097323900
h -2.000342766191059 1.060772757023256 -0.360345336898195
h -1.875139438638665 0.266062362820923 1.292282494009295
h -0.420025942482975 0.039365016287522 0.050855041017637
cl 1.014760798736356 -0.094714782679481 -0.122506111320211

RKT08.wfx

