%nprocs=4
%mem=4GB
#p pbepbe aug-cc-pvtz output=wfx scf=(conver=6) int=(grid=ultrafine)

title

0 2
n -0.062441852259203 0.659492387977373 0.000000000000000
n -0.062441852259203 -0.518709025049673 0.000000000000000
h 0.874195456818594 -0.985476132012985 0.000000000000000

hn2.wfx

