%nprocs=4
%mem=4GB
#p pbepbe aug-cc-pvtz output=wfx scf=(conver=6) int=(grid=ultrafine)

title

0 1
f 0.000000000000000 0.000000000000000 -1.065985152527868
cl 0.000000000000000 0.000000000000000 0.564346325872891

clf.wfx

