%nprocs=4
%mem=4GB
#p pbepbe aug-cc-pvtz output=wfx scf=(conver=6) int=(grid=ultrafine)

title

0 2
p 0.000000000000000 0.000000000000000 0.115656970709430
h 0.000000000000000 1.020131947403544 -0.867427280320728
h 0.000000000000000 -1.020131947403544 -0.867427280320728

PH2.wfx

