%nprocs=4
%mem=4GB
#p pbepbe aug-cc-pvtz output=wfx scf=(conver=6) int=(grid=ultrafine)

title

0 1
o 0.000000000000000 0.000000000000000 0.117145017019985
h 0.000000000000000 0.756707532967442 -0.468582184788776
h 0.000000000000000 -0.756707532967442 -0.468582184788776

H2O.wfx

