%nprocs=4
%mem=4GB
#p pbepbe aug-cc-pvtz output=wfx scf=(conver=6) int=(grid=ultrafine)

title

0 2
o -0.301064260105900 -0.108048989981532 -0.000007999995204
h -0.427944021055107 0.851567839379286 0.000015999990408
h 1.015485771512124 -0.100366924444431 0.000118999783136
h 1.820967567795306 0.113187300676941 -0.000072999995925

RKT02.wfx

