%nprocs=4
%mem=4GB
#p pbepbe aug-cc-pvtz output=wfx scf=(conver=6) int=(grid=ultrafine)

title

0 2
cl -0.002253998569357 -1.611360475472808 0.000000000000000
f 0.000000000000000 0.536368726854738 0.000000000000000
f 0.004258003241831 2.507310407336536 0.000000000000000

clf2ts.wfx

