%nprocs=4
%mem=4GB
#p pbepbe aug-cc-pvtz output=wfx scf=(conver=6) int=(grid=ultrafine)

title

0 2
h -0.852054682411188 1.227892211268064 0.000000000000000
c 0.060861199937144 0.584656147138576 0.000000000000000
o 0.060861199937144 -0.591974667933375 0.000000000000000

hco.wfx

