%nprocs=4
%mem=4GB
#p pbepbe aug-cc-pvtz output=wfx scf=(conver=6) int=(grid=ultrafine)

title

0 2
h -1.520865881031832 1.388830875716541 0.000000000000000
c 0.108633201619815 0.549328276693107 0.000000000000000
o 0.108633201619815 -0.585603374341952 0.000000000000000

hcots.wfx

