%nprocs=4
%mem=4GB
#p pbepbe aug-cc-pvtz output=wfx scf=(conver=6) int=(grid=ultrafine)

title

0 2
h 0.874486504283318 -0.985656052263906 0.000000000000000
n -0.062463019347546 -0.518712200112924 0.000000000000000
n -0.062463019347546 0.659518846837803 0.000000000000000

N2H.wfx

