%nprocs=4
%mem=4GB
#p pbepbe aug-cc-pvtz output=wfx scf=(conver=6) int=(grid=ultrafine)

title

0 3
cl 0.018820028670341 -0.817303615123083 0.000000000000000
h -0.470488281094117 0.569479344796214 0.000000000000000
o 0.018820028670341 1.665579972264939 0.000000000000000

RKT17.wfx

