%nprocs=4
%mem=4GB
#p pbepbe aug-cc-pvtz output=wfx scf=(conver=6) int=(grid=ultrafine)

title

0 2
h 0.146567798994798 -1.128391020736887 0.000000000000000
f 0.000000000000000 0.330421953284056 0.000000000000000
h -0.146567798994798 -1.845410263060079 0.000000000000000

RKT10.wfx

