&control
 title='crystal',
 prefix='crystal',
 pseudo_dir='.',
 calculation='vc-relax',
/
&system
 ibrav=0,
 celldm(1)=1.0,
 nat=   108,
 ntyp=  4,
 ecutwfc=60.0,
 ecutrho=600.0,
 xdm=.true.,
 xdm_a1=0.4073,
 xdm_a2=2.4150,
/
&electrons
 conv_thr = 1d-8,
/
&ions
/
&cell
/
ATOMIC_SPECIES
h      1.007940 h.UPF
c     12.010700 c.UPF
o     15.999400 o.UPF
s     32.065000 s.UPF

ATOMIC_POSITIONS crystal
s     0.53614837     0.53171940     0.84600341
s     0.96385164     0.46828055     0.34600341
s     0.03601298     0.96836875     0.15400438
s     0.46398703     0.03163120     0.65400438
o     0.75028554     0.52840933     0.81395958
o     0.74971447     0.47159061     0.31395958
o     0.25021152     0.97170327     0.18600041
o     0.24978850     0.02829668     0.68600041
o     0.98926545     0.57046170     0.67565206
o     0.51073456     0.42953824     0.17565207
o     0.48889152     0.92911586     0.32426434
o     0.01110850     0.07088409     0.82426434
o     0.53141835     0.67896169     0.88955846
o     0.96858167     0.32103825     0.38955846
o     0.03112520     0.82115935     0.11044974
o     0.46887481     0.17884060     0.61044974
o     0.40422785     0.51288539     0.78584363
o     0.09577216     0.48711456     0.28584363
o     0.90422401     0.98718160     0.21418416
o     0.59577601     0.01281835     0.71418417
c     0.79533010     0.40102297     0.76036576
c     0.70466992     0.59897698     0.26036577
c     0.29545254     0.09901624     0.23961909
c     0.20454747     0.90098371     0.73961910
c     0.98565537     0.44252942     0.72984794
c     0.51434464     0.55747053     0.22984794
c     0.48565113     0.05725844     0.27014607
c     0.01434889     0.94274151     0.77014607
c     0.02920749     0.40455432     0.65402282
c     0.47079252     0.59544563     0.15402283
c     0.52917902     0.09492055     0.34602685
c     0.97082100     0.90507940     0.84602685
c     0.52511834     0.35957488     0.90238664
c     0.97488168     0.64042507     0.40238664
c     0.02506594     0.14053221     0.09762068
c     0.47493408     0.85946774     0.59762068
c     0.48760425     0.20776071     0.87135809
c     0.01239577     0.79223924     0.37135809
c     0.98762500     0.29233533     0.12864692
c     0.51237502     0.70766462     0.62864692
c     0.49438748     0.07009651     0.91506029
c     0.00561253     0.92990343     0.41506030
c     0.99444939     0.42997340     0.08492904
c     0.50555062     0.57002654     0.58492904
c     0.53513597     0.08202407     0.98909182
c     0.96486405     0.91797588     0.48909183
c     0.03518432     0.41804916     0.01090032
c     0.46481569     0.58195079     0.51090033
c     0.56607948     0.23661189     0.01916745
c     0.93392053     0.76338806     0.51916745
c     0.06610845     0.26346679     0.98083970
c     0.43389157     0.73653316     0.48083970
c     0.56335097     0.37554037     0.97626164
c     0.93664905     0.62445957     0.47626164
c     0.06331973     0.12454886     0.02375006
c     0.43668028     0.87545108     0.52375006
c     0.54676816     0.93183804     0.03522731
c     0.95323185     0.06816191     0.53522731
c     0.04681125     0.56821932     0.96474817
c     0.45318876     0.43178063     0.46474818
h     0.10349625     0.44832923     0.76815528
h     0.39650376     0.55167072     0.26815528
h     0.60352029     0.05145371     0.23187257
h     0.89647972     0.94854624     0.73187257
h     0.45417869     0.19726757     0.81416733
h     0.04582132     0.80273238     0.31416734
h     0.95423701     0.30283323     0.18583873
h     0.54576301     0.69716672     0.68583873
h     0.46888194     0.95057133     0.89158919
h     0.03111808     0.04942861     0.39158919
h     0.96897896     0.54949776     0.10839373
h     0.53102106     0.45050219     0.60839373
h     0.59375629     0.24929008     0.07679867
h     0.90624373     0.75070987     0.57679867
h     0.09381976     0.25078228     0.92321106
h     0.40618025     0.74921767     0.42321107
h     0.59041085     0.49508541     0.99940334
h     0.90958917     0.50491454     0.49940334
h     0.09035478     0.00500431     0.00062502
h     0.40964524     0.99499564     0.50062502
h     0.68473974     0.40028577     0.71865084
h     0.81526027     0.59971418     0.21865084
h     0.18480926     0.09983298     0.28130898
h     0.31519076     0.90016697     0.78130898
h     0.80134286     0.28256907     0.78785817
h     0.69865715     0.71743088     0.28785817
h     0.30175596     0.21748262     0.21213884
h     0.19824406     0.78251733     0.71213884
h     0.17604011     0.37959939     0.63853792
h     0.32395991     0.62040056     0.13853793
h     0.67603458     0.11967632     0.36155001
h     0.82396544     0.88032363     0.86155002
h     0.91923646     0.34866811     0.62043927
h     0.58076356     0.65133184     0.12043927
h     0.41928089     0.15078006     0.37961670
h     0.08071913     0.84921989     0.87961670
h     0.49006935     0.95378710     0.08953750
h     0.00993067     0.04621285     0.58953750
h     0.99001219     0.54623024     0.91045387
h     0.50998782     0.45376971     0.41045387
h     0.69600844     0.89362351     0.04133915
h     0.80399158     0.10637644     0.54133915
h     0.19605521     0.60647980     0.95859284
h     0.30394480     0.39352015     0.45859284
h     0.46914006     0.83011920     0.01073251
h     0.03085996     0.16988074     0.51073251
h     0.96926594     0.66992014     0.98925153
h     0.53073408     0.33007981     0.48925154

K_POINTS automatic
2 2 2 1 1 1

CELL_PARAMETERS cubic
   13.274959000000    -0.002541000000     0.000000000000
   -0.002887000000    15.514347000000     0.000000000000
    0.000000000000     0.000000000000    34.937056000000
