## FHIaims input file generated by critic2.
lattice_vector 3.9720000000       0.0000000000       0.0000000000       
lattice_vector 0.0000000000       3.9720000000       0.0000000000       
lattice_vector 0.0000000000       0.0000000000       4.9180000000       
atom_frac  0.0000000000       0.5000000000       0.2377368800       Pb
atom_frac  0.5000000000       0.0000000000       0.7622631200       Pb
atom_frac  0.0000000000       0.0000000000       0.0000000000       O 
atom_frac  0.5000000000       0.5000000000       0.0000000000       O 
