&control
 title='crystal',
 prefix='crystal',
 pseudo_dir='../..',
 forc_conv_thr=1.0D-4,
 etot_conv_thr=1.0D-5,
/
&system
 ibrav=0,
 nat=    32,
 ntyp=  3,
 ecutwfc=80.0,
 ecutrho=800.0,
 vdw_corr='xdm',
 nosym=.true.,
/
&electrons
 conv_thr = 1d-10,
/
&ions
/
&cell
 press_conv_thr=0.01,
/
ATOMIC_SPECIES
C    12.010700 c.UPF
H     1.007940 h.UPF
O    15.999400 o.UPF

ATOMIC_POSITIONS crystal
C             0.0575948154        0.0575382461        0.9166880058
C             0.4424020873        0.0575370411        0.4166841319
C             0.5575975829        0.4424634758        0.9166838892
C             0.9424030270        0.4424626236        0.4166854095
C             0.9424061574        0.9424597008        0.0833102458
C             0.5575977867        0.9424627275        0.5833168686
C             0.4424035562        0.5575380628        0.0833143625
C             0.0575964213        0.5575374992        0.5833149752
H             0.0959842716        0.3067922666        0.8464896243
H             0.4040150506        0.3067924440        0.3464896461
H             0.5959843787        0.1932072773        0.8464897886
H             0.9040155021        0.1932077913        0.3464902949
H             0.9040150507        0.6932076335        0.1535108990
H             0.5959847815        0.6932073760        0.6535112528
H             0.4040153693        0.8067926910        0.1535106787
H             0.0959841318        0.8067922435        0.6535103845
O             0.1572644558        0.9935049555        0.7676103848
O             0.3427374076        0.9935065284        0.2676137658
O             0.6572619591        0.5064928020        0.7676138941
O             0.8427368162        0.5064935163        0.2676129405
O             0.8427338263        0.0064958080        0.2323917495
O             0.6572619839        0.0064934167        0.7323862215
O             0.3427362213        0.4935062324        0.2323887557
O             0.1572628560        0.4935062031        0.7323876149
O             0.0322103165        0.2249388200        0.9577798579
O             0.4677895166        0.2249386694        0.4577806611
O             0.5322097239        0.2750607143        0.9577810215
O             0.9677896558        0.2750606469        0.4577804291
O             0.9677892358        0.7750622340        0.0422204914
O             0.5322099993        0.7750619340        0.5422196005
O             0.4677897401        0.7249386919        0.0422197641
O             0.0322099151        0.7249388670        0.5422199102

K_POINTS automatic
4 3 4  1 1 1

CELL_PARAMETERS bohr
  12.483915275  -0.000010585  -0.000014930
  -0.000012144  14.324354903   0.000006655
  -0.000013862   0.000005403  11.602343471
