&control
 title='crystal',
 prefix='crystal',
 pseudo_dir='.',
 calculation='vc-relax',
/
&system
 ibrav=0,
 celldm(1)=1.0,
 nat=    56,
 ntyp=  4,
 ecutwfc=60.0,
 ecutrho=600.0,
 xdm=.true.,
 xdm_a1=0.4073,
 xdm_a2=2.4150,
/
&electrons
 conv_thr = 1d-8,
/
&ions
/
&cell
/
ATOMIC_SPECIES
h      1.007940 h.UPF
c     12.010700 c.UPF
n     14.006700 n.UPF
o     15.999400 o.UPF

ATOMIC_POSITIONS crystal
c     0.11653017     0.18852353     0.85615951
c     0.88347070     0.68851946     0.64383167
c     0.61652744     0.31147875     0.14383968
c     0.38347343     0.81147468     0.35615150
c     0.08276895     0.24003542     0.11060388
c     0.91723192     0.74003135     0.38938730
c     0.58276847     0.25996727     0.88939478
c     0.41723240     0.75996319     0.61059640
c     0.07684534     0.40380731     0.12868560
c     0.92315553     0.90380324     0.37130559
c     0.57684509     0.09619529     0.87131584
c     0.42315578     0.59619121     0.62867534
h     0.96655957     0.19981219     0.16218743
h     0.03344130     0.69980811     0.33780376
h     0.46655896     0.30019100     0.83780949
h     0.53344191     0.80018692     0.66218169
h     0.03999692     0.43410867     0.30911091
h     0.96000395     0.93410459     0.19088027
h     0.53999639     0.06589345     0.69089040
h     0.46000448     0.56588937     0.80910078
h     0.99014357     0.44335647     0.00124991
h     0.00985730     0.94335240     0.49874127
h     0.49014442     0.05664687     0.99875196
h     0.50985645     0.55664280     0.50123922
h     0.30943995     0.23001037     0.27109494
h     0.69056092     0.73000629     0.22889624
h     0.80943915     0.26998884     0.72890545
h     0.19056172     0.76998476     0.77108573
h     0.15217202     0.19529319     0.45470439
h     0.84782885     0.69528912     0.04528679
h     0.65217142     0.30470607     0.54529423
h     0.34782945     0.80470200     0.95469695
h     0.21931668     0.07153403     0.25963635
h     0.78068419     0.57152996     0.24035483
h     0.71931775     0.42846634     0.74035910
h     0.28068312     0.92846227     0.75963208
h     0.27174141     0.49674139     0.22715799
h     0.72825946     0.99673731     0.27283319
h     0.77174094     0.00326038     0.77284344
h     0.22825993     0.50325630     0.72714774
n     0.19898005     0.18135929     0.28305395
n     0.80102082     0.68135522     0.21693723
n     0.69897987     0.31864049     0.71694487
n     0.30102100     0.81863642     0.78304631
o     0.23547358     0.11088430     0.82192634
o     0.76452729     0.61088022     0.67806484
o     0.73547200     0.38911997     0.17807177
o     0.26452887     0.88911590     0.32191941
o     0.02146456     0.23070309     0.69543921
o     0.97853631     0.73069902     0.80455197
o     0.52146490     0.26930000     0.30455859
o     0.47853597     0.76929593     0.19543259
o     0.22607888     0.46758257     0.07427970
o     0.77392199     0.96757849     0.42571148
o     0.72608015     0.03242060     0.92572106
o     0.27392072     0.53241653     0.57427013

K_POINTS automatic
2 2 2 1 1 1

CELL_PARAMETERS cubic
   16.116099000000     0.000025000000    -0.000006000000
    0.000027000000    17.573181000000    -0.000031000000
   -0.000003000000    -0.000018000000    10.604081000000
