&control
 title='crystal',
 prefix='crystal',
 pseudo_dir='.',
 calculation='vc-relax',
/
&system
 ibrav=0,
 celldm(1)=1.0,
 nat=    88,
 ntyp=  4,
 ecutwfc=60.0,
 ecutrho=600.0,
 xdm=.true.,
 xdm_a1=0.4073,
 xdm_a2=2.4150,
/
&electrons
 conv_thr = 1d-8,
/
&ions
/
&cell
/
ATOMIC_SPECIES
h      1.007940 h.UPF
c     12.010700 c.UPF
n     14.006700 n.UPF
o     15.999400 o.UPF

ATOMIC_POSITIONS crystal
o     0.11306681     0.96746727     0.41303156
o     0.88693321     0.46746726     0.58696843
o     0.18058408     0.35220038     0.36324135
o     0.81941595     0.85220037     0.63675864
n     0.36605452     0.76019677     0.42109608
n     0.63394551     0.26019676     0.57890391
h     0.29361276     0.61991700     0.39638629
h     0.70638726     0.11991699     0.60361370
h     0.46912943     0.69055366     0.41677868
h     0.53087060     0.19055365     0.58322131
h     0.35422262     0.79418254     0.49347161
h     0.64577740     0.29418253     0.50652838
c     0.20268385     0.11786622     0.38353092
c     0.79731617     0.61786621     0.61646906
c     0.34574993     0.00677237     0.36710095
c     0.65425009     0.50677236     0.63289903
h     0.42771637     0.13556460     0.39841310
h     0.57228366     0.63556459     0.60158689
c     0.36360567     0.97278013     0.25807154
c     0.63639436     0.47278012     0.74192845
h     0.44925389     0.83487448     0.25463481
h     0.55074614     0.33487447     0.74536517
c     0.40969530     0.22820880     0.21679247
c     0.59030472     0.72820879     0.78320752
h     0.33103853     0.37268953     0.22914727
h     0.66896150     0.87268952     0.77085272
h     0.50624838     0.28786580     0.25966961
h     0.49375165     0.78786579     0.74033038
c     0.43088880     0.22301481     0.10909576
c     0.56911122     0.72301480     0.89090422
h     0.47136576     0.40712077     0.08634087
h     0.52863427     0.90712076     0.91365912
h     0.33275675     0.18746171     0.06405445
h     0.66724327     0.68746170     0.93594553
h     0.50503904     0.07439359     0.09214191
h     0.49496099     0.57439358     0.90785808
c     0.23279012     0.86308088     0.20121104
c     0.76720991     0.36308087     0.79878895
h     0.19298785     0.69772980     0.23830228
h     0.80701217     0.19772979     0.76169771
h     0.25449508     0.80120632     0.12873307
h     0.74550495     0.30120631     0.87126692
h     0.14956599     0.00700424     0.19256215
h     0.85043404     0.50700423     0.80743784
o     0.62717386     0.57279055     0.40939357
o     0.37282616     0.07279054     0.59060642
o     0.70689460     0.97067738     0.38510841
o     0.29310542     0.47067737     0.61489158
n     0.89452570     0.38666396     0.39217995
n     0.10547433     0.88666395     0.60782004
h     0.83263101     0.22291385     0.37913761
h     0.16736901     0.72291384     0.62086238
h     0.99810991     0.35151043     0.37880392
h     0.00189012     0.85151042     0.62119607
h     0.89647711     0.42318608     0.46678889
h     0.10352292     0.92318607     0.53321110
c     0.71586979     0.73075849     0.38115426
c     0.28413023     0.23075848     0.61884573
c     0.83920696     0.61249619     0.33437168
c     0.16079306     0.11249618     0.66562831
h     0.92419450     0.75234775     0.33698173
h     0.07580552     0.25234774     0.66301826
c     0.79374926     0.53308564     0.22861443
c     0.20625076     0.03308563     0.77138556
h     0.70886416     0.39326401     0.23138180
h     0.29113587     0.89326400     0.76861819
c     0.91315619     0.40324078     0.18132863
c     0.08684384     0.90324077     0.81867136
h     0.00540988     0.52726239     0.19001229
h     0.99459014     0.02726238     0.80998770
h     0.94326707     0.22627844     0.22060156
h     0.05673296     0.72627843     0.77939843
c     0.87785601     0.34208388     0.07379350
c     0.12214402     0.84208387     0.92620649
h     0.95870218     0.22194083     0.04665401
h     0.04129784     0.72194082     0.95334597
h     0.86979839     0.51606961     0.02955227
h     0.13020164     0.01606960     0.97044772
h     0.77837647     0.23979610     0.06052887
h     0.22162356     0.73979609     0.93947112
c     0.73807557     0.76449572     0.16972825
c     0.26192446     0.26449571     0.83027173
h     0.66316222     0.87396781     0.20727620
h     0.33683780     0.37396780     0.79272379
h     0.68661608     0.70596311     0.09924950
h     0.31338394     0.20596310     0.90075049
h     0.82371751     0.89345588     0.15653799
h     0.17628252     0.39345587     0.84346200

K_POINTS automatic
2 2 2 1 1 1

CELL_PARAMETERS cubic
   18.233446000000     0.000000000000     0.070507000000
    0.000000000000     9.891328000000     0.000000000000
   -2.712923000000     0.000000000000    26.059515000000
