&control
 title='crystal',
 prefix='crystal',
 pseudo_dir='.',
 calculation='vc-relax',
/
&system
 ibrav=0,
 celldm(1)=1.0,
 nat=    92,
 ntyp=  5,
 ecutwfc=60.0,
 ecutrho=600.0,
 xdm=.true.,
 xdm_a1=0.4073,
 xdm_a2=2.4150,
/
&electrons
 conv_thr = 1d-8,
/
&ions
/
&cell
/
ATOMIC_SPECIES
h      1.007940 h.UPF
c     12.010700 c.UPF
n     14.006700 n.UPF
o     15.999400 o.UPF
cl    35.453000 cl.UPF

ATOMIC_POSITIONS crystal
cl    0.35245381     0.31793387     0.86621196
cl    0.85245383     0.18206613     0.13378803
cl    0.64754623     0.81793387     0.63378803
cl    0.14754621     0.68206613     0.36621196
cl    0.67152019     0.31701216     0.63549162
cl    0.17152021     0.18298784     0.36450838
cl    0.32847985     0.81701216     0.86450838
cl    0.82847982     0.68298784     0.13549162
cl    0.06565536     0.12075195     0.68806835
cl    0.56565538     0.37924805     0.31193164
cl    0.93434468     0.62075195     0.81193164
cl    0.43434465     0.87924805     0.18806835
n     0.72020330     0.11509404     0.90248108
n     0.22020332     0.38490596     0.09751892
n     0.27979674     0.61509404     0.59751892
n     0.77979672     0.88490596     0.40248108
o     0.99770073     0.28274465     0.98002468
o     0.49770075     0.21725535     0.01997532
o     0.00229931     0.78274465     0.51997532
o     0.50229928     0.71725535     0.48002468
o     0.18320842     0.03554913     0.98834383
o     0.68320844     0.46445087     0.01165617
o     0.81679162     0.53554913     0.51165617
o     0.31679160     0.96445087     0.48834383
h     0.28757358     0.11625495     0.00846476
h     0.78757360     0.38374505     0.99153524
h     0.71242646     0.61625495     0.49153524
h     0.21242644     0.88374505     0.50846476
c     0.02321436     0.12395464     0.96892188
c     0.52321438     0.37604536     0.03107812
c     0.97678568     0.62395464     0.53107812
c     0.47678566     0.87604536     0.46892188
c     0.87476099     0.01054522     0.93204874
c     0.37476101     0.48945478     0.06795126
c     0.12523905     0.51054522     0.56795126
c     0.62523902     0.98945478     0.43204874
h     0.96543311     0.94329839     0.89639494
h     0.46543313     0.55670161     0.10360506
h     0.03456693     0.44329839     0.60360506
h     0.53456690     0.05670161     0.39639494
c     0.78270801     0.86787843     0.97408179
c     0.28270803     0.63212157     0.02591821
c     0.21729203     0.36787843     0.52591821
c     0.71729200     0.13212157     0.47408179
h     0.69024506     0.77944801     0.94561539
h     0.19024507     0.72055199     0.05438461
h     0.30975498     0.27944801     0.55438461
h     0.80975496     0.22055199     0.44561539
h     0.68831472     0.92660184     0.01055652
h     0.18831474     0.57339816     0.98944348
h     0.31168532     0.42660184     0.48944348
h     0.81168529     0.07339816     0.51055652
h     0.90208625     0.79058825     0.99627609
h     0.40208627     0.70941175     0.00372391
h     0.09791379     0.29058825     0.50372391
h     0.59791376     0.20941175     0.49627609
c     0.71763965     0.16403068     0.84117198
c     0.21763966     0.33596932     0.15882802
c     0.28236039     0.66403068     0.65882802
c     0.78236037     0.83596932     0.34117198
c     0.54955922     0.25730879     0.81659840
c     0.04955924     0.24269121     0.18340160
c     0.45044082     0.75730879     0.68340160
c     0.95044080     0.74269121     0.31659840
c     0.53644486     0.30294078     0.75428991
c     0.03644487     0.19705922     0.24571009
c     0.46355518     0.80294078     0.74571009
c     0.96355516     0.69705922     0.25428991
h     0.40383425     0.37266900     0.73718799
h     0.90383427     0.12733100     0.26281201
h     0.59616579     0.87266900     0.76281201
h     0.09616576     0.62733100     0.23718799
c     0.69273011     0.25924621     0.71340539
c     0.19273013     0.24075379     0.28659461
c     0.30726993     0.75924621     0.78659461
c     0.80726990     0.74075379     0.21340539
c     0.86341175     0.17200670     0.73658368
c     0.36341176     0.32799330     0.26341632
c     0.13658829     0.67200670     0.76341632
c     0.63658827     0.82799330     0.23658368
c     0.87574665     0.12536030     0.79920835
c     0.37574667     0.37463970     0.20079165
c     0.12425339     0.62536030     0.70079165
c     0.62425336     0.87463970     0.29920835
h     0.01262616     0.06031716     0.81522828
h     0.51262617     0.43968284     0.18477171
h     0.98737388     0.56031716     0.68477171
h     0.48737386     0.93968284     0.31522828
h     0.60023023     0.15066309     0.92944040
h     0.10023025     0.34933691     0.07055960
h     0.39976981     0.65066309     0.57055960
h     0.89976978     0.84933691     0.42944040

K_POINTS automatic
2 2 2 1 1 1

CELL_PARAMETERS cubic
   12.473883000000     0.000000000000     0.000000000000
    0.000000000000    14.347329000000     0.000000000000
    0.000000000000     0.000000000000    40.553433000000
