%nprocs=4
%mem=4GB
#p pbepbe aug-cc-pvtz output=wfx scf=(conver=6) int=(grid=ultrafine)

title

0 1
c 0.000000000000000 0.000000000000000 0.619074307648422
c 0.000000000000000 1.268231356064456 -0.229766898326513
c 0.000000000000000 -1.268231356064456 -0.229766898326513
h 0.877100456286505 0.000000000000000 1.276339399936593
h -0.877100456286505 0.000000000000000 1.276339399936593
h 0.000000000000000 2.167883608692156 0.392479292487195
h -0.883888853531391 1.304852366376847 -0.874294473960736
h 0.883888853531391 1.304852366376847 -0.874294473960736
h 0.000000000000000 -2.167883608692156 0.392479292487195
h -0.883888853531391 -1.304852366376847 -0.874294473960736
h 0.883888853531391 -1.304852366376847 -0.874294473960736

AM3.wfx

