## FHIaims input file generated by critic2.
lattice_vector 3.7699999980       0.0000000000       0.0000000000       
lattice_vector -1.8850000010      3.2649157717       0.0000000000       
lattice_vector 0.0000000000       0.0000000000       21.1280000000      
atom_frac  0.3333347900       0.6666673900       0.0725104100       Se
atom_frac  0.6666665100       0.3333332500       0.9274895900       Se
atom_frac  0.0000000000       0.0000000000       0.0000000000       Zr
