## FHIaims input file generated by critic2.
lattice_vector 3.5189999949       0.0000000000       0.0000000000       
lattice_vector -1.7595000026      3.0475433944       0.0000000000       
lattice_vector 0.0000000000       0.0000000000       13.1640000000      
atom_frac  0.3333340600       0.6666670300       0.2500000000       Mo
atom_frac  0.6666681100       0.3333340600       0.7500000000       Mo
atom_frac  0.6666681100       0.3333340600       0.1174035200       Te
atom_frac  0.6666681100       0.3333340600       0.3825964800       Te
atom_frac  0.3333340600       0.6666670300       0.6174035200       Te
atom_frac  0.3333340600       0.6666670300       0.8825964800       Te
