%nprocs=4
%mem=4GB
#p pbepbe aug-cc-pvtz output=wfx scf=(conver=6) int=(grid=ultrafine)

title

0 1
c 1.758529501402286 0.000000000000000 2.192201435270850
al 0.000000000000000 0.000000000000000 1.313722588132887
c -1.758529501402286 0.000000000000000 2.192201435270850
h 0.000000000000000 1.148125727424258 0.000000000000000
al 0.000000000000000 0.000000000000000 -1.313722588132887
c 1.758529501402286 0.000000000000000 -2.192201435270850
h 0.000000000000000 -1.148125727424258 0.000000000000000
c -1.758529501402286 0.000000000000000 -2.192201435270850
h -1.880478329124946 -0.877800447886595 -2.830523137187784
h -2.579663219918635 0.000000000000000 -1.473838202942391
h -1.880478329124946 0.877800447886595 -2.830523137187784
h 1.880478329124946 -0.877800447886595 -2.830523137187784
h 1.880478329124946 0.877800447886595 -2.830523137187784
h 2.579663219918635 0.000000000000000 -1.473838202942391
h -1.880478329124946 -0.877800447886595 2.830523137187784
h -1.880478329124946 0.877800447886595 2.830523137187784
h -2.579663219918635 0.000000000000000 1.473838202942391
h 1.880478329124946 -0.877800447886595 2.830523137187784
h 2.579663219918635 0.000000000000000 1.473838202942391
h 1.880478329124946 0.877800447886595 2.830523137187784

al2me4.wfx

