%nprocs=4
%mem=4GB
#p pbepbe aug-cc-pvtz output=wfx scf=(conver=6) int=(grid=ultrafine)

title

0 1
al 0.000000000000000 0.000000000000000 0.000000000000000
br 1.118906924259937 1.938003641758831 0.000000000000000
br 1.118906924259937 -1.938003641758831 0.000000000000000
br -2.237813848519874 0.000000000000000 0.000000000000000

albr3.wfx

