&control
 title='crystal',
 prefix='crystal',
 pseudo_dir='..',
/
&system
 ibrav=0,
 celldm(1)=1.0,
 nat=8,
 ntyp=1,
 ecutwfc=80.0,
 ecutrho=800.0,
 xdm=.true.,
 xdm_a1=0.6754,
 xdm_a2=1.4651,
 input_dft='b86bpbex',
 exx_fraction=0.25,
/
&electrons
 conv_thr = 1d-8,
/
ATOMIC_SPECIES
cl    35.453000 cl.UPF

ATOMIC_POSITIONS crystal
cl       0.000000000   0.000000000   0.000000000
cl       0.500000000   0.500000000   0.000000000
cl       0.000000000   0.000000000   0.500000000
cl       0.500000000   0.500000000   0.500000000
cl       0.000000000   0.697606685   0.249997257
cl       0.500000000   0.197611385   0.250002942
cl       0.000000000   0.302393315   0.750002743
cl       0.500000000   0.802388615   0.749997058

K_POINTS automatic
4 4 4 1 1 1

CELL_PARAMETERS 
  12.119024044   0.000000000   0.000000000
   0.000000000   8.486640568   0.000023315
   0.000000000   0.000043482  13.903177603
