%nprocs=4
%mem=4GB
#p pbepbe aug-cc-pvtz output=wfx scf=(conver=6) int=(grid=ultrafine)

title

0 1
al 0.000000000000000 0.000000000000000 0.000000000000000
cl 1.038102747016006 1.798046701308543 0.000000000000000
cl 1.038102747016006 -1.798046701308543 0.000000000000000
cl -2.076205494032012 0.000000000000000 0.000000000000000

alcl3.wfx

