%nprocs=4
%mem=4GB
#p pbepbe aug-cc-pvtz output=wfx scf=(conver=6) int=(grid=ultrafine)

title

0 1
c 0.000000000000000 -1.730008350712033 0.242608674559418
al 0.000000000000000 0.000000000000000 -0.697389170566210
c 0.000000000000000 1.730008350712033 0.242608674559418
h 0.000000000000000 0.000000000000000 -2.285357191541334
h 0.000000000000000 -1.633961926042256 1.328442812567421
h 0.873442650124887 -2.323763968963156 -0.039839153036535
h -0.873442650124887 -2.323763968963156 -0.039839153036535
h -0.873442650124887 2.323763968963156 -0.039839153036535
h 0.873442650124887 2.323763968963156 -0.039839153036535
h 0.000000000000000 1.633961926042256 1.328442812567421

alme2.wfx

