&control
 title='crystal',
 prefix='crystal',
 pseudo_dir='.',
 calculation='vc-relax',
/
&system
 ibrav=0,
 celldm(1)=1.0,
 nat=   116,
 ntyp=  3,
 ecutwfc=60.0,
 ecutrho=600.0,
 xdm=.true.,
 xdm_a1=0.4073,
 xdm_a2=2.4150,
/
&electrons
 conv_thr = 1d-8,
/
&ions
/
&cell
/
ATOMIC_SPECIES
h      1.007940 h.UPF
c     12.010700 c.UPF
o     15.999400 o.UPF

ATOMIC_POSITIONS crystal
c     0.62467036     0.11384529     0.13222862
c     0.37532964     0.88615479     0.86777139
c     0.87582542     0.61390424     0.36779373
c     0.12417458     0.38609583     0.63220627
h     0.53155589     0.99530100     0.11572866
h     0.46844411     0.00469907     0.88427135
h     0.96901415     0.49542628     0.38430517
h     0.03098585     0.50457379     0.61569484
c     0.77288816     0.05471511     0.12589016
c     0.22711184     0.94528496     0.87410985
c     0.72764459     0.55466870     0.37413827
c     0.27235541     0.44533137     0.62586174
h     0.79365071     0.89065526     0.10375795
h     0.20634929     0.10934481     0.89624206
h     0.70697537     0.39062021     0.39629267
h     0.29302463     0.60937986     0.60370734
c     0.89404008     0.20259586     0.14939577
c     0.10595991     0.79740421     0.85060424
c     0.60640562     0.70244557     0.35061830
c     0.39359438     0.29755450     0.64938171
h     0.01033145     0.15543006     0.14593698
h     0.98966855     0.84457001     0.85406303
h     0.49013760     0.65520506     0.35408236
h     0.50986240     0.34479502     0.64591765
c     0.86569277     0.41057357     0.17894981
c     0.13430723     0.58942651     0.82105020
c     0.63462485     0.91041321     0.32104047
c     0.36537515     0.08958686     0.67895954
h     0.95919484     0.52529407     0.19984719
h     0.04080516     0.47470600     0.80015282
h     0.54105753     0.02504901     0.30012933
h     0.45894247     0.97495106     0.69987068
c     0.71745562     0.46962092     0.18471993
c     0.28254438     0.53037915     0.81528008
c     0.78283247     0.96955153     0.31526276
c     0.21716752     0.03044854     0.68473725
h     0.69671945     0.63103289     0.20877626
h     0.30328055     0.36896718     0.79122375
h     0.80346964     0.13097081     0.29119221
h     0.19653036     0.86902926     0.70880780
c     0.59543566     0.32179575     0.16191853
c     0.40456433     0.67820432     0.83808148
c     0.90493723     0.82183475     0.33808222
c     0.09506277     0.17816532     0.66191779
c     0.43778997     0.39606876     0.17002205
c     0.56221003     0.60393131     0.82997796
c     0.06255879     0.89616601     0.32997756
c     0.93744120     0.10383406     0.67002245
h     0.45192333     0.50728001     0.21970324
h     0.54807667     0.49272006     0.78029677
h     0.04838780     0.00738831     0.28030457
h     0.95161220     0.99261176     0.71969544
o     0.34226699     0.21175508     0.18334726
o     0.65773301     0.78824499     0.81665275
o     0.15812848     0.71185647     0.31664327
o     0.84187152     0.28814360     0.68335674
h     0.30731650     0.24227919     0.23197228
h     0.69268349     0.75772088     0.76802772
h     0.19310713     0.74243936     0.26802909
h     0.80689286     0.25756071     0.73197092
c     0.35693399     0.53370935     0.10040073
c     0.64306600     0.46629072     0.89959928
c     0.14336183     0.03381387     0.39960752
c     0.85663817     0.96618620     0.60039249
h     0.43739195     0.66680434     0.09207070
h     0.56260805     0.33319573     0.90792931
h     0.06288685     0.16695462     0.40791174
h     0.93711315     0.83304545     0.59208827
c     0.31932351     0.39310160     0.02779888
c     0.68067649     0.60689847     0.97220113
c     0.18091154     0.89326565     0.47222186
c     0.81908845     0.10673442     0.52777815
h     0.22848787     0.27262159     0.03151911
h     0.77151213     0.72737848     0.96848090
h     0.27173898     0.77270211     0.46852900
h     0.72826102     0.22729796     0.53147101
h     0.41991350     0.29908478     0.01909570
h     0.58008650     0.70091529     0.98090431
h     0.08029308     0.79935432     0.48091498
h     0.91970692     0.20064575     0.51908503
h     0.28145226     0.49707662     0.97726963
h     0.71854773     0.50292345     0.02273038
h     0.21875740     0.99727118     0.52274627
h     0.78124259     0.00272889     0.47725374
c     0.21373650     0.64593286     0.11916190
c     0.78626349     0.35406721     0.88083811
c     0.28660113     0.14593828     0.38088633
c     0.71339886     0.85406179     0.61911368
h     0.14070290     0.51293446     0.13454531
h     0.85929710     0.48706561     0.86545470
h     0.35970030     0.01289739     0.36556857
h     0.64029970     0.98710269     0.63443144
o     0.25394840     0.78127395     0.18713315
o     0.74605160     0.21872612     0.81286686
o     0.24648750     0.28119330     0.31288648
o     0.75351250     0.71880678     0.68711353
h     0.29672452     0.92735442     0.17572289
h     0.70327547     0.07264565     0.82427712
h     0.20370746     0.42731019     0.32425975
h     0.79629254     0.57268989     0.67574026
c     0.12288898     0.78210026     0.05396439
c     0.87711102     0.21789981     0.94603562
c     0.37730067     0.28222924     0.44609078
c     0.62269933     0.71777083     0.55390923
h     0.02501892     0.86138868     0.07155688
h     0.97498108     0.13861139     0.92844313
h     0.47517873     0.36152957     0.42852651
h     0.52482126     0.63847050     0.57147350
h     0.07943615     0.67764824     0.00420431
h     0.92056385     0.32235183     0.99579570
h     0.42073615     0.17785839     0.49587486
h     0.57926385     0.82214168     0.50412515
h     0.19414355     0.91293057     0.03596281
h     0.80585645     0.08706950     0.96403720
h     0.30595010     0.41304880     0.46404508
h     0.69404990     0.58695127     0.53595493

K_POINTS automatic
2 2 2 1 1 1

CELL_PARAMETERS cubic
   16.866131000000     0.001605000000    -0.022147000000
    0.001053000000    11.316325000000    -0.000267000000
   -6.694771000000    -0.001376000000    33.165757000000
