## FHIaims input file generated by critic2.
lattice_vector 3.7699999980       0.0000000000       0.0000000000       
lattice_vector -1.8850000010      3.2649157717       0.0000000000       
lattice_vector 0.0000000000       0.0000000000       9.1280000000       
atom_frac  0.3333347900       0.6666673900       0.1678352300       Se
atom_frac  0.6666665100       0.3333332500       0.8321647700       Se
atom_frac  0.0000000000       0.0000000000       0.0000000000       Zr
