## FHIaims input file generated by critic2.
lattice_vector 3.3899999924       0.0000000000       0.0000000000       
lattice_vector -1.6950000038      2.9358261166       0.0000000000       
lattice_vector 0.0000000000       0.0000000000       20.7000000000      
atom_frac  0.3333337800       0.6666668900       0.0688405800       S 
atom_frac  0.6666675500       0.3333337800       0.9311594200       S 
atom_frac  0.0000000000       0.0000000000       0.0000000000       Ti
