%nprocs=6
%mem=4GB
#p pbepbe aug-cc-pvtz output=wfx scf=(conver=6) int=(grid=ultrafine)

title

0 1
N   -0.21438600   -1.99302100    0.00015800
C   -1.48345800   -1.53764900    0.00003900
N   -1.89698700   -0.26976500   -0.00012600
C   -0.85909200    0.58333200   -0.00013000
C    0.50235100    0.25822400    0.00002500
C    0.81898700   -1.12041500    0.00016900
N    1.29302500    1.39536200   -0.00001800
C    0.43088400    2.38552800   -0.00019100
N   -0.88463000    1.96029900   -0.00026800
H   -2.24733500   -2.31700400    0.00005500
N    2.07815300   -1.59027900    0.00031300
H    2.83933700   -0.92853500    0.00035400
H    2.25762500   -2.59922600    0.00050700
H    0.68642800    3.44046900   -0.00027200
H   -1.71509300    2.53583600   -0.00040800
N    0.97942700    1.19725800    3.73770800
C    1.20581300   -0.19303700    3.76947000
N    0.13110700   -1.00897200    3.61839100
C   -1.10014600   -0.50384400    3.44535500
C   -1.33929000    0.92162700    3.41179800
C   -0.26100000    1.73378100    3.56338200
H    1.79752200    1.78095400    3.85271800
O    2.36556900   -0.59496500    3.93245000
N   -2.10968200   -1.36870600    3.30343200
H   -1.93702100   -2.39657400    3.32763900
H   -3.04817000   -1.02513900    3.17153500
H   -2.33685600    1.32922500    3.27160900
H   -0.32897100    2.82085300    3.55387300

ACHC_38_dimer.wfx

