%nprocs=6
%mem=4GB
#p pbepbe aug-cc-pvtz output=wfx scf=(conver=6) int=(grid=ultrafine)

title

0 1
N    0.95073000    1.19725800    3.87267800
C    1.17049300   -0.19303700    3.93563800
N    0.12727200   -1.00897200    3.63645800
C   -1.06791700   -0.50384400    3.29374900
C   -1.30006400    0.92162700    3.22723700
C   -0.25336400    1.73378100    3.52741500
H    1.74485700    1.78095400    4.10042500
O    2.29628000   -0.59496500    4.25843800
N   -2.04787600   -1.36870600    3.01270700
H   -1.88026400   -2.39657400    3.06070900
H   -2.95887400   -1.02513900    2.75148200
H   -2.26841100    1.32922500    2.94957700
H   -0.31935000    2.82085300    3.50853800

ACHC_36_monomerB.wfx

