%nprocs=6
%mem=4GB
#p pbepbe aug-cc-pvtz output=wfx scf=(conver=6) int=(grid=ultrafine)

title

0 1
N    0.25792300    1.53138600    3.40005800
C    1.15104600    0.44165700    3.40000400
N    0.61914000   -0.80760000    3.39996500
C   -0.71019900   -0.99182300    3.39997100
C   -1.63206900    0.12192800    3.40002300
C   -1.09513700    1.36972000    3.40006300
H    0.68153200    2.44995100    3.40009200
O    2.36625800    0.67915300    3.39999100
N   -1.16064900   -2.25054700    3.39992900
H   -0.49572400   -3.05353100    3.39987100
H   -2.15317400   -2.42686400    3.39992800
H   -2.70827400   -0.02876600    3.40003200
H   -1.69811100    2.27683600    3.40010600

ACHC_9_monomerB.wfx

