%nprocs=6
%mem=4GB
#p pbepbe aug-cc-pvtz output=wfx scf=(conver=6) int=(grid=ultrafine)

title

0 1
N    0.98906100   -0.80274200    3.40005800
C    1.21766400   -2.19303700    3.40000400
N    0.13239100   -3.00897200    3.39996500
C   -1.11096200   -2.50384400    3.39997100
C   -1.35244900   -1.07837300    3.40002300
C   -0.26355600   -0.26621900    3.40006300
H    1.81520000   -0.21904600    3.40009200
O    2.38881600   -2.59496500    3.39999100
N   -2.13042500   -3.36870600    3.39992900
H   -1.95607500   -4.39657400    3.39987100
H   -3.07813600   -3.02513900    3.39992800
H   -2.35981700   -0.67077500    3.40003200
H   -0.33218900    0.82085300    3.40010600

ACHC_15_monomerB.wfx

