%nprocs=6
%mem=4GB
#p pbepbe aug-cc-pvtz output=wfx scf=(conver=6) int=(grid=ultrafine)

title

0 1
N   -0.21438600   -1.99302100    0.00015800
C   -1.48345800   -1.53764900    0.00003900
N   -1.89698700   -0.26976500   -0.00012600
C   -0.85909200    0.58333200   -0.00013000
C    0.50235100    0.25822400    0.00002500
C    0.81898700   -1.12041500    0.00016900
N    1.29302500    1.39536200   -0.00001800
C    0.43088400    2.38552800   -0.00019100
N   -0.88463000    1.96029900   -0.00026800
H   -2.24733500   -2.31700400    0.00005500
N    2.07815300   -1.59027900    0.00031300
H    2.83933700   -0.92853500    0.00035400
H    2.25762500   -2.59922600    0.00050700
H    0.68642800    3.44046900   -0.00027200
H   -1.71509300    2.53583600   -0.00040800
N    0.92943300    1.19725800    3.26177600
C    1.14423100   -0.19303700    3.18353800
N    0.12439500   -1.00897200    3.55468700
C   -1.04397300   -0.50384400    3.97994400
C   -1.27087800    0.92162700    4.06258600
C   -0.24764000    1.73378100    3.69020100
H    1.70576200    1.78095400    2.97925100
O    2.24475000   -0.59496500    2.78296800
N   -2.00196900   -1.36870600    4.32858200
H   -1.83815300   -2.39657400    4.26889600
H   -2.89252600   -1.02513900    4.65271700
H   -2.21749200    1.32922500    4.40713500
H   -0.31211900    2.82085300    3.71371500

ACHC_44_dimer.wfx

