%nprocs=6
%mem=4GB
#p pbepbe aug-cc-pvtz output=wfx scf=(conver=6) int=(grid=ultrafine)

title

0 1
N    2.98906100    1.19725800    3.40005800
C    3.21766400   -0.19303700    3.40000400
N    2.13239100   -1.00897200    3.39996500
C    0.88903800   -0.50384400    3.39997100
C    0.64755100    0.92162700    3.40002300
C    1.73644400    1.73378100    3.40006300
H    3.81520000    1.78095400    3.40009200
O    4.38881600   -0.59496500    3.39999100
N   -0.13042500   -1.36870600    3.39992900
H    0.04392500   -2.39657400    3.39987100
H   -1.07813600   -1.02513900    3.39992800
H   -0.35981700    1.32922500    3.40003200
H    1.66781100    2.82085300    3.40010600

ACHC_34_monomerB.wfx

