%nprocs=6
%mem=4GB
#p pbepbe aug-cc-pvtz output=wfx scf=(conver=6) int=(grid=ultrafine)

title

0 1
N    0.98906100    1.12503500    4.00954100
C    1.21766400   -0.18139700    3.53398100
N    0.13239100   -0.94811200    3.25487800
C   -1.11096200   -0.47344900    3.42764800
C   -1.35244900    0.86603800    3.91523700
C   -0.26355600    1.62920000    4.19304700
H    1.81520000    1.67351800    4.20920900
O    2.38881600   -0.55908100    3.39650200
N   -2.13042500   -1.28613900    3.13180800
H   -1.95607500   -2.25199900    2.78020200
H   -3.07813600   -0.96329100    3.24931400
H   -2.35981700    1.24905200    4.05465200
H   -0.33218900    2.65069800    4.56488800

ACHC_54_monomerB.wfx

