%nprocs=6
%mem=4GB
#p pbepbe aug-cc-pvtz output=wfx scf=(conver=6) int=(grid=ultrafine)

title

0 1
N    0.95076200    1.19725800    3.32743400
C    1.17049500   -0.19303700    3.26437000
N    0.12725300   -1.00897200    3.56347400
C   -1.06793300   -0.50384400    3.90619500
C   -1.30005100    0.92162700    3.97280800
C   -0.25332900    1.73378100    3.67270600
H    1.74490800    1.78095400    3.09975200
O    2.29627500   -0.59496500    2.94154400
N   -2.04791600   -1.36870600    4.18715600
H   -1.88033600   -2.39657400    4.13904300
H   -2.95891400   -1.02513900    4.44838000
H   -2.26839300    1.32922500    4.25048400
H   -0.31929100    2.82085300    3.69166600

ACHC_43_monomerB.wfx

