%nprocs=6
%mem=4GB
#p pbepbe aug-cc-pvtz output=wfx scf=(conver=6) int=(grid=ultrafine)

title

0 1
N    0.18906100    1.19725800    3.40005800
C    0.41766400   -0.19303700    3.40000400
N   -0.66760900   -1.00897200    3.39996500
C   -1.91096200   -0.50384400    3.39997100
C   -2.15244900    0.92162700    3.40002300
C   -1.06355600    1.73378100    3.40006300
H    1.01520000    1.78095400    3.40009200
O    1.58881600   -0.59496500    3.39999100
N   -2.93042500   -1.36870600    3.39992900
H   -2.75607500   -2.39657400    3.39987100
H   -3.87813600   -1.02513900    3.39992800
H   -3.15981700    1.32922500    3.40003200
H   -1.13218900    2.82085300    3.40010600

ACHC_28_monomerB.wfx

