%nprocs=6
%mem=4GB
#p pbepbe aug-cc-pvtz output=wfx scf=(conver=6) int=(grid=ultrafine)

title

0 1
N    0.98906100    1.59725800    3.40005800
C    1.21766400    0.20696300    3.40000400
N    0.13239100   -0.60897200    3.39996500
C   -1.11096200   -0.10384400    3.39997100
C   -1.35244900    1.32162700    3.40002300
C   -0.26355600    2.13378100    3.40006300
H    1.81520000    2.18095400    3.40009200
O    2.38881600   -0.19496500    3.39999100
N   -2.13042500   -0.96870600    3.39992900
H   -1.95607500   -1.99657400    3.39987100
H   -3.07813600   -0.62513900    3.39992800
H   -2.35981700    1.72922500    3.40003200
H   -0.33218900    3.22085300    3.40010600

ACHC_20_monomerB.wfx

