%nprocs=4
%mem=2GB
#p pbepbe aug-cc-pvtz output=wfx scf=(conver=6) int=(grid=ultrafine)
 
title
 
0 1
N	0.000000 0.000000 0.115013
H	0.000000 0.939752 -0.268364
H	0.813850 -0.469876 -0.268364
H	-0.813850 -0.469876 -0.268364

ammonia.wfx


