%nprocs=4
%mem=2GB
#p pbepbe aug-cc-pvtz output=wfx scf=(conver=6) int=(grid=ultrafine)
 
title
 
0 1
N	0.000000 0.000000 -2.149985
H	0.000000 0.939652 -2.534401
H	0.813762 -0.469826 -2.534401
H	-0.813762 -0.469826 -2.534401
F	0.000000 0.000000 0.545771
F	0.000000 0.000000 1.971240

Ammonia-F2.wfx


