%nprocs=4
%mem=2GB
#p pbepbe aug-cc-pvtz output=wfx scf=(conver=6) int=(grid=ultrafine)
 
title
 
0 1
N	0.000000 0.000000 -2.838451
H	0.000000 0.942687 -3.215383
H	0.816391 -0.471343 -3.215383
H	-0.816391 -0.471343 -3.215383
Cl	0.000000 0.000000 -0.150044
Cl	0.000000 0.000000 1.886239

Ammonia-Cl2.wfx


