%nprocs=4
%mem=2GB
#p pbepbe aug-cc-pvtz output=wfx scf=(conver=6) int=(grid=ultrafine)
 
title
 
0 1
Cl	0.000000 0.000000 1.005661
Cl	0.000000 0.000000 -1.005661

Cl2.wfx


