%nprocs=4
%mem=2GB
#p pbepbe aug-cc-pvtz output=wfx scf=(conver=6) int=(grid=ultrafine)
 
title
 
0 1
C	-0.000000 0.000000 0.668078
C	0.000000 0.000000 -0.668078
H	-0.000000 0.924533 1.234919
H	-0.000000 -0.924533 1.234919
H	0.000000 0.924533 -1.234919
H	-0.000000 -0.924533 -1.234919

ethylene.wfx


