%nprocs=4
%mem=2GB
#p pbepbe aug-cc-pvtz output=wfx scf=(conver=6) int=(grid=ultrafine)
 
title
 
0 1
F	-0.000000 0.000000 2.425920
Cl	-0.000000 0.000000 0.769574
N	0.000000 0.000000 -1.839519
C	0.000000 0.000000 -2.995731
H	0.000000 0.000000 -4.065026

HCN-ClF.wfx


