%nprocs=4
%mem=2GB
#p pbepbe aug-cc-pvtz output=wfx scf=(conver=6) int=(grid=ultrafine)
 
title
 
0 1
O	0.000000 0.000000 0.118536
H	0.000000 0.757528 -0.474145
H	0.000000 -0.757528 -0.474145

water.wfx


