## FHIaims input file generated by critic2.
lattice_vector 3.4420000002       0.0000000000       0.0000000000       
lattice_vector -1.7209999999      2.9808594399       0.0000000000       
lattice_vector 0.0000000000       0.0000000000       20.5400000000      
atom_frac  0.0000000000       0.0000000000       0.2500000000       Nb
atom_frac  0.0000000000       0.0000000000       0.7500000000       Nb
atom_frac  0.3333334000       0.6666667000       0.1681908500       Se
atom_frac  0.3333334000       0.6666667000       0.3318091500       Se
atom_frac  0.6666667900       0.3333334000       0.6681908500       Se
atom_frac  0.6666667900       0.3333334000       0.8318091500       Se
