&control
 title='crystal',
 prefix='crystal',
 pseudo_dir='.',
 calculation='vc-relax',
/
&system
 ibrav=0,
 celldm(1)=1.0,
 nat=    98,
 ntyp=  3,
 ecutwfc=60.0,
 ecutrho=600.0,
 xdm=.true.,
 xdm_a1=0.4073,
 xdm_a2=2.4150,
/
&electrons
 conv_thr = 1d-8,
/
&ions
/
&cell
/
ATOMIC_SPECIES
h      1.007940 h.UPF
c     12.010700 c.UPF
o     15.999400 o.UPF

ATOMIC_POSITIONS crystal
c     0.13822972     0.35156417     0.01495190
c     0.86177031     0.85156419     0.98504810
c     0.09038251     0.35887766     0.92259769
c     0.90961752     0.85887767     0.07740231
c     0.13832005     0.19572734     0.86527646
c     0.86167998     0.69572735     0.13472354
c     0.23120139     0.02550238     0.90217038
c     0.76879864     0.52550239     0.09782962
c     0.28139566     0.02056355     0.99538236
c     0.71860437     0.52056356     0.00461764
c     0.38595480     0.83556072     0.03018671
c     0.61404523     0.33556073     0.96981329
c     0.47132515     0.87877297     0.12347226
c     0.52867488     0.37877299     0.87652774
c     0.36114333     0.97151406     0.18796467
c     0.63885670     0.47151408     0.81203533
c     0.29807714     0.19458733     0.15336334
c     0.70192289     0.69458735     0.84663666
c     0.23569143     0.18557310     0.05335728
c     0.76430860     0.68557312     0.94664272
c     0.18393543     0.28333159     0.21716497
c     0.81606460     0.78333161     0.78283503
c     0.26226314     0.30482498     0.31387441
c     0.73773689     0.80482500     0.68612559
c     0.32692744     0.08295045     0.35335598
c     0.67307259     0.58295047     0.64664402
c     0.43536826     0.97962217     0.28650109
c     0.56463177     0.47962218     0.71349891
c     0.58484470     0.11870969     0.30147435
c     0.41515533     0.61870971     0.69852565
c     0.60176429     0.17312991     0.40319915
c     0.39823574     0.67312993     0.59680085
c     0.44052710     0.15036666     0.43331565
c     0.55947293     0.65036668     0.56668435
c     0.19847956     0.92531150     0.37730214
c     0.80152047     0.42531152     0.62269786
c     0.06997047     0.02682385     0.42719845
c     0.93002956     0.52682386     0.57280155
c     0.15065593     0.06775426     0.71304694
c     0.84934410     0.56775428     0.28695306
o     0.08917770     0.21844700     0.77430327
o     0.91082233     0.71844702     0.22569673
o     0.47048247     0.75547983     0.31114375
o     0.52951756     0.25547985     0.68885625
o     0.40615896     0.18454306     0.51102138
o     0.59384107     0.68454308     0.48897862
h     0.09840905     0.48110392     0.05741449
h     0.90159098     0.98110394     0.94258551
h     0.01754810     0.49185529     0.89471275
h     0.98245193     0.99185530     0.10528725
h     0.26991863     0.89591380     0.85920956
h     0.73008140     0.39591381     0.14079044
h     0.46929562     0.80150896     0.98087606
h     0.53070441     0.30150898     0.01912394
h     0.31588417     0.68579365     0.03281784
h     0.68411586     0.18579367     0.96718216
h     0.52399838     0.72721396     0.15113586
h     0.47600165     0.22721397     0.84886414
h     0.56668950     0.99460178     0.11731495
h     0.43331053     0.49460180     0.88268505
h     0.26183612     0.85853342     0.18786013
h     0.73816391     0.35853344     0.81213987
h     0.39645106     0.31064184     0.15782602
h     0.60354897     0.81064186     0.84217398
h     0.08287194     0.17430601     0.21558335
h     0.91712809     0.67430603     0.78441665
h     0.14083826     0.44545954     0.19516363
h     0.85916177     0.94545956     0.80483637
h     0.35494290     0.42694370     0.31328304
h     0.64505713     0.92694372     0.68671696
h     0.18204218     0.37084611     0.35982543
h     0.81795785     0.87084613     0.64017457
h     0.50650403     0.74511254     0.37638606
h     0.49349600     0.24511256     0.62361394
h     0.57241409     0.26970972     0.26130977
h     0.42758594     0.76970974     0.73869023
h     0.68346067     0.02771212     0.27988068
h     0.31653936     0.52771214     0.72011932
h     0.64839811     0.33633642     0.42051841
h     0.35160192     0.83633644     0.57948159
h     0.67597695     0.05503838     0.44316790
h     0.32402308     0.55503839     0.55683210
h     0.25264883     0.79115866     0.41824479
h     0.74735120     0.29115868     0.58175521
h     0.14713972     0.84907436     0.31415431
h     0.85286031     0.34907438     0.68584569
h     0.99401579     0.89865893     0.44974925
h     0.00598424     0.39865895     0.55025075
h     0.11779628     0.11732625     0.48754488
h     0.88220375     0.61732627     0.51245512
h     0.99697115     0.13899841     0.38372075
h     0.00302888     0.63899842     0.61627925
h     0.09701830     0.11052464     0.64531756
h     0.90298173     0.61052466     0.35468244
h     0.27681458     0.08575836     0.71489835
h     0.72318545     0.58575838     0.28510165
h     0.12093663     0.89773184     0.72850640
h     0.87906340     0.39773186     0.27149360

K_POINTS automatic
2 2 2 1 1 1

CELL_PARAMETERS cubic
   16.416455000000     0.000000000000     0.049193000000
    0.000000000000    11.539877000000     0.000000000000
   -2.855326000000     0.000000000000    27.785858000000
