&control
 title='crystal',
 prefix='crystal',
 pseudo_dir='..',
 calculation='vc-relax',
 etot_conv_thr=1.0D-5,
/
&system
 ibrav=0,
 celldm(1)=1.0,
 nat=    56,
 ntyp=  5,
 ecutwfc=80.0,
 ecutrho=800.0,
 xdm=.true.,
 xdm_a1=0.6512,
 xdm_a2=1.4633,
/
&electrons
 conv_thr = 1d-8,
/
&ions
/
&cell
/
ATOMIC_SPECIES
h      1.007940 h.UPF
c     12.010700 c.UPF
n     14.006700 n.UPF
o     15.999400 o.UPF
s     32.064999 s.UPF

ATOMIC_POSITIONS crystal
c        0.499057633   0.613576426   0.162741062
c        1.000947535   0.113573219   0.837262160
c        0.500942367   0.386423574   0.837258938
c       -0.000947535   0.886426781   0.162737840
c        0.611001714   0.608316164   0.300320059
c        0.888997096   0.108318834   0.699681267
c        0.388998286   0.391683836   0.699679941
c        0.111002904   0.891681166   0.300318733
c        0.747821952   0.398420606   0.343725453
c        0.752178798   0.898424857   0.656277658
c        0.252178048   0.601579394   0.656274547
c        0.247821202   0.101575143   0.343722342
h        0.396189592   0.749761807   0.136048229
h        0.103813628   0.249760434   0.863955302
h        0.603810408   0.250238193   0.863951771
h        0.896186372   0.750239566   0.136044698
h        0.566757317   0.694987418   0.123807014
h        0.933246665   0.194982491   0.876196735
h        0.433242683   0.305012582   0.876192986
h        0.066753335   0.805017509   0.123803265
h        0.665480691   0.811586278   0.329092279
h        0.834522998   0.311584009   0.670913154
h        0.334519309   0.188413722   0.670907721
h        0.165477002   0.688415991   0.329086846
h        0.597435289   0.587674281   0.454031654
h        0.902560023   0.087676397   0.545965815
h        0.402564711   0.412325719   0.545968346
h        0.097439977   0.912323603   0.454034185
h        0.462973362   0.371136965   0.342992660
h        0.037025769   0.871142223   0.657006648
h        0.537026638   0.628863035   0.657007340
h        0.962974231   0.128857777   0.342993352
h        0.431812261   0.720055293   0.333165523
h        0.068184189   0.220054089   0.666833900
h        0.568187739   0.279944707   0.666834477
h        0.931815811   0.779945911   0.333166100
h        0.335286651   0.221080379   0.138310849
h        0.164719683   0.721083916   0.861689659
h        0.664713349   0.778919621   0.861689151
h        0.835280317   0.278916084   0.138310341
o        0.848381179   0.441081366   0.310705965
o        0.651620383   0.941083897   0.689295591
o        0.151618821   0.558918634   0.689294035
o        0.348379617   0.058916103   0.310704409
o        0.750286136   0.201646949   0.406396958
o        0.749713743   0.701644893   0.593603571
o        0.249713864   0.798353051   0.593603042
o        0.250286257   0.298355107   0.406396429
n        0.517648339   0.564092960   0.360318661
n        0.982362229   0.064094441   0.639689367
n        0.482351661   0.435907040   0.639681339
n        0.017637771   0.935905559   0.360310633
s        0.423052772   0.286576025   0.088539555
s        0.076951932   0.786573218   0.911461003
s        0.576947228   0.713423975   0.911460445
s        0.923048068   0.213426782   0.088538997

K_POINTS automatic
4 4 4 1 1 1

CELL_PARAMETERS cubic
  18.320861666  -0.000017646   0.062617667
  -0.000014557   9.300839900  -0.000025300
 -13.050775875  -0.000052498  20.818698469
