&control
 title='crystal',
 prefix='crystal',
 pseudo_dir='.',
 calculation='vc-relax',
/
&system
 ibrav=0,
 celldm(1)=1.0,
 nat=    48,
 ntyp=  5,
 ecutwfc=60.0,
 ecutrho=600.0,
 xdm=.true.,
 xdm_a1=0.4073,
 xdm_a2=2.4150,
/
&electrons
 conv_thr = 1d-8,
/
&ions
/
&cell
/
ATOMIC_SPECIES
h      1.007940 h.UPF
c     12.010700 c.UPF
n     14.006700 n.UPF
o     15.999400 o.UPF
cl    35.453000 cl.UPF

ATOMIC_POSITIONS crystal
cl    0.35412367     0.83324072     0.95900039
cl    0.64587632     0.16675927     0.04099959
n     0.71863840     0.14521784     0.66131515
n     0.28136159     0.85478215     0.33868483
o     0.18533143     0.43872437     0.60066187
o     0.81466856     0.56127561     0.39933811
h     0.30940337     0.42972803     0.51762703
h     0.69059662     0.57027195     0.48237295
o     0.52517053     0.58050468     0.61202292
o     0.47482946     0.41949530     0.38797706
o     0.21047097     0.64090346     0.82564193
o     0.78952901     0.35909652     0.17435805
o     0.75389777     0.23158118     0.72030679
o     0.24610222     0.76841880     0.27969320
o     0.56713811     0.16496201     0.57300337
o     0.43286187     0.83503798     0.42699662
c     0.30052942     0.51956680     0.65441283
c     0.69947056     0.48043318     0.34558716
c     0.12914919     0.53090054     0.77997665
c     0.87085080     0.46909944     0.22002334
h     0.87909248     0.54246018     0.77309602
h     0.12090751     0.45753980     0.22690397
c     0.21777636     0.41083301     0.86832278
c     0.78222363     0.58916697     0.13167721
h     0.07903278     0.41405865     0.95619480
h     0.92096720     0.58594133     0.04380519
h     0.46403326     0.40346466     0.87954534
h     0.53596672     0.59653532     0.12045465
h     0.17438674     0.32481103     0.83309984
h     0.82561324     0.67518895     0.16690015
c     0.09438238     0.76118014     0.77835384
c     0.90561761     0.23881985     0.22164615
c     0.14932477     0.86498381     0.83497907
c     0.85067522     0.13501617     0.16502091
c     0.03151437     0.99071197     0.79581642
c     0.96848562     0.00928801     0.20418357
h     0.06664683     0.06986868     0.84133929
h     0.93335316     0.93013130     0.15866069
c     0.85740359     0.01401861     0.69845459
c     0.14259640     0.98598137     0.30154539
c     0.80295570     0.91393660     0.63990735
c     0.19704429     0.08606338     0.36009263
h     0.66459117     0.93348193     0.56511375
h     0.33540881     0.06651805     0.43488624
c     0.92144939     0.78818210     0.68004144
c     0.07855059     0.21181789     0.31995855
h     0.86840422     0.71099865     0.63594135
h     0.13159576     0.28900133     0.36405864

K_POINTS automatic
2 2 2 1 1 1

CELL_PARAMETERS cubic
    8.273513000000    -0.009080000000     0.055908000000
    2.528799000000    19.726330000000     0.038766000000
    2.826953000000     3.138671000000    20.941664000000
