&control
 title='crystal',
 prefix='crystal',
 pseudo_dir='.',
 calculation='vc-relax',
/
&system
 ibrav=0,
 celldm(1)=1.0,
 nat=    88,
 ntyp=  3,
 ecutwfc=60.0,
 ecutrho=600.0,
 xdm=.true.,
 xdm_a1=0.4073,
 xdm_a2=2.4150,
/
&electrons
 conv_thr = 1d-8,
/
&ions
/
&cell
/
ATOMIC_SPECIES
h      1.007940 h.UPF
c     12.010700 c.UPF
o     15.999400 o.UPF

ATOMIC_POSITIONS crystal
c     0.91892163     0.16300406     0.84539892
c     0.58107840     0.83699598     0.34539893
c     0.08107361     0.66289610     0.65460362
c     0.41892641     0.33710393     0.15460363
h     0.92407215     0.26863933     0.80567532
h     0.57592788     0.73136071     0.30567533
h     0.07594463     0.76853180     0.69432670
h     0.42405540     0.23146823     0.19432671
c     0.69907130     0.77279257     0.83377927
c     0.80092873     0.22720746     0.33377928
c     0.30094363     0.27272459     0.66620984
c     0.19905640     0.72727544     0.16620985
h     0.56339688     0.81646943     0.79417852
h     0.93660314     0.18353060     0.29417853
h     0.43660145     0.31642828     0.70581086
h     0.06339858     0.68357175     0.20581087
c     0.08156626     0.79799713     0.88939193
c     0.41843377     0.20200290     0.38939194
c     0.91843255     0.29788273     0.61060350
c     0.58156747     0.70211730     0.11060351
h     0.24443363     0.86209017     0.89442989
h     0.25556640     0.13790986     0.39442990
h     0.75554512     0.36197284     0.60556627
h     0.74445491     0.63802719     0.10556628
c     0.68949220     0.16923211     0.88971566
c     0.81050782     0.83076793     0.38971567
c     0.31050576     0.66911953     0.61029038
c     0.18949427     0.33088050     0.11029039
c     0.90750103     0.85751396     0.83902543
c     0.59249900     0.14248607     0.33902543
c     0.09246975     0.35742053     0.66097163
c     0.40753027     0.64257950     0.16097164
c     0.94043331     0.01160170     0.79289850
c     0.55956671     0.98839833     0.29289850
c     0.05954014     0.51149525     0.70710349
c     0.44045989     0.48850478     0.20710350
h     0.81350706     0.02162802     0.74434218
h     0.68649297     0.97837201     0.24434219
h     0.18645744     0.52151982     0.75566281
h     0.31354258     0.47848022     0.25566282
h     0.11180757     0.01684104     0.76479447
h     0.38819246     0.98315899     0.26479448
h     0.88815520     0.51673595     0.73520214
h     0.61184483     0.48326409     0.23520215
c     0.66518932     0.63223001     0.87778997
c     0.83481070     0.36777002     0.37778998
c     0.33482330     0.13218067     0.62220376
c     0.16517672     0.86781936     0.12220377
h     0.50186407     0.56818542     0.87313398
h     0.99813596     0.43181461     0.37313399
h     0.49816878     0.06814282     0.62685598
h     0.00183125     0.93185721     0.12685599
c     0.04736315     0.65851750     0.93404312
c     0.45263687     0.34148254     0.43404313
c     0.95262333     0.15841243     0.56596070
c     0.54737670     0.84158761     0.06596071
h     0.18273040     0.61531998     0.97387998
h     0.31726963     0.38468005     0.47387999
h     0.81727384     0.11518737     0.52612464
h     0.68272619     0.88481266     0.02612465
c     0.83880766     0.57535952     0.92839038
c     0.66119237     0.42464051     0.42839039
c     0.16122010     0.07526466     0.57160972
c     0.33877993     0.92473537     0.07160973
h     0.81111894     0.46845662     0.96449985
h     0.68888109     0.53154341     0.46449986
h     0.18890502     0.96836663     0.53550752
h     0.31109501     0.03163340     0.03550753
o     0.10683594     0.16728055     0.90044989
o     0.39316408     0.83271948     0.40044990
o     0.89315895     0.66718000     0.59955348
o     0.60684108     0.33282004     0.09955349
o     0.67700243     0.17137800     0.96340986
o     0.82299760     0.82862203     0.46340987
o     0.32299749     0.67125422     0.53659270
o     0.17700254     0.32874581     0.03659271
o     0.51257740     0.17432246     0.83968059
o     0.98742262     0.82567757     0.33968060
o     0.48742080     0.67420173     0.66032401
o     0.01257923     0.32579830     0.16032402
h     0.07205604     0.22940628     0.94952970
h     0.42794399     0.77059376     0.44952971
h     0.92794580     0.72930348     0.55047367
h     0.57205422     0.27069655     0.05047368
h     0.35590688     0.17672514     0.86884757
h     0.14409315     0.82327489     0.36884758
h     0.64409239     0.67661388     0.63115716
h     0.85590764     0.32338615     0.13115717

K_POINTS automatic
2 2 2 1 1 1

CELL_PARAMETERS cubic
   10.946736000000    -0.000162000000     0.000000000000
   -0.000233000000    15.750038000000     0.000000000000
    0.000000000000     0.000000000000    31.482455000000
