&control
 title='crystal',
 prefix='crystal',
 pseudo_dir='../..',
 forc_conv_thr=1.0D-4,
 etot_conv_thr=1.0D-5,
/
&system
 ibrav=0,
 nat=    56,
 ntyp=  3,
 ecutwfc=80.0,
 ecutrho=800.0,
 vdw_corr='xdm',
 nosym=.true.,
/
&electrons
 conv_thr = 1d-10,
/
&ions
/
&cell
 press_conv_thr=0.01,
/
ATOMIC_SPECIES
N    14.006700 n.UPF
C    12.010700 c.UPF
H     1.007940 h.UPF

ATOMIC_POSITIONS crystal
N             0.1020267179        0.5255308450        0.2952232513
N             0.8979733315        0.0255298948        0.2047773552
N             0.8979734842        0.4744706355        0.7047775867
N             0.1020268871        0.9744699533        0.7952235102
C             0.1992170456        0.4539353521        0.4399016977
C             0.8007822188        0.9539357178        0.0600985352
C             0.8007821990        0.5460647911        0.5600988143
C             0.1992170046        0.0460655470        0.9399020098
C             0.3280727673        0.2464795665        0.4380557529
C             0.6719272683        0.7464785875        0.0619448253
C             0.6719270928        0.7535213897        0.5619447744
C             0.3280727941        0.2535216697        0.9380558455
C             0.3503618333        0.2976119674        0.3010393754
C             0.6496378229        0.7976115250        0.1989611449
C             0.6496381770        0.7023893570        0.6989612597
C             0.3503620936        0.2023886193        0.8010394611
C             0.2269267546        0.5227125400        0.2321363643
C             0.7730725640        0.0227126543        0.2678639585
C             0.7730724762        0.4772878672        0.7678638453
C             0.2269266573        0.9772881474        0.7321362366
H             0.0204267125        0.3714161545        0.2525293118
H             0.9795728933        0.8714169534        0.2474709496
H             0.9795728200        0.6285839861        0.7474711330
H             0.0204265441        0.1285844423        0.7525294814
H             0.1151269565        0.3852021325        0.4883915317
H             0.8848728618        0.8852026210        0.0116088704
H             0.8848729236        0.6147984029        0.5116089811
H             0.1151271387        0.1147981591        0.9883916830
H             0.2642529072        0.6283465650        0.4967647992
H             0.7357469275        0.1283466829        0.0032358367
H             0.7357468133        0.3716543443        0.5032358105
H             0.2642529401        0.8716536063        0.9967649175
H             0.4461610084        0.2602366385        0.5284304381
H             0.5538386386        0.7602365694        0.9715701109
H             0.5538387990        0.7397643760        0.4715700541
H             0.4461611410        0.2397639316        0.0284304215
H             0.2780497854        0.0498683476        0.4381442896
H             0.7219502856        0.5498678566        0.0618561686
H             0.7219501409        0.9501324970        0.5618562558
H             0.2780496856        0.4501329235        0.9381443969
H             0.3175721300        0.1234672201        0.2354724933
H             0.6824276769        0.6234666962        0.2645280874
H             0.6824275907        0.8765337069        0.7645279055
H             0.3175722240        0.3765336838        0.7354724273
H             0.4795061007        0.3491484147        0.3172907788
H             0.5204936046        0.8491477857        0.1827097424
H             0.5204935618        0.6508527765        0.6827097236
H             0.4795061442        0.1508524207        0.8172907670
H             0.2939821321        0.7104262001        0.2530032520
H             0.7060176481        0.2104258996        0.2469975009
H             0.7060175447        0.2895750980        0.7469974310
H             0.2939821399        0.7895740405        0.7530032121
H             0.1646204345        0.5027291179        0.1198677205
H             0.8353794972        0.0027291485        0.3801329743
H             0.8353794147        0.4972720171        0.8801330666
H             0.1646203129        0.9972712255        0.6198677820

K_POINTS automatic
3 5 3  1 1 1

CELL_PARAMETERS bohr
  16.363763420   0.000005016   0.014132763
   0.000002937   9.680286969   0.000004311
  -7.715070117   0.000005916  18.315230431
