&control
 title='crystal',
 prefix='crystal',
 pseudo_dir='.',
 calculation='vc-relax',
/
&system
 ibrav=0,
 celldm(1)=1.0,
 nat=   112,
 ntyp=  4,
 ecutwfc=60.0,
 ecutrho=600.0,
 xdm=.true.,
 xdm_a1=0.4073,
 xdm_a2=2.4150,
/
&electrons
 conv_thr = 1d-8,
/
&ions
/
&cell
/
ATOMIC_SPECIES
h      1.007940 h.UPF
b     10.811000 b.UPF
c     12.010700 c.UPF
o     15.999400 o.UPF

ATOMIC_POSITIONS crystal
b     0.77250849     0.01387252     0.96109542
b     0.22749146     0.98612747     0.03890459
b     0.77250849     0.48612748     0.46109542
b     0.22749145     0.51387252     0.53890460
o     0.68180142     0.79286275     0.96997135
o     0.31819852     0.20713724     0.03002867
o     0.68180143     0.70713725     0.46997135
o     0.31819851     0.29286275     0.53002867
c     0.69570156     0.77313351     0.91779202
c     0.30429839     0.22686648     0.08220800
c     0.69570156     0.72686649     0.41779201
c     0.30429838     0.27313351     0.58220800
c     0.62992750     0.58828413     0.90341862
c     0.37007245     0.41171586     0.09658140
c     0.62992751     0.91171587     0.40341861
c     0.37007244     0.08828413     0.59658140
c     0.66279217     0.61682034     0.84709154
c     0.33720778     0.38317965     0.15290848
c     0.66279217     0.88317966     0.34709153
c     0.33720777     0.11682034     0.65290848
c     0.75639254     0.82151098     0.80783200
c     0.24360740     0.17848901     0.19216802
c     0.75639255     0.67848902     0.30783200
c     0.24360739     0.32151098     0.69216802
c     0.82258740     0.00748503     0.82288627
c     0.17741255     0.99251496     0.17711375
c     0.82258740     0.49251497     0.32288626
c     0.17741254     0.50748503     0.67711375
c     0.79000966     0.97712588     0.87855148
c     0.20999029     0.02287411     0.12144854
c     0.79000967     0.52287412     0.37855148
c     0.20999028     0.47712588     0.62144854
o     0.83937085     0.12962106     0.90459147
o     0.16062910     0.87037893     0.09540854
o     0.83937085     0.37037894     0.40459147
o     0.16062909     0.62962106     0.59540855
c     0.79388962     0.11814483     0.00639249
c     0.20611033     0.88185516     0.99360753
c     0.79388962     0.38185517     0.50639249
c     0.20611032     0.61814483     0.49360753
c     0.72984147     0.00324627     0.06029547
c     0.27015848     0.99675372     0.93970454
c     0.72984147     0.49675373     0.56029547
c     0.27015847     0.50324627     0.43970455
c     0.74491821     0.08495829     0.10622022
c     0.25508174     0.91504170     0.89377980
c     0.74491822     0.41504171     0.60622021
c     0.25508173     0.58495829     0.39377981
c     0.83824938     0.30089150     0.09885241
c     0.16175057     0.69910849     0.90114760
c     0.83824938     0.19910850     0.59885241
c     0.16175056     0.80089150     0.40114761
c     0.85411208     0.36540575     0.14305295
c     0.14588787     0.63459424     0.85694707
c     0.85411209     0.13459425     0.64305295
c     0.14588786     0.86540575     0.35694707
c     0.77533272     0.21637847     0.19612024
c     0.22466723     0.78362152     0.80387978
c     0.77533273     0.28362153     0.69612024
c     0.22466722     0.71637847     0.30387978
c     0.67907233     0.00456697     0.20495792
c     0.32092762     0.99543302     0.79504210
c     0.67907233     0.49543303     0.70495791
c     0.32092761     0.50456697     0.29504210
c     0.66498774     0.93982525     0.16028231
c     0.33501221     0.06017474     0.83971771
c     0.66498775     0.56017475     0.66028230
c     0.33501220     0.43982525     0.33971771
h     0.55519583     0.43186475     0.93473327
h     0.44480412     0.56813524     0.06526675
h     0.55519584     0.06813525     0.43473326
h     0.44480411     0.93186475     0.56526675
h     0.61252259     0.47668066     0.83403532
h     0.38747736     0.52331933     0.16596470
h     0.61252260     0.02331934     0.33403532
h     0.38747735     0.97668066     0.66596470
h     0.77822083     0.83734738     0.76463001
h     0.22177912     0.16265261     0.23537001
h     0.77822083     0.66265262     0.26463001
h     0.22177911     0.33734738     0.73537001
h     0.89637602     0.16656916     0.79253429
h     0.10362393     0.83343083     0.20746572
h     0.89637603     0.33343084     0.29253429
h     0.10362392     0.66656916     0.70746573
h     0.86404990     0.29463473     0.99426525
h     0.13595005     0.70536526     0.00573476
h     0.86404990     0.20536527     0.49426525
h     0.13595004     0.79463473     0.50573477
h     0.65808093     0.82793907     0.07194768
h     0.34191902     0.17206092     0.92805233
h     0.65808094     0.67206093     0.57194768
h     0.34191901     0.32793907     0.42805234
h     0.90027923     0.41865963     0.05778740
h     0.09972072     0.58134037     0.94221261
h     0.90027923     0.08134037     0.55778740
h     0.09972071     0.91865963     0.44221262
h     0.92944795     0.53088365     0.13594602
h     0.07055200     0.46911634     0.86405400
h     0.92944796     0.96911635     0.63594601
h     0.07055199     0.03088365     0.36405400
h     0.79034208     0.26534763     0.23012351
h     0.20965786     0.73465236     0.76987651
h     0.79034209     0.23465237     0.73012351
h     0.20965785     0.76534763     0.26987651
h     0.61487360     0.88817094     0.24638659
h     0.38512635     0.11182905     0.75361343
h     0.61487360     0.61182906     0.74638658
h     0.38512634     0.38817094     0.25361343
h     0.59235149     0.77233229     0.16676113
h     0.40764845     0.22766770     0.83323889
h     0.59235150     0.72766771     0.66676112
h     0.40764844     0.27233229     0.33323889

K_POINTS automatic
2 2 2 1 1 1

CELL_PARAMETERS cubic
   18.050413000000     0.000000000000     0.078421000000
    0.000000000000    10.326424000000     0.000000000000
   34.997185000000     0.000000000000    39.808265000000
