&control
 title='crystal',
 prefix='crystal',
 pseudo_dir='.',
 calculation='vc-relax',
/
&system
 ibrav=0,
 celldm(1)=1.0,
 nat=   112,
 ntyp=  4,
 ecutwfc=60.0,
 ecutrho=600.0,
 xdm=.true.,
 xdm_a1=0.4073,
 xdm_a2=2.4150,
/
&electrons
 conv_thr = 1d-8,
/
&ions
/
&cell
/
ATOMIC_SPECIES
h      1.007940 h.UPF
b     10.811000 b.UPF
c     12.010700 c.UPF
o     15.999400 o.UPF

ATOMIC_POSITIONS crystal
b     0.74639638     0.21037335     0.95099538
b     0.25360362     0.78962669     0.04900463
b     0.25362045     0.71028902     0.54900928
b     0.74637955     0.28971102     0.45099073
o     0.64149097     0.31393559     0.96367794
o     0.35850903     0.68606444     0.03632207
o     0.35852348     0.81388534     0.53632689
o     0.64147652     0.18611469     0.46367312
c     0.61238912     0.51181603     0.91184448
c     0.38761088     0.48818401     0.08815553
c     0.38762156     0.01177502     0.58816044
c     0.61237844     0.98822501     0.41183957
c     0.51794725     0.67918612     0.90177670
c     0.48205275     0.32081391     0.09822331
c     0.48205715     0.17918297     0.59822679
c     0.51794285     0.82081706     0.40177322
c     0.51069237     0.86675494     0.84478368
c     0.48930763     0.13324510     0.15521633
c     0.48931049     0.36675063     0.65522054
c     0.51068951     0.63324940     0.34477947
c     0.59503959     0.88507644     0.80120266
c     0.40496041     0.11492360     0.19879735
c     0.40496316     0.38504187     0.69880243
c     0.59503684     0.61495817     0.30119758
c     0.69106301     0.71659389     0.81265212
c     0.30893699     0.28340614     0.18734790
c     0.30894442     0.21652843     0.68735360
c     0.69105558     0.78347160     0.31264641
c     0.69704946     0.53033296     0.86859410
c     0.30295054     0.46966708     0.13140591
c     0.30295922     0.03027164     0.63140989
c     0.69704078     0.96972840     0.36859012
o     0.78182117     0.34533991     0.89225004
o     0.21817883     0.65466013     0.10774997
o     0.21819044     0.84524867     0.60775470
o     0.78180956     0.15475136     0.39224531
c     0.81319107     0.98563657     0.99500446
c     0.18680892     0.01436346     0.00499555
c     0.18682611     0.48553467     0.50500121
c     0.81317389     0.51446536     0.49499880
c     0.77279755     0.85185941     0.04881746
c     0.22720245     0.14814063     0.95118255
c     0.22721724     0.35175586     0.45118707
c     0.77278276     0.64824418     0.54881295
c     0.82759627     0.63578661     0.09501701
c     0.17240373     0.36421343     0.90498300
c     0.17241236     0.13567753     0.40498798
c     0.82758764     0.86432250     0.59501203
c     0.93717629     0.54072194     0.09124808
c     0.06282370     0.45927809     0.90875193
c     0.06283354     0.04059727     0.40875999
c     0.93716646     0.95940277     0.59124002
c     0.98409111     0.33048992     0.13614527
c     0.01590889     0.66951011     0.86385474
c     0.01591027     0.83037529     0.36386021
c     0.98408973     0.16962474     0.63613980
c     0.92351570     0.21183094     0.18629477
c     0.07648430     0.78816909     0.81370524
c     0.07647795     0.71173874     0.31370442
c     0.92352205     0.28826129     0.68629559
c     0.81530012     0.30638529     0.19135727
c     0.18469988     0.69361474     0.80864274
c     0.18469421     0.80629970     0.30864017
c     0.81530579     0.19370033     0.69135985
c     0.76810824     0.51541197     0.14608080
c     0.23189176     0.48458806     0.85391921
c     0.23189430     0.01531767     0.35391936
c     0.76810570     0.98468236     0.64608066
h     0.45415942     0.66887619     0.93701782
h     0.54584058     0.33112384     0.06298219
h     0.54584554     0.16889140     0.56298525
h     0.45415446     0.83110864     0.43701476
h     0.43805228     0.00324246     0.83435987
h     0.56194772     0.99675757     0.16564014
h     0.56194662     0.50326506     0.66564354
h     0.43805338     0.49673497     0.33435647
h     0.58576132     0.03479300     0.75786305
h     0.41423868     0.96520703     0.24213696
h     0.41424013     0.53475655     0.74214326
h     0.58575987     0.46524349     0.25785675
h     0.75787252     0.73476987     0.77979301
h     0.24212748     0.26523017     0.22020700
h     0.24213396     0.23468634     0.72021235
h     0.75786604     0.76531370     0.27978766
h     0.89626657     0.93113496     0.98229972
h     0.10373343     0.06886507     0.01770029
h     0.10375022     0.43103103     0.51770482
h     0.89624978     0.56896901     0.48229520
h     0.68868534     0.90673300     0.05974284
h     0.31131466     0.09326704     0.94025717
h     0.31132943     0.40663736     0.44026062
h     0.68867057     0.59336267     0.55973940
h     0.98645844     0.63296861     0.05329224
h     0.01354156     0.36703142     0.94670777
h     0.01355666     0.13283657     0.44671921
h     0.98644334     0.86716346     0.55328081
h     0.06870102     0.25877861     0.13227435
h     0.93129898     0.74122143     0.86772566
h     0.93130000     0.75865422     0.36773209
h     0.06870000     0.24134581     0.63226792
h     0.96067445     0.04700098     0.22114295
h     0.03932555     0.95299906     0.77885706
h     0.03931226     0.54692158     0.27885297
h     0.96068774     0.45307846     0.72114704
h     0.76778196     0.21743881     0.23070282
h     0.23221803     0.78256122     0.76929720
h     0.23220630     0.71737024     0.26928969
h     0.76779369     0.28262979     0.73071032
h     0.68327535     0.58758343     0.14961439
h     0.31672465     0.41241660     0.85038562
h     0.31672608     0.08750528     0.35038280
h     0.68327392     0.91249476     0.64961721

K_POINTS automatic
2 2 2 1 1 1

CELL_PARAMETERS cubic
   22.721053000000    -0.000404000000     1.779221000000
   -0.000153000000     9.003933000000    -0.000062000000
   -7.458311000000    -0.000111000000    35.337687000000
