&control
 title='crystal',
 prefix='crystal',
 pseudo_dir='.',
 calculation='vc-relax',
/
&system
 ibrav=0,
 celldm(1)=1.0,
 nat=   112,
 ntyp=  4,
 ecutwfc=60.0,
 ecutrho=600.0,
 xdm=.true.,
 xdm_a1=0.4073,
 xdm_a2=2.4150,
/
&electrons
 conv_thr = 1d-8,
/
&ions
/
&cell
/
ATOMIC_SPECIES
h      1.007940 h.UPF
b     10.811000 b.UPF
c     12.010700 c.UPF
o     15.999400 o.UPF

ATOMIC_POSITIONS crystal
h     0.25307498     0.75000001     0.01233982
h     0.25307460     0.75000000     0.51234013
h     0.74692501     0.25000003     0.98766016
h     0.74692463     0.25000001     0.48766048
c     0.20948579     0.75000006     0.05842116
c     0.20948541     0.75000004     0.55842148
c     0.79051421     0.24999999     0.94157882
c     0.79051382     0.24999997     0.44157913
c     0.09565578     0.75000004     0.17592691
c     0.09565539     0.75000003     0.67592722
c     0.90434422     0.25000001     0.82407307
c     0.90434383     0.25000000     0.32407339
c     0.24303430     0.75000003     0.12051298
c     0.24303391     0.75000001     0.62051329
c     0.75696570     0.25000001     0.87948701
c     0.75696531     0.25000000     0.37948732
c     0.11900759     0.75000004     0.05508702
c     0.11900720     0.75000003     0.55508734
c     0.88099241     0.25000000     0.94491296
c     0.88099202     0.24999999     0.44491327
c     0.06043339     0.75000004     0.11357584
c     0.06043301     0.75000003     0.61357615
c     0.93956660     0.25000001     0.88642415
c     0.93956622     0.25000000     0.38642446
c     0.18587934     0.75000004     0.17932854
c     0.18587895     0.75000003     0.67932886
c     0.81412066     0.25000001     0.82067144
c     0.81412027     0.25000000     0.32067176
h     0.31383992     0.75000001     0.12341964
h     0.31383953     0.75000000     0.62341995
h     0.68616008     0.25000004     0.87658034
h     0.68615969     0.25000003     0.37658066
h     0.09283377     0.75000004     0.00646296
h     0.09283339     0.75000003     0.50646328
h     0.90716622     0.25000000     0.99353702
h     0.90716584     0.24999999     0.49353733
c     0.96633601     0.75000001     0.10721397
c     0.96633563     0.75000000     0.60721428
c     0.03366398     0.25000003     0.89278601
c     0.03366360     0.25000001     0.39278632
h     0.21258889     0.75000004     0.22758559
h     0.21258851     0.75000003     0.72758590
h     0.78741111     0.25000001     0.77241440
h     0.78741072     0.25000000     0.27241471
h     0.05190805     0.75000006     0.22215748
h     0.05190767     0.75000004     0.72215779
h     0.94809194     0.24999999     0.77784251
h     0.94809156     0.24999997     0.27784282
c     0.90005512     0.75000001     0.15714405
c     0.90005474     0.75000000     0.65714436
c     0.09994487     0.25000004     0.84285594
c     0.09994449     0.25000003     0.34285625
h     0.94899915     0.75000000     0.05555392
h     0.94899877     0.74999999     0.55555424
h     0.05100084     0.25000004     0.94444606
h     0.05100046     0.25000003     0.44444637
b     0.80350053     0.75000001     0.14455528
b     0.80350015     0.75000000     0.64455560
b     0.19649946     0.25000003     0.85544470
b     0.19649908     0.25000001     0.35544501
h     0.91558862     0.75000003     0.20914140
h     0.91558823     0.75000001     0.70914171
h     0.08441138     0.25000001     0.79085858
h     0.08441100     0.25000000     0.29085890
o     0.77045145     0.75000000     0.08137228
o     0.77045107     0.74999999     0.58137259
o     0.22954855     0.25000004     0.91862770
o     0.22954816     0.25000003     0.41862802
o     0.73375510     0.75000003     0.19595566
o     0.73375471     0.75000001     0.69595598
o     0.26624490     0.25000003     0.80404432
o     0.26624451     0.25000001     0.30404463
h     0.43813972     0.75000004     0.16695469
h     0.43813934     0.75000003     0.66695500
h     0.56186027     0.25000001     0.83304530
h     0.56185989     0.25000000     0.33304561
c     0.65798279     0.75000003     0.16371560
c     0.65798241     0.75000001     0.66371591
c     0.34201720     0.25000003     0.83628439
c     0.34201682     0.25000001     0.33628470
c     0.52863479     0.75000000     0.07763764
c     0.52863441     0.74999999     0.57763795
c     0.47136520     0.25000004     0.92236234
c     0.47136482     0.25000003     0.42236266
c     0.57180532     0.75000003     0.19171971
c     0.57180493     0.75000001     0.69172002
c     0.42819468     0.25000001     0.80828027
c     0.42819430     0.25000000     0.30828058
c     0.68002311     0.75000001     0.09451447
c     0.68002273     0.75000000     0.59451479
c     0.31997688     0.25000003     0.90548551
c     0.31997650     0.25000001     0.40548582
c     0.61640183     0.74999999     0.04982068
c     0.61640145     0.74999997     0.54982099
c     0.38359816     0.25000006     0.95017930
c     0.38359778     0.25000004     0.45017962
c     0.50692795     0.75000001     0.14695107
c     0.50692757     0.75000000     0.64695139
c     0.49307204     0.25000003     0.85304891
c     0.49307166     0.25000001     0.35304922
h     0.55567674     0.75000001     0.24567939
h     0.55567636     0.75000000     0.74567970
h     0.44432325     0.25000004     0.75432060
h     0.44432287     0.25000003     0.25432091
h     0.47654051     0.75000001     0.04429484
h     0.47654013     0.75000000     0.54429515
h     0.52345948     0.25000003     0.95570514
h     0.52345910     0.25000001     0.45570546
h     0.63406150     0.75000001     0.99599559
h     0.63406112     0.75000000     0.49599590
h     0.36593849     0.25000003     0.00400439
h     0.36593811     0.25000001     0.50400470

K_POINTS automatic
2 2 2 1 1 1

CELL_PARAMETERS cubic
   28.851881000000     0.000000000000     1.436105000000
    0.000000000000     7.153366000000     0.000000000000
    1.790145000000     0.000000000000    37.875357000000
