&control
 title='crystal',
 prefix='crystal',
 pseudo_dir='.',
 calculation='vc-relax',
/
&system
 ibrav=0,
 celldm(1)=1.0,
 nat=   224,
 ntyp=  4,
 ecutwfc=60.0,
 ecutrho=600.0,
 xdm=.true.,
 xdm_a1=0.4073,
 xdm_a2=2.4150,
/
&electrons
 conv_thr = 1d-8,
/
&ions
/
&cell
/
ATOMIC_SPECIES
h      1.007940 h.UPF
b     10.811000 b.UPF
c     12.010700 c.UPF
o     15.999400 o.UPF

ATOMIC_POSITIONS crystal
c     0.81389150     0.29601265     0.01755896
c     0.31389072     0.79601237     0.01755973
c     0.81389161     0.70398741     0.51755891
c     0.31389083     0.20398713     0.51755968
c     0.18610850     0.70398735     0.98244106
c     0.68610772     0.20398707     0.98244183
c     0.18610862     0.29601247     0.48244101
c     0.68610784     0.79601219     0.48244178
c     0.83744468     0.45786517     0.95329697
c     0.33744390     0.95786489     0.95329774
c     0.83744479     0.54213490     0.45329692
c     0.33744402     0.04213462     0.45329769
c     0.16255532     0.54213484     0.04670305
c     0.66255454     0.04213456     0.04670382
c     0.16255544     0.45786497     0.54670300
c     0.66255466     0.95786470     0.54670377
c     0.90117124     0.46968967     0.88945625
c     0.40117046     0.96968939     0.88945702
c     0.90117136     0.53031042     0.38945620
c     0.40117058     0.03031014     0.38945697
c     0.09882876     0.53031034     0.11054377
c     0.59882798     0.03031006     0.11054454
c     0.09882887     0.46968945     0.61054372
c     0.59882809     0.96968918     0.61054449
c     0.94416689     0.31908699     0.88667344
c     0.44416611     0.81908671     0.88667421
c     0.94416700     0.68091312     0.38667338
c     0.44416622     0.18091284     0.38667415
c     0.05583311     0.68091302     0.11332659
c     0.55583233     0.18091274     0.11332736
c     0.05583323     0.31908675     0.61332653
c     0.55583245     0.81908647     0.61332731
c     0.85663675     0.14852605     0.01414024
c     0.35663597     0.64852577     0.01414101
c     0.85663687     0.85147402     0.51414019
c     0.35663609     0.35147375     0.51414096
c     0.14336324     0.85147396     0.98585978
c     0.64336246     0.35147368     0.98586055
c     0.14336336     0.14852585     0.48585973
c     0.64336258     0.64852557     0.48586050
c     0.92021645     0.15899473     0.95012207
c     0.42021567     0.65899445     0.95012284
c     0.92021656     0.84100537     0.45012201
c     0.42021578     0.34100509     0.45012279
c     0.07978355     0.84100528     0.04987796
c     0.57978277     0.34100500     0.04987873
c     0.07978366     0.15899450     0.54987790
c     0.57978288     0.65899423     0.54987867
o     0.95117279     0.99099507     0.96238199
o     0.45117201     0.49099479     0.96238276
o     0.95117291     0.00900504     0.46238194
o     0.45117213     0.50900476     0.46238271
o     0.04882720     0.00900494     0.03761804
o     0.54882642     0.50900466     0.03761881
o     0.04882732     0.99099483     0.53761798
o     0.54882654     0.49099455     0.53761876
o     0.84589958     0.97512498     0.06842201
o     0.34589880     0.47512470     0.06842278
o     0.84589970     0.02487509     0.56842196
o     0.34589892     0.52487482     0.56842273
o     0.15410041     0.02487502     0.93157801
o     0.65409963     0.52487475     0.93157878
o     0.15410053     0.97512479     0.43157796
o     0.65409975     0.47512451     0.43157873
b     0.90498721     0.87862080     0.03654427
b     0.40498643     0.37862052     0.03654504
b     0.90498733     0.12137929     0.53654422
b     0.40498655     0.62137901     0.53654499
b     0.09501278     0.12137921     0.96345575
b     0.59501200     0.62137893     0.96345652
b     0.09501290     0.87862058     0.46345570
b     0.59501212     0.37862031     0.46345647
c     0.91511450     0.67838449     0.07733548
c     0.41511372     0.17838421     0.07733625
c     0.91511462     0.32161560     0.57733543
c     0.41511384     0.82161533     0.57733620
c     0.08488549     0.32161552     0.92266454
c     0.58488471     0.82161524     0.92266531
c     0.08488561     0.67838427     0.42266449
c     0.58488483     0.17838399     0.42266526
c     0.86625979     0.58825820     0.14977807
c     0.36625901     0.08825792     0.14977884
c     0.86625991     0.41174188     0.64977802
c     0.36625913     0.91174160     0.64977879
c     0.13374020     0.41174181     0.85022195
c     0.63373942     0.91174153     0.85022272
c     0.13374032     0.58825799     0.35022190
c     0.63373954     0.08825772     0.35022267
c     0.86502110     0.39708717     0.19783712
c     0.36502032     0.89708689     0.19783789
c     0.86502122     0.60291291     0.69783707
c     0.36502044     0.10291263     0.69783784
c     0.13497889     0.60291283     0.80216290
c     0.63497811     0.10291255     0.80216368
c     0.13497901     0.39708697     0.30216285
c     0.63497823     0.89708670     0.30216362
c     0.80736881     0.33473500     0.27111113
c     0.30736803     0.83473472     0.27111190
c     0.80736892     0.66526505     0.77111108
c     0.30736814     0.16526477     0.77111185
c     0.19263119     0.66526501     0.72888889
c     0.69263041     0.16526473     0.72888966
c     0.19263130     0.33473482     0.22888884
c     0.69263052     0.83473454     0.22888961
c     0.80280712     0.15404051     0.32039640
c     0.30280634     0.65404024     0.32039717
c     0.80280724     0.84595954     0.82039635
c     0.30280646     0.34595926     0.82039712
c     0.19719287     0.84595949     0.67960362
c     0.69719209     0.34595922     0.67960440
c     0.19719299     0.15404033     0.17960357
c     0.69719221     0.65404006     0.17960434
c     0.85587279     0.03177757     0.29768021
c     0.35587201     0.53177729     0.29768098
c     0.85587290     0.96822251     0.79768016
c     0.35587213     0.46822223     0.79768093
c     0.14412721     0.96822244     0.70231981
c     0.64412643     0.46822216     0.70232058
c     0.14412732     0.03177737     0.20231976
c     0.64412655     0.53177709     0.20232053
c     0.91352122     0.09201018     0.22484817
c     0.41352044     0.59200990     0.22484894
c     0.91352134     0.90798991     0.72484811
c     0.41352056     0.40798963     0.72484889
c     0.08647877     0.90798982     0.77515186
c     0.58647799     0.40798954     0.77515263
c     0.08647889     0.09200997     0.27515181
c     0.58647811     0.59200969     0.27515258
c     0.91817845     0.27174981     0.17516053
c     0.41817768     0.77174953     0.17516130
c     0.91817857     0.72825029     0.67516047
c     0.41817779     0.22825001     0.67516124
c     0.08182154     0.72825020     0.82483950
c     0.58182076     0.22824992     0.82484027
c     0.08182166     0.27174959     0.32483944
c     0.58182088     0.77174931     0.32484022
h     0.76455446     0.28419091     0.06747412
h     0.26455368     0.78419063     0.06747489
h     0.76455457     0.71580913     0.56747407
h     0.26455380     0.21580885     0.56747484
h     0.23544554     0.71580910     0.93252591
h     0.73544476     0.21580882     0.93252668
h     0.23544565     0.28419074     0.43252586
h     0.73544487     0.78419046     0.43252663
h     0.80571692     0.57750313     0.95281246
h     0.30571614     0.07750285     0.95281323
h     0.80571703     0.42249693     0.45281241
h     0.30571625     0.92249665     0.45281318
h     0.19428308     0.42249688     0.04718756
h     0.69428230     0.92249660     0.04718833
h     0.19428320     0.57750295     0.54718751
h     0.69428242     0.07750267     0.54718828
h     0.91761616     0.59821858     0.84091337
h     0.41761538     0.09821830     0.84091414
h     0.91761628     0.40178151     0.34091332
h     0.41761550     0.90178123     0.34091409
h     0.08238383     0.40178142     0.15908665
h     0.58238305     0.90178114     0.15908742
h     0.08238395     0.59821837     0.65908660
h     0.58238317     0.09821809     0.65908737
h     0.99378675     0.32776977     0.83738746
h     0.49378597     0.82776949     0.83738823
h     0.99378687     0.67223035     0.33738740
h     0.49378609     0.17223007     0.33738818
h     0.00621324     0.67223023     0.16261257
h     0.50621246     0.17222996     0.16261334
h     0.00621336     0.32776952     0.66261251
h     0.50621258     0.82776924     0.66261328
h     0.96152152     0.60696644     0.04776713
h     0.46152074     0.10696616     0.04776791
h     0.96152164     0.39303367     0.54776708
h     0.46152086     0.89303339     0.54776785
h     0.03847847     0.39303357     0.95223289
h     0.53847769     0.89303329     0.95223366
h     0.03847859     0.60696620     0.45223284
h     0.53847781     0.10696592     0.45223361
h     0.82083896     0.66668379     0.17756571
h     0.32083818     0.16668351     0.17756648
h     0.82083908     0.33331627     0.67756565
h     0.32083830     0.83331599     0.67756642
h     0.17916103     0.33331621     0.82243432
h     0.67916025     0.83331593     0.82243509
h     0.17916115     0.66668361     0.32243426
h     0.67916037     0.16668333     0.32243504
h     0.76579103     0.43025058     0.28971732
h     0.26579025     0.93025030     0.28971809
h     0.76579115     0.56974946     0.78971726
h     0.26579037     0.06974918     0.78971803
h     0.23420896     0.56974943     0.71028271
h     0.73420818     0.06974915     0.71028348
h     0.23420908     0.43025041     0.21028265
h     0.73420830     0.93025013     0.21028343
h     0.75754636     0.11000898     0.37674228
h     0.25754558     0.61000870     0.37674306
h     0.75754648     0.88999105     0.87674223
h     0.25754570     0.38999078     0.87674300
h     0.24245363     0.88999102     0.62325774
h     0.74245285     0.38999074     0.62325851
h     0.24245375     0.11000883     0.12325769
h     0.74245297     0.61000855     0.12325846
h     0.85274660     0.88991159     0.33565550
h     0.35274582     0.38991131     0.33565627
h     0.85274672     0.11008849     0.83565545
h     0.35274594     0.61008821     0.83565622
h     0.14725339     0.11008841     0.66434452
h     0.64725261     0.61008813     0.66434529
h     0.14725351     0.88991140     0.16434447
h     0.64725273     0.38991112     0.16434524
h     0.95512516     0.99763928     0.20630066
h     0.45512438     0.49763900     0.20630143
h     0.95512528     0.00236083     0.70630061
h     0.45512450     0.50236055     0.70630138
h     0.04487483     0.00236072     0.79369936
h     0.54487405     0.50236044     0.79370013
h     0.04487495     0.99763905     0.29369931
h     0.54487417     0.49763878     0.29370008
h     0.96343576     0.31444734     0.11842449
h     0.46343498     0.81444706     0.11842526
h     0.96343588     0.68555278     0.61842443
h     0.46343510     0.18555250     0.61842521
h     0.03656423     0.68555267     0.88157554
h     0.53656345     0.18555239     0.88157631
h     0.03656435     0.31444710     0.38157548
h     0.53656357     0.81444682     0.38157625

K_POINTS automatic
2 2 2 1 1 1

CELL_PARAMETERS cubic
   45.372906000000     0.000000000000    -0.784699000000
    0.000000000000    12.200402000000     0.000000000000
   14.737531000000     0.000000000000    27.104667000000
