&control
 title='crystal',
 prefix='crystal',
 pseudo_dir='.',
 calculation='vc-relax',
/
&system
 ibrav=0,
 celldm(1)=1.0,
 nat=    56,
 ntyp=  4,
 ecutwfc=60.0,
 ecutrho=600.0,
 xdm=.true.,
 xdm_a1=0.4073,
 xdm_a2=2.4150,
/
&electrons
 conv_thr = 1d-8,
/
&ions
/
&cell
/
ATOMIC_SPECIES
h      1.007940 h.UPF
b     10.811000 b.UPF
c     12.010700 c.UPF
o     15.999400 o.UPF

ATOMIC_POSITIONS crystal
c     0.98968331     0.40245518     0.31954011
c     0.01031670     0.59754479     0.68045987
c     0.17388276     0.35465041     0.34043877
c     0.82611725     0.64534956     0.65956120
c     0.21809953     0.24379677     0.33516867
c     0.78190047     0.75620321     0.66483130
c     0.06785701     0.18458261     0.31066458
c     0.93214300     0.81541736     0.68933539
c     0.88271827     0.23198895     0.29139100
c     0.11728173     0.76801103     0.70860897
c     0.83927258     0.34138700     0.29397081
c     0.16072743     0.65861297     0.70602917
o     0.06919350     0.07527503     0.30229732
o     0.93080651     0.92472495     0.69770266
b     0.87919768     0.05669418     0.27804702
b     0.12080232     0.94330579     0.72195295
o     0.76251229     0.15374960     0.27077376
o     0.23748772     0.84625038     0.72922622
c     0.81201404     0.94656230     0.26005298
c     0.18798596     0.05343768     0.73994700
c     0.63121109     0.93093885     0.23125665
c     0.36878891     0.06906113     0.76874332
c     0.55580927     0.82914877     0.20926141
c     0.44419073     0.17085120     0.79073857
c     0.66097142     0.73010125     0.22686019
c     0.33902858     0.26989872     0.77313978
c     0.58450268     0.63553041     0.20091952
c     0.41549732     0.36446957     0.79908045
c     0.40099872     0.63716895     0.15716304
c     0.59900128     0.36283102     0.84283694
c     0.29493786     0.73447930     0.13993613
c     0.70506215     0.26552068     0.86006385
c     0.37123358     0.82948865     0.16594372
c     0.62876643     0.17051132     0.83405626
h     0.96240849     0.48893542     0.32421388
h     0.03759152     0.51106455     0.67578609
h     0.28688354     0.40471940     0.36041787
h     0.71311647     0.59528057     0.63958210
h     0.36301223     0.20628168     0.34758564
h     0.63698778     0.79371830     0.65241433
h     0.69424233     0.37719996     0.27948582
h     0.30575768     0.62280002     0.72051415
h     0.91554688     0.87746040     0.27113527
h     0.08445313     0.12253958     0.72886471
h     0.52765180     0.00066662     0.22163237
h     0.47234820     0.99933336     0.77836761
h     0.80295061     0.72723641     0.26221764
h     0.19704940     0.27276357     0.73778234
h     0.66925618     0.55984865     0.21349411
h     0.33074382     0.44015132     0.78650587
h     0.34203264     0.56293993     0.13562121
h     0.65796737     0.43706004     0.86437876
h     0.15419429     0.73633083     0.10279471
h     0.84580571     0.26366914     0.89720526
h     0.28959772     0.90572470     0.15128593
h     0.71040229     0.09427528     0.84871404

K_POINTS automatic
2 2 2 1 1 1

CELL_PARAMETERS cubic
   12.801589000000     0.133378000000    -0.129108000000
    1.799758000000    23.726835000000    -0.062110000000
    5.687793000000     0.260720000000    12.028621000000
