&control
 title='crystal',
 prefix='crystal',
 pseudo_dir='.',
 calculation='vc-relax',
/
&system
 ibrav=0,
 celldm(1)=1.0,
 nat=   112,
 ntyp=  4,
 ecutwfc=60.0,
 ecutrho=600.0,
 xdm=.true.,
 xdm_a1=0.4073,
 xdm_a2=2.4150,
/
&electrons
 conv_thr = 1d-8,
/
&ions
/
&cell
/
ATOMIC_SPECIES
h      1.007940 h.UPF
b     10.811000 b.UPF
c     12.010700 c.UPF
o     15.999400 o.UPF

ATOMIC_POSITIONS crystal
c     0.51034887     0.18265466     0.98862839
c     0.48965114     0.81734537     0.01137161
c     0.01034887     0.31734536     0.48862837
c     0.98965114     0.68265467     0.51137162
c     0.50257324     0.30480234     0.87172977
c     0.49742678     0.69519769     0.12827023
c     0.00257323     0.19519768     0.37172975
c     0.99742678     0.80480235     0.62827024
c     0.53905156     0.38924670     0.78957162
c     0.46094845     0.61075333     0.21042837
c     0.03905156     0.11075332     0.28957161
c     0.96094845     0.88924671     0.71042839
c     0.58287864     0.34538262     0.83141914
c     0.41712137     0.65461740     0.16858085
c     0.08287864     0.15461739     0.33141912
c     0.91712137     0.84538263     0.66858087
c     0.59065701     0.22321351     0.94811358
c     0.40934300     0.77678651     0.05188641
c     0.09065701     0.27678650     0.44811356
c     0.90934300     0.72321352     0.55188643
c     0.55493436     0.13884728     0.02694143
c     0.44506565     0.86115274     0.97305856
c     0.05493436     0.36115273     0.52694141
c     0.94506565     0.63884729     0.47305858
o     0.62452458     0.40831360     0.77453988
o     0.37547543     0.59168642     0.22546011
o     0.12452458     0.09168642     0.27453987
o     0.87547543     0.90831361     0.72546013
b     0.65801233     0.32196871     0.86990709
b     0.34198768     0.67803131     0.13009290
b     0.15801233     0.17803130     0.36990707
b     0.84198768     0.82196872     0.63009292
o     0.63731546     0.20618437     0.97084427
o     0.36268455     0.79381565     0.02915572
o     0.13731546     0.29381564     0.47084425
o     0.86268455     0.70618438     0.52915574
c     0.70901906     0.35055485     0.88086419
c     0.29098095     0.64944517     0.11913581
c     0.20901906     0.14944516     0.38086417
c     0.79098095     0.85055486     0.61913583
c     0.73857407     0.26937843     0.02998739
c     0.26142594     0.73062160     0.97001260
c     0.23857407     0.23062159     0.52998737
c     0.76142594     0.76937844     0.47001262
c     0.78781079     0.28803329     0.05547753
c     0.21218922     0.71196673     0.94452246
c     0.28781079     0.21196672     0.55547751
c     0.71218922     0.78803330     0.44452248
c     0.80893892     0.40503635     0.00453272
c     0.19106109     0.59496367     0.99546727
c     0.30893892     0.09496366     0.50453270
c     0.69106109     0.90503636     0.49546729
c     0.85589851     0.41883728     0.02992814
c     0.14410150     0.58116275     0.97007185
c     0.35589851     0.08116274     0.52992812
c     0.64410150     0.91883729     0.47007187
c     0.88293985     0.31615456     0.10567819
c     0.11706016     0.68384547     0.89432180
c     0.38293985     0.18384546     0.60567817
c     0.61706017     0.81615457     0.39432182
c     0.86265430     0.19934585     0.15753538
c     0.13734571     0.80065418     0.84246462
c     0.36265430     0.30065417     0.65753536
c     0.63734571     0.69934586     0.34246463
c     0.81546492     0.18595045     0.13496748
c     0.18453509     0.81404958     0.86503252
c     0.31546492     0.31404957     0.63496746
c     0.68453509     0.68595046     0.36503254
h     0.48107517     0.12017058     0.05362619
h     0.51892484     0.87982944     0.94637381
h     0.98107517     0.37982943     0.55362617
h     0.01892484     0.62017059     0.44637383
h     0.46735248     0.33498014     0.84684107
h     0.53264753     0.66501989     0.15315893
h     0.96735248     0.16501988     0.34684105
h     0.03264753     0.83498015     0.65315894
h     0.53329861     0.48442790     0.70094241
h     0.46670140     0.51557213     0.29905758
h     0.03329861     0.01557212     0.20094240
h     0.96670141     0.98442791     0.79905760
h     0.56132235     0.04446555     0.11958838
h     0.43867767     0.95553447     0.88041162
h     0.06132234     0.45553446     0.61958836
h     0.93867767     0.54446556     0.38041163
h     0.72174111     0.44227712     0.78429689
h     0.27825890     0.55772290     0.21570310
h     0.22174111     0.05772289     0.28429687
h     0.77825890     0.94227713     0.71570312
h     0.72550759     0.17716650     0.11970449
h     0.27449243     0.82283352     0.88029551
h     0.22550758     0.32283351     0.61970447
h     0.77449243     0.67716651     0.38029552
h     0.78845899     0.48608985     0.94625417
h     0.21154103     0.51391018     0.05374582
h     0.28845898     0.01391017     0.44625416
h     0.71154103     0.98608986     0.55374584
h     0.87122420     0.51049600     0.99252009
h     0.12877582     0.48950402     0.00747991
h     0.37122419     0.98950401     0.49252007
h     0.62877582     0.01049601     0.50747992
h     0.91981862     0.32740822     0.12335174
h     0.08018139     0.67259180     0.87664825
h     0.41981862     0.17259179     0.62335172
h     0.58018139     0.82740823     0.37664827
h     0.88306638     0.11833251     0.21635111
h     0.11693363     0.88166752     0.78364888
h     0.38306638     0.38166751     0.71635110
h     0.61693363     0.61833252     0.28364890
h     0.79959119     0.09470713     0.17672782
h     0.20040882     0.90529290     0.82327218
h     0.29959119     0.40529289     0.67672780
h     0.70040882     0.59470714     0.32327219

K_POINTS automatic
2 2 2 1 1 1

CELL_PARAMETERS cubic
   54.660040000000     0.000000000000    -6.195915000000
    0.000000000000    20.394968000000     0.000000000000
    1.427327000000     0.000000000000     6.033794000000
