&control
 title='crystal',
 prefix='crystal',
 pseudo_dir='.',
 calculation='vc-relax',
/
&system
 ibrav=0,
 celldm(1)=1.0,
 nat=   112,
 ntyp=  4,
 ecutwfc=60.0,
 ecutrho=600.0,
 xdm=.true.,
 xdm_a1=0.4073,
 xdm_a2=2.4150,
/
&electrons
 conv_thr = 1d-8,
/
&ions
/
&cell
/
ATOMIC_SPECIES
h      1.007940 h.UPF
b     10.811000 b.UPF
c     12.010700 c.UPF
o     15.999400 o.UPF

ATOMIC_POSITIONS crystal
h     0.89029965     0.83117529     0.21062253
h     0.10970033     0.16882476     0.78937747
h     0.89029964     0.66882478     0.71062253
h     0.10970033     0.33117526     0.28937747
c     0.81841725     0.98997803     0.17976527
c     0.18158272     0.01002201     0.82023472
c     0.81841724     0.51002203     0.67976527
c     0.18158273     0.48997801     0.32023473
c     0.75408556     0.17581473     0.19429737
c     0.24591442     0.82418532     0.80570263
c     0.75408555     0.32418534     0.69429737
c     0.24591442     0.67581470     0.30570263
c     0.78727986     0.02013514     0.12391637
c     0.21272012     0.97986491     0.87608362
c     0.78727985     0.47986493     0.62391637
c     0.21272012     0.52013511     0.37608363
c     0.69665628     0.22423028     0.08409430
c     0.30334369     0.77576977     0.91590570
c     0.69665628     0.27576979     0.58409429
c     0.30334369     0.72423025     0.41590571
c     0.66332004     0.38002688     0.15431364
c     0.33667994     0.61997316     0.84568635
c     0.66332003     0.11997318     0.65431364
c     0.33667994     0.88002686     0.34568636
h     0.77619665     0.16049853     0.23787990
h     0.22380333     0.83950152     0.76212010
h     0.77619664     0.33950154     0.73787990
h     0.22380333     0.66049850     0.26212010
o     0.83404070     0.86652195     0.09804235
o     0.16595927     0.13347810     0.90195765
o     0.83404069     0.63347811     0.59804235
o     0.16595928     0.36652192     0.40195765
c     0.63220000     0.40876154     0.09785495
c     0.36779998     0.59123851     0.90214505
c     0.63219999     0.09123853     0.59785495
c     0.36779998     0.90876151     0.40214505
o     0.68269880     0.20344052     0.03167152
o     0.31730117     0.79655952     0.96832848
o     0.68269880     0.29655954     0.53167152
o     0.31730118     0.70344050     0.46832848
h     0.61394528     0.51928737     0.16700080
h     0.38605469     0.48071268     0.83299920
h     0.61394528     0.98071270     0.66700080
h     0.38605469     0.01928734     0.33299920
b     0.76924440     0.98144739     0.04101266
b     0.23075557     0.01855266     0.95898734
b     0.76924440     0.51855268     0.54101266
b     0.23075557     0.48144736     0.45898734
h     0.55939780     0.56498390     0.06597597
h     0.44060217     0.43501615     0.93402403
h     0.55939779     0.93501617     0.56597596
h     0.44060218     0.06498387     0.43402403
c     0.78800961     0.87526310     0.99550454
c     0.21199036     0.12473695     0.00449546
c     0.78800961     0.62473696     0.49550454
c     0.21199037     0.37526307     0.50449546
h     0.85078845     0.69597200     0.00703378
h     0.14921152     0.30402805     0.99296622
h     0.85078845     0.80402807     0.50703378
h     0.14921153     0.19597197     0.49296622
c     0.72928129     0.99315363     0.94197805
c     0.27071868     0.00684642     0.05802195
c     0.72928128     0.50684644     0.44197805
c     0.27071869     0.49315360     0.55802195
h     0.66478830     0.17123870     0.93111988
h     0.33521167     0.82876135     0.06888012
h     0.66478830     0.32876137     0.43111988
h     0.33521168     0.67123867     0.56888012
c     0.74199983     0.91237326     0.89560138
c     0.25800014     0.08762679     0.10439862
c     0.74199983     0.58762681     0.39560138
c     0.25800015     0.41237323     0.60439862
c     0.66602353     0.06022595     0.84153043
c     0.33397645     0.93977410     0.15846957
c     0.66602352     0.43977411     0.34153042
c     0.33397645     0.56022592     0.65846957
c     0.83081442     0.69556382     0.90297283
c     0.16918556     0.30443623     0.09702716
c     0.83081441     0.80443625     0.40297283
c     0.16918556     0.19556379     0.59702717
c     0.84844307     0.63359097     0.85923799
c     0.15155690     0.36640907     0.14076201
c     0.84844307     0.86640909     0.35923799
c     0.15155691     0.13359094     0.64076201
c     0.68175064     0.99788564     0.79727243
c     0.31824933     0.00211440     0.20272757
c     0.68175064     0.50211442     0.29727243
c     0.31824934     0.49788562     0.70272757
h     0.59514291     0.22748343     0.83469169
h     0.40485706     0.77251662     0.16530830
h     0.59514291     0.27251664     0.33469169
h     0.40485707     0.72748340     0.66530831
h     0.88886795     0.57639273     0.94405281
h     0.11113202     0.42360732     0.05594719
h     0.88886794     0.92360734     0.44405281
h     0.11113203     0.07639270     0.55594719
c     0.77512213     0.78578366     0.80646105
c     0.22487785     0.21421639     0.19353895
c     0.77512212     0.71421641     0.30646105
c     0.22487785     0.28578363     0.69353895
h     0.92043661     0.46729580     0.86628175
h     0.07956336     0.53270425     0.13371825
h     0.92043660     0.03270427     0.36628175
h     0.07956337     0.96729577     0.63371825
h     0.62121200     0.11623025     0.75586916
h     0.37878797     0.88376980     0.24413083
h     0.62121199     0.38376982     0.25586916
h     0.37878798     0.61623022     0.74413084
h     0.79209154     0.73873497     0.77299404
h     0.20790843     0.26126508     0.22700596
h     0.79209154     0.76126509     0.27299404
h     0.20790843     0.23873494     0.72700596

K_POINTS automatic
2 2 2 1 1 1

CELL_PARAMETERS cubic
   18.274034000000     0.000000000000     0.110073000000
    0.000000000000    10.484799000000     0.000000000000
  -36.609542000000     0.000000000000    38.213229000000
