&control
 title='crystal',
 prefix='crystal',
 pseudo_dir='.',
 calculation='vc-relax',
/
&system
 ibrav=0,
 celldm(1)=1.0,
 nat=   112,
 ntyp=  4,
 ecutwfc=60.0,
 ecutrho=600.0,
 xdm=.true.,
 xdm_a1=0.4073,
 xdm_a2=2.4150,
/
&electrons
 conv_thr = 1d-8,
/
&ions
/
&cell
/
ATOMIC_SPECIES
h      1.007940 h.UPF
b     10.811000 b.UPF
c     12.010700 c.UPF
o     15.999400 o.UPF

ATOMIC_POSITIONS crystal
c     0.87167527     0.45756234     0.86764246
c     0.12832474     0.54243771     0.36764246
c     0.62831786     0.45755615     0.36764289
c     0.37168215     0.54244389     0.86764289
c     0.93041504     0.29309428     0.83114591
c     0.06958498     0.70690577     0.33114591
c     0.56957265     0.29310022     0.33114554
c     0.43042736     0.70689983     0.83114554
c     0.01697297     0.07958645     0.84466001
c     0.98302704     0.92041360     0.34466001
c     0.48301621     0.07959044     0.34465939
c     0.51698380     0.92040961     0.84465939
c     0.04715156     0.01894454     0.89523658
c     0.95284845     0.98105551     0.39523658
c     0.45284066     0.01894741     0.39523571
c     0.54715936     0.98105264     0.89523571
c     0.90443978     0.39692772     0.91746440
c     0.09556023     0.60307232     0.41746440
c     0.59555496     0.39692160     0.41746436
c     0.40444505     0.60307844     0.91746436
c     0.98851181     0.18182724     0.93096464
c     0.01148820     0.81817280     0.43096464
c     0.51147679     0.18182403     0.43096457
c     0.48852322     0.81817602     0.93096457
o     0.99730187     0.16553412     0.98280817
o     0.00269814     0.83446592     0.48280817
o     0.50268717     0.16553377     0.48280837
o     0.49731285     0.83446628     0.98280837
o     0.85981174     0.52304895     0.96053882
o     0.14018827     0.47695110     0.46053882
o     0.64019107     0.52303398     0.46053912
o     0.35980895     0.47696607     0.96053912
b     0.91805687     0.37812993     0.00082319
b     0.08194314     0.62187012     0.50082319
b     0.58194238     0.37812063     0.50082364
b     0.41805763     0.62187941     0.00082364
c     0.89507181     0.43392130     0.05674734
c     0.10492820     0.56607875     0.55674734
c     0.60493288     0.43391908     0.55674794
c     0.39506714     0.56608097     0.05674794
c     0.82934641     0.64305124     0.07503172
c     0.17065360     0.35694881     0.57503172
c     0.67065313     0.64304558     0.57503219
c     0.32934689     0.35695447     0.07503219
c     0.79717763     0.69859000     0.12812660
c     0.20282238     0.30141005     0.62812660
c     0.70281867     0.69859214     0.62812736
c     0.29718135     0.30140791     0.12812736
c     0.70863462     0.91318127     0.14101957
c     0.29136539     0.08681878     0.64101957
c     0.79135711     0.91318211     0.64102083
c     0.20864291     0.08681794     0.14102083
c     0.66779902     0.96646825     0.19108971
c     0.33220099     0.03353180     0.69108971
c     0.83219166     0.96647068     0.69109110
c     0.16780835     0.03352937     0.19109110
c     0.71649811     0.80737776     0.22940681
c     0.28350191     0.19262229     0.72940681
c     0.78349546     0.80737854     0.72940817
c     0.21650455     0.19262151     0.22940817
c     0.80666805     0.59500445     0.21723512
c     0.19333196     0.40499559     0.71723512
c     0.69332768     0.59500861     0.71723629
c     0.30667234     0.40499144     0.21723629
c     0.84664327     0.54114219     0.16733686
c     0.15335675     0.45885786     0.66733686
c     0.65335277     0.54114508     0.66733788
c     0.34664725     0.45885496     0.16733788
h     0.80292943     0.62306820     0.85780849
h     0.19707058     0.37693185     0.35780849
h     0.69707445     0.62305499     0.35780944
h     0.30292556     0.37694506     0.85780944
h     0.90851401     0.33293175     0.79144254
h     0.09148600     0.66706830     0.29144254
h     0.59146531     0.33294277     0.29144220
h     0.40853470     0.66705728     0.79144220
h     0.06246807     0.95664438     0.81543248
h     0.93753195     0.04335566     0.31543248
h     0.43751836     0.95665539     0.31543135
h     0.56248165     0.04334466     0.81543135
h     0.11229947     0.85206056     0.90572313
h     0.88770055     0.14793949     0.40572313
h     0.38769133     0.85206189     0.40572090
h     0.61230869     0.14793815     0.90572090
h     0.93194663     0.29259164     0.08337112
h     0.06805339     0.70740841     0.58337112
h     0.56806141     0.29258834     0.58337223
h     0.43193860     0.70741171     0.08337223
h     0.79231407     0.78464289     0.04836898
h     0.20768594     0.21535716     0.54836898
h     0.70769001     0.78463669     0.54836936
h     0.29231000     0.21536336     0.04836936
h     0.66962370     0.03786323     0.11122865
h     0.33037631     0.96213681     0.61122865
h     0.83036671     0.03786702     0.61123037
h     0.16963330     0.96213302     0.11123037
h     0.59727806     0.13196340     0.19995408
h     0.40272195     0.86803665     0.69995408
h     0.90270420     0.13196905     0.69995593
h     0.09729581     0.86803100     0.19995593
h     0.68574191     0.84891527     0.26857074
h     0.31425810     0.15108478     0.76857074
h     0.81424693     0.84891777     0.76857240
h     0.18575309     0.15108227     0.26857240
h     0.84691543     0.47074186     0.24687908
h     0.15308459     0.52925819     0.74687908
h     0.65307426     0.47075026     0.74688024
h     0.34692576     0.52924978     0.24688024
h     0.91729001     0.37531881     0.15885584
h     0.08271000     0.62468124     0.65885584
h     0.58270604     0.37532533     0.65885715
h     0.41729398     0.62467472     0.15885715

K_POINTS automatic
2 2 2 1 1 1

CELL_PARAMETERS cubic
   14.213334000000     0.000071000000     0.000000000000
    0.000053000000    10.501471000000     0.000000000000
    0.000000000000     0.000000000000    50.093240000000
