&control
 title='crystal',
 prefix='crystal',
 pseudo_dir='.',
 calculation='vc-relax',
/
&system
 ibrav=0,
 celldm(1)=1.0,
 nat=    56,
 ntyp=  4,
 ecutwfc=60.0,
 ecutrho=600.0,
 xdm=.true.,
 xdm_a1=0.4073,
 xdm_a2=2.4150,
/
&electrons
 conv_thr = 1d-8,
/
&ions
/
&cell
/
ATOMIC_SPECIES
h      1.007940 h.UPF
b     10.811000 b.UPF
c     12.010700 c.UPF
o     15.999400 o.UPF

ATOMIC_POSITIONS crystal
c     0.30087872     0.34825836     0.44901817
c     0.69912128     0.65174165     0.55098180
c     0.14808535     0.23745813     0.47802563
c     0.85191465     0.76254188     0.52197434
c     0.97508853     0.24756169     0.41469517
c     0.02491146     0.75243832     0.58530480
c     0.96418835     0.37225304     0.32226734
c     0.03581164     0.62774697     0.67773263
c     0.11707491     0.48286322     0.29278516
c     0.88292509     0.51713679     0.70721481
c     0.28794854     0.47417323     0.35532430
c     0.71205145     0.52582678     0.64467568
o     0.81254369     0.40969139     0.24629968
o     0.18745630     0.59030862     0.75370029
b     0.87738602     0.54599459     0.16810146
b     0.12261398     0.45400542     0.83189851
o     0.06633824     0.59277244     0.19671661
o     0.93366175     0.40722757     0.80328337
c     0.75238274     0.63025878     0.07023318
c     0.24761725     0.36974122     0.92976679
c     0.81152012     0.76380283     0.99912767
c     0.18847987     0.23619718     0.00087230
c     0.70176844     0.85556313     0.90693079
c     0.29823155     0.14443688     0.09306919
c     0.51077983     0.81374557     0.87807897
c     0.48922017     0.18625444     0.12192100
c     0.41216187     0.90610194     0.79011461
c     0.58783812     0.09389807     0.20988537
c     0.50020735     0.04244868     0.72995447
c     0.49979264     0.95755133     0.27004551
c     0.68872130     0.08613913     0.75809554
c     0.31127869     0.91386087     0.24190443
c     0.78857041     0.99313053     0.84503258
c     0.21142959     0.00686948     0.15496739
h     0.43579863     0.33648731     0.49767956
h     0.56420136     0.66351270     0.50232041
h     0.16311595     0.14042823     0.55049317
h     0.83688404     0.85957178     0.44950680
h     0.85605412     0.16157504     0.43669351
h     0.14394587     0.83842496     0.56330646
h     0.40788223     0.55963479     0.33139094
h     0.59211776     0.44036522     0.66860903
h     0.60644469     0.58085556     0.05967282
h     0.39355531     0.41914445     0.94032715
h     0.95863851     0.81043584     0.01126364
h     0.04136148     0.18956417     0.98873633
h     0.43812102     0.70856135     0.92443317
h     0.56187898     0.29143865     0.07556680
h     0.26555878     0.87097127     0.76854815
h     0.73444122     0.12902874     0.23145182
h     0.42046663     0.11508051     0.66276117
h     0.57953337     0.88491950     0.33723880
h     0.75771841     0.19257777     0.71362588
h     0.24228158     0.80742224     0.28637410
h     0.93626711     0.02711698     0.86665763
h     0.06373288     0.97288303     0.13334234

K_POINTS automatic
2 2 2 1 1 1

CELL_PARAMETERS cubic
   12.195402000000    -0.033388000000    -0.104653000000
    0.617995000000    17.437182000000     0.041647000000
    4.913096000000     1.828162000000    17.345889000000
