&control
 title='crystal',
 prefix='crystal',
 pseudo_dir='.',
 calculation='vc-relax',
/
&system
 ibrav=0,
 celldm(1)=1.0,
 nat=   112,
 ntyp=  4,
 ecutwfc=60.0,
 ecutrho=600.0,
 xdm=.true.,
 xdm_a1=0.4073,
 xdm_a2=2.4150,
/
&electrons
 conv_thr = 1d-8,
/
&ions
/
&cell
/
ATOMIC_SPECIES
h      1.007940 h.UPF
b     10.811000 b.UPF
c     12.010700 c.UPF
o     15.999400 o.UPF

ATOMIC_POSITIONS crystal
h     0.95245472     0.48411957     0.63688904
h     0.54756146     0.51587045     0.13694153
h     0.45245333     0.01587295     0.36311720
h     0.04755774     0.98413287     0.86305923
c     0.90797453     0.42240333     0.56627965
c     0.59203237     0.57759283     0.06631087
c     0.40797799     0.07759195     0.43372398
c     0.09202985     0.92241072     0.93368540
c     0.95530597     0.32697348     0.50825527
c     0.54469646     0.67302642     0.00828508
c     0.45531101     0.17302203     0.49174339
c     0.04469517     0.82697754     0.99171809
h     0.03947748     0.31354525     0.53399569
h     0.46052535     0.68644710     0.03403983
h     0.53948241     0.18644549     0.46599250
h     0.96052247     0.81355661     0.96597532
c     0.89617827     0.24836618     0.41818339
c     0.60381959     0.75164171     0.91819281
c     0.39618611     0.25163256     0.58181212
c     0.10381731     0.74836423     0.08180762
h     0.93558905     0.17571717     0.37363299
h     0.56440700     0.82429246     0.87363389
h     0.43559648     0.32428326     0.62635643
h     0.06440383     0.67571521     0.12637255
c     0.78712097     0.26055281     0.38355971
c     0.71287628     0.73945300     0.88355630
c     0.28712761     0.23944599     0.61643797
c     0.21287508     0.76054706     0.11644181
h     0.74159168     0.19954073     0.31254975
h     0.75841292     0.80046581     0.81254407
h     0.24159213     0.30045433     0.68744099
h     0.25840307     0.69953111     0.18745824
c     0.74117261     0.35447190     0.44351647
c     0.75882560     0.64552732     0.94350959
c     0.24117839     0.14552477     0.55648697
c     0.25882500     0.85447231     0.05648408
c     0.80041837     0.43352630     0.53173712
c     0.69958422     0.56646748     0.03174637
c     0.30042185     0.06646965     0.46827149
c     0.19958502     0.93353165     0.96824697
o     0.73467386     0.51758274     0.57761809
o     0.76533163     0.48240957     0.07763489
o     0.23467748     0.98241413     0.42239058
o     0.26533291     0.01758828     0.92236060
b     0.63298089     0.48770360     0.51687073
b     0.86702254     0.51229477     0.01687696
b     0.13298398     0.01229245     0.48313920
b     0.36702270     0.98770237     0.98312147
o     0.63622630     0.38673103     0.43208841
o     0.86377134     0.61327147     0.93207885
o     0.13623241     0.11326784     0.56791353
o     0.36377147     0.88672535     0.06791617
c     0.53297106     0.55449822     0.54580129
c     0.96703661     0.44550129     0.04577815
c     0.03296862     0.94550322     0.45420137
c     0.46703463     0.05449772     0.95421700
h     0.53964257     0.62614953     0.62984879
h     0.96038742     0.37383256     0.12980475
h     0.03963728     0.87384706     0.37016225
h     0.46037894     0.12616379     0.87018539
c     0.43740670     0.52603294     0.47578301
c     0.06259545     0.47398799     0.97574994
c     0.93740529     0.97396624     0.52422359
c     0.56259214     0.02601289     0.02424891
h     0.43299695     0.45345784     0.39306138
h     0.06699498     0.54657444     0.89303866
h     0.93299315     0.04654588     0.60693462
h     0.56698874     0.95342929     0.10696779
c     0.33524349     0.57900231     0.50055783
c     0.16475728     0.42101304     0.00050602
c     0.83524030     0.92100014     0.49943936
c     0.66475334     0.07898586     0.99949177
c     0.32290459     0.67742183     0.59133287
c     0.17709188     0.32258919     0.09129872
c     0.82290050     0.82258156     0.40866030
c     0.67708646     0.17741052     0.90870270
h     0.39253869     0.71964643     0.64257181
h     0.10745153     0.28037347     0.14255079
h     0.89253760     0.78036527     0.35740906
h     0.60744605     0.21963170     0.85746368
c     0.22224744     0.72077072     0.61764796
c     0.27774821     0.27923769     0.11763209
c     0.72224418     0.77923213     0.38234679
c     0.77773938     0.22076535     0.88237630
h     0.21334836     0.79664716     0.68796647
h     0.28665150     0.20335932     0.18796570
h     0.71333942     0.70336109     0.31201374
h     0.78663486     0.29664477     0.81204245
c     0.13183265     0.66722151     0.55421514
c     0.36816355     0.33278730     0.05418555
c     0.63182897     0.83277984     0.44578680
c     0.86815884     0.16721319     0.94580571
h     0.05340115     0.70159555     0.57724238
h     0.44659767     0.29841987     0.07722778
h     0.55339697     0.79840720     0.42277154
h     0.94659062     0.20158367     0.92275379
c     0.14296603     0.57072429     0.46084780
c     0.35703159     0.42928972     0.96080928
c     0.64296634     0.92927151     0.53916952
c     0.85702901     0.07070912     0.03918100
h     0.07354941     0.52934483     0.40729360
h     0.42644768     0.47067705     0.90726397
h     0.57355194     0.97065427     0.59272160
h     0.92644813     0.02932374     0.09272646
c     0.24367658     0.52725248     0.43421423
c     0.25632421     0.47276647     0.93415844
c     0.74367414     0.97274567     0.56579575
c     0.75632239     0.02723302     0.06583639
h     0.25247058     0.45162622     0.36252271
h     0.24754169     0.54839868     0.86245975
h     0.75246447     0.04836966     0.63749694
h     0.74753547     0.95159824     0.13752640

K_POINTS automatic
2 2 2 1 1 1

CELL_PARAMETERS cubic
   23.763904000000     0.000024000000     0.000085000000
    0.000003000000    23.693303000000     0.001027000000
   -0.000083000000     0.000607000000    13.809268000000
