&control
 title='crystal',
 prefix='crystal',
 pseudo_dir='.',
 calculation='vc-relax',
/
&system
 ibrav=0,
 celldm(1)=1.0,
 nat=   112,
 ntyp=  4,
 ecutwfc=60.0,
 ecutrho=600.0,
 xdm=.true.,
 xdm_a1=0.4073,
 xdm_a2=2.4150,
/
&electrons
 conv_thr = 1d-8,
/
&ions
/
&cell
/
ATOMIC_SPECIES
h      1.007940 h.UPF
b     10.811000 b.UPF
c     12.010700 c.UPF
o     15.999400 o.UPF

ATOMIC_POSITIONS crystal
b     0.19955238     0.99984022     0.83220654
b     0.69955237     0.50015970     0.16779346
b     0.80044760     0.49984025     0.66779346
b     0.30044761     0.00015972     0.33220654
c     0.18987595     0.00069847     0.78167102
c     0.68987595     0.49930145     0.21832898
c     0.81012403     0.50069850     0.71832898
c     0.31012404     0.99930147     0.28167102
c     0.28930458     0.99713765     0.75401418
c     0.78930457     0.50286227     0.24598582
c     0.71069540     0.49713768     0.74598582
c     0.21069541     0.00286229     0.25401418
c     0.28767970     0.99779570     0.70547489
c     0.78767969     0.50220422     0.29452511
c     0.71232028     0.49779573     0.79452511
c     0.21232029     0.00220424     0.20547489
c     0.17657824     0.00088912     0.68074764
c     0.67657823     0.49911080     0.31925236
c     0.82342174     0.50088915     0.81925236
c     0.32342175     0.99911082     0.18074764
c     0.17897874     0.00138723     0.63454448
c     0.67897873     0.49861269     0.36545552
c     0.82102124     0.50138726     0.86545552
c     0.32102125     0.99861271     0.13454448
c     0.29226096     0.99908295     0.61184673
c     0.79226095     0.50091697     0.38815327
c     0.70773902     0.49908299     0.88815327
c     0.20773903     0.00091698     0.11184673
c     0.40333881     0.99611941     0.63569400
c     0.90333880     0.50388051     0.36430600
c     0.59666117     0.49611944     0.86430600
c     0.09666118     0.00388053     0.13569400
c     0.40087710     0.99529853     0.68205755
c     0.90087709     0.50470139     0.31794245
c     0.59912288     0.49529856     0.81794245
c     0.09912289     0.00470141     0.18205755
o     0.09545644     0.00275019     0.86066849
o     0.59545643     0.49724973     0.13933151
o     0.90454354     0.50275022     0.63933151
o     0.40454355     0.99724975     0.36066849
o     0.31010928     0.99647617     0.85741887
o     0.81010927     0.50352375     0.14258113
o     0.68989070     0.49647620     0.64258113
o     0.18989071     0.00352376     0.35741887
c     0.14292064     0.00105259     0.90340601
c     0.64292063     0.49894733     0.09659399
c     0.85707934     0.50105262     0.59659399
c     0.35707935     0.99894734     0.40340601
c     0.27261193     0.99772862     0.90149051
c     0.77261192     0.50227130     0.09850949
c     0.72738805     0.49772865     0.59850949
c     0.22738806     0.00227131     0.40149051
c     0.34474023     0.99558948     0.93972375
c     0.84474022     0.50441044     0.06027625
c     0.65525975     0.49558951     0.56027625
c     0.15525976     0.00441045     0.43972375
c     0.28113210     0.99721984     0.98047602
c     0.78113209     0.50278008     0.01952398
c     0.71886788     0.49721987     0.51952398
c     0.21886789     0.00278009     0.48047602
c     0.15141941     0.00099375     0.98227864
c     0.65141940     0.49900617     0.01772136
c     0.84858057     0.50099378     0.51772136
c     0.34858058     0.99900619     0.48227864
c     0.07921065     0.00257464     0.94346589
c     0.57921064     0.49742528     0.05653411
c     0.92078933     0.50257468     0.55653411
c     0.42078934     0.99742529     0.44346589
h     0.08720445     0.00250429     0.69768042
h     0.58720444     0.49749563     0.30231958
h     0.91279553     0.50250432     0.80231958
h     0.41279554     0.99749565     0.19768042
h     0.09166887     0.00375742     0.61641139
h     0.59166886     0.49624250     0.38358861
h     0.90833111     0.50375745     0.88358861
h     0.40833112     0.99624252     0.11641139
h     0.29319424     0.99957952     0.57555862
h     0.79319423     0.50042040     0.42444138
h     0.70680574     0.49957955     0.92444138
h     0.20680575     0.00042041     0.07555862
h     0.49220507     0.99407506     0.61853708
h     0.99220507     0.50592486     0.38146292
h     0.50779491     0.49407510     0.88146292
h     0.00779492     0.00592487     0.11853708
h     0.48808097     0.99301302     0.70047743
h     0.98808096     0.50698690     0.29952257
h     0.51191901     0.49301305     0.79952257
h     0.01191902     0.00698691     0.20047743
h     0.38204888     0.99380113     0.76895368
h     0.88204887     0.50619879     0.23104632
h     0.61795110     0.49380116     0.73104632
h     0.11795111     0.00619881     0.26895368
h     0.09679261     0.00410116     0.76714586
h     0.59679260     0.49589876     0.23285414
h     0.90320737     0.50410119     0.73285414
h     0.40320738     0.99589877     0.26714586
h     0.44556093     0.99307553     0.93804026
h     0.94556092     0.50692439     0.06195974
h     0.55443905     0.49307557     0.56195974
h     0.05443906     0.00692440     0.43804026
h     0.33440842     0.99593222     0.01132022
h     0.83440841     0.50406770     0.98867978
h     0.66559156     0.49593225     0.48867978
h     0.16559157     0.00406772     0.51132022
h     0.10483597     0.00200838     0.01445435
h     0.60483596     0.49799154     0.98554565
h     0.89516401     0.50200841     0.48554565
h     0.39516402     0.99799155     0.51445435
h     0.97829942     0.00539692     0.94454203
h     0.47829941     0.49460300     0.05545797
h     0.02170056     0.50539695     0.55545797
h     0.52170057     0.99460302     0.44454203

K_POINTS automatic
2 2 2 1 1 1

CELL_PARAMETERS cubic
   20.343005000000     0.000000000000     0.000000000000
    0.000000000000     6.222920000000     0.000000000000
    0.000000000000     0.000000000000    56.677427000000
