&control
 title='crystal',
 prefix='crystal',
 pseudo_dir='.',
 calculation='vc-relax',
/
&system
 ibrav=0,
 celldm(1)=1.0,
 nat=   112,
 ntyp=  4,
 ecutwfc=60.0,
 ecutrho=600.0,
 xdm=.true.,
 xdm_a1=0.4073,
 xdm_a2=2.4150,
/
&electrons
 conv_thr = 1d-8,
/
&ions
/
&cell
/
ATOMIC_SPECIES
h      1.007940 h.UPF
b     10.811000 b.UPF
c     12.010700 c.UPF
o     15.999400 o.UPF

ATOMIC_POSITIONS crystal
c     0.37324116     0.09214468     0.59771920
c     0.62675883     0.90785528     0.40228081
c     0.37324115     0.40785530     0.09771920
c     0.62675883     0.59214467     0.90228081
c     0.34091339     0.11900501     0.65482136
c     0.65908659     0.88099496     0.34517864
c     0.34091339     0.38099498     0.15482136
c     0.65908659     0.61900499     0.84517865
c     0.24662812     0.31985616     0.69607671
c     0.75337186     0.68014381     0.30392330
c     0.24662812     0.18014383     0.19607671
c     0.75337186     0.81985614     0.80392330
c     0.17989562     0.50414743     0.68220186
c     0.82010436     0.49585253     0.31779814
c     0.17989562     0.99585255     0.18220186
c     0.82010436     0.00414741     0.81779814
c     0.30689650     0.27526651     0.58450284
c     0.69310349     0.72473345     0.41549716
c     0.30689649     0.22473347     0.08450284
c     0.69310349     0.77526649     0.91549716
c     0.21280945     0.47627490     0.62553773
c     0.78719053     0.52372506     0.37446228
c     0.21280945     0.02372508     0.12553773
c     0.78719053     0.97627488     0.87446228
o     0.16462131     0.62887042     0.59990922
o     0.83537867     0.37112954     0.40009078
o     0.16462131     0.87112956     0.09990922
o     0.83537867     0.12887040     0.90009078
o     0.32140930     0.29664836     0.53163202
o     0.67859068     0.70335160     0.46836798
o     0.32140930     0.20335162     0.03163202
o     0.67859068     0.79664834     0.96836798
b     0.23173043     0.51594557     0.54188618
b     0.76826955     0.48405439     0.45811382
b     0.23173043     0.98405441     0.04188618
b     0.76826955     0.01594555     0.95811382
c     0.21098199     0.62094687     0.49652356
c     0.78901800     0.37905309     0.50347644
c     0.21098198     0.87905311     0.99652356
c     0.78901800     0.12094685     0.00347645
c     0.27212588     0.50705631     0.44180070
c     0.72787411     0.49294365     0.55819930
c     0.27212587     0.99294367     0.94180070
c     0.72787411     0.00705630     0.05819930
c     0.25650040     0.58764044     0.39588796
c     0.74349958     0.41235952     0.60411205
c     0.25650039     0.91235954     0.89588796
c     0.74349958     0.08764042     0.10411205
c     0.33554868     0.44253535     0.34067422
c     0.66445130     0.55746462     0.65932579
c     0.33554868     0.05746464     0.84067422
c     0.66445130     0.94253533     0.15932579
c     0.31997909     0.50417544     0.29614592
c     0.68002090     0.49582452     0.70385408
c     0.31997908     0.99582454     0.79614592
c     0.68002090     0.00417542     0.20385409
c     0.22376522     0.71318894     0.30608685
c     0.77623476     0.28681102     0.69391315
c     0.22376522     0.78681104     0.80608685
c     0.77623476     0.21318892     0.19391316
c     0.14661446     0.86241681     0.36012238
c     0.85338553     0.13758315     0.63987762
c     0.14661445     0.63758317     0.86012238
c     0.85338553     0.36241679     0.13987762
c     0.16342369     0.80072508     0.40432808
c     0.83657630     0.19927488     0.59567192
c     0.16342368     0.69927490     0.90432808
c     0.83657630     0.30072506     0.09567192
h     0.44817329     0.93844394     0.56488193
h     0.55182669     0.06155602     0.43511807
h     0.44817329     0.56155604     0.06488193
h     0.55182669     0.43844392     0.93511807
h     0.39252930     0.98111072     0.66687801
h     0.60747069     0.01888924     0.33312199
h     0.39252929     0.51888926     0.16687801
h     0.60747069     0.48111070     0.83312199
h     0.22402931     0.33358699     0.74007400
h     0.77597068     0.66641297     0.25992601
h     0.22402930     0.16641299     0.24007400
h     0.77597068     0.83358697     0.75992601
h     0.10447737     0.65940624     0.71441109
h     0.89552261     0.34059372     0.28558891
h     0.10447736     0.84059374     0.21441109
h     0.89552262     0.15940622     0.78558891
h     0.14308739     0.79680940     0.50959237
h     0.85691260     0.20319056     0.49040764
h     0.14308738     0.70319058     0.00959237
h     0.85691260     0.29680938     0.99040764
h     0.34196076     0.33245233     0.42915212
h     0.65803922     0.66754763     0.57084789
h     0.34196075     0.16754765     0.92915212
h     0.65803922     0.83245231     0.07084789
h     0.40902714     0.27796593     0.33320922
h     0.59097285     0.72203403     0.66679078
h     0.40902713     0.22203405     0.83320922
h     0.59097285     0.77796592     0.16679078
h     0.38321829     0.38777898     0.25388886
h     0.61678169     0.61222098     0.74611115
h     0.38321829     0.11222100     0.75388886
h     0.61678169     0.88777896     0.24611115
h     0.20793959     0.75947059     0.27212593
h     0.79206039     0.24052937     0.72787407
h     0.20793958     0.74052939     0.77212593
h     0.79206039     0.25947057     0.22787407
h     0.07206619     0.02603616     0.36780271
h     0.92793380     0.97396380     0.63219729
h     0.07206618     0.47396382     0.86780271
h     0.92793380     0.52603614     0.13219730
h     0.10109356     0.91763913     0.44648519
h     0.89890643     0.08236083     0.55351481
h     0.10109355     0.58236085     0.94648519
h     0.89890643     0.41763911     0.05351481

K_POINTS automatic
2 2 2 1 1 1

CELL_PARAMETERS cubic
   18.407421000000     0.000000000000     0.092449000000
    0.000000000000    10.492857000000     0.000000000000
   35.985567000000     0.000000000000    38.367169000000
