&control
 title='crystal',
 prefix='crystal',
 pseudo_dir='.',
 calculation='vc-relax',
/
&system
 ibrav=0,
 celldm(1)=1.0,
 nat=   112,
 ntyp=  4,
 ecutwfc=60.0,
 ecutrho=600.0,
 xdm=.true.,
 xdm_a1=0.4073,
 xdm_a2=2.4150,
/
&electrons
 conv_thr = 1d-8,
/
&ions
/
&cell
/
ATOMIC_SPECIES
h      1.007940 h.UPF
b     10.811000 b.UPF
c     12.010700 c.UPF
o     15.999400 o.UPF

ATOMIC_POSITIONS crystal
c     0.61484521     0.32649972     0.39297338
c     0.38515479     0.67350028     0.60702664
c     0.61484523     0.17350028     0.89297339
c     0.38515478     0.82649971     0.10702663
c     0.82645876     0.30683632     0.43391316
c     0.17354124     0.69316367     0.56608687
c     0.82645878     0.19316367     0.93391317
c     0.17354123     0.80683632     0.06608686
c     0.86747092     0.25290860     0.43651252
c     0.13252909     0.74709139     0.56348750
c     0.86747094     0.24709140     0.93651253
c     0.13252907     0.75290860     0.06348749
c     0.68805659     0.22036526     0.39851498
c     0.31194342     0.77963474     0.60148504
c     0.68805660     0.27963474     0.89851499
c     0.31194341     0.72036525     0.10148504
c     0.47697597     0.23990557     0.35882024
c     0.52302403     0.76009443     0.64117978
c     0.47697599     0.26009443     0.85882025
c     0.52302402     0.73990556     0.14117977
c     0.43405039     0.29309070     0.35386118
c     0.56594961     0.70690930     0.64613885
c     0.43405041     0.20690930     0.85386119
c     0.56594960     0.79309070     0.14613884
o     0.68118025     0.16628325     0.39343562
o     0.31881976     0.83371675     0.60656440
o     0.68118026     0.33371675     0.89343563
o     0.31881974     0.66628325     0.10656439
b     0.45980106     0.15321989     0.34991997
b     0.54019894     0.84678011     0.65008005
b     0.45980108     0.34678011     0.84991998
b     0.54019893     0.65321989     0.15008005
o     0.33154029     0.19874365     0.32743436
o     0.66845972     0.80125635     0.67256566
o     0.33154031     0.30125635     0.82743437
o     0.66845970     0.69874365     0.17256565
c     0.37403393     0.09716405     0.32838626
c     0.62596607     0.90283595     0.67161377
c     0.37403395     0.40283595     0.82838626
c     0.62596606     0.59716405     0.17161376
c     0.16240982     0.08434544     0.29388300
c     0.83759019     0.91565456     0.70611702
c     0.16240984     0.41565456     0.79388301
c     0.83759017     0.58434543     0.20611702
c     0.06898266     0.03183003     0.26820192
c     0.93101734     0.96816996     0.73179811
c     0.06898268     0.46816997     0.76820192
c     0.93101733     0.53183003     0.23179810
c     0.19650442     0.98609495     0.29743952
c     0.80349558     0.01390505     0.70256050
c     0.19650444     0.51390505     0.79743953
c     0.80349557     0.48609495     0.20256049
c     0.10064049     0.93684912     0.27503934
c     0.89935951     0.06315088     0.72496069
c     0.10064051     0.56315088     0.77503935
c     0.89935950     0.43684912     0.22496068
c     0.87415691     0.93215127     0.22113599
c     0.12584309     0.06784872     0.77886403
c     0.87415693     0.56784873     0.72113600
c     0.12584308     0.43215127     0.27886402
c     0.74450822     0.97695524     0.18949419
c     0.25549178     0.02304476     0.81050584
c     0.74450824     0.52304476     0.68949420
c     0.25549177     0.47695524     0.31050583
c     0.84120091     0.02625817     0.21349271
c     0.15879909     0.97374183     0.78650731
c     0.84120093     0.47374183     0.71349272
c     0.15879908     0.52625816     0.28650730
h     0.59018311     0.36869789     0.39258225
h     0.40981689     0.63130211     0.60741777
h     0.59018313     0.13130211     0.89258226
h     0.40981688     0.86869789     0.10741776
h     0.96303275     0.33396559     0.46607942
h     0.03696725     0.66603440     0.53392060
h     0.96303277     0.16603440     0.96607943
h     0.03696724     0.83396559     0.03392060
h     0.03069694     0.23724541     0.46581675
h     0.96930307     0.76275458     0.53418327
h     0.03069695     0.26275458     0.96581676
h     0.96930305     0.73724541     0.03418327
h     0.26835815     0.30764715     0.32116336
h     0.73164186     0.69235284     0.67883666
h     0.26835817     0.19235285     0.82116337
h     0.73164184     0.80764715     0.17883665
h     0.49135121     0.06574472     0.33979489
h     0.50864879     0.93425527     0.66020513
h     0.49135123     0.43425527     0.83979490
h     0.50864878     0.56574472     0.16020512
h     0.04511823     0.11587568     0.28288345
h     0.95488177     0.88412432     0.71711657
h     0.04511825     0.38412432     0.78288346
h     0.95488176     0.61587568     0.21711657
h     0.37333946     0.98915897     0.34133585
h     0.62666054     0.01084103     0.65866417
h     0.37333948     0.51084103     0.84133586
h     0.62666053     0.48915897     0.15866417
h     0.20217495     0.90191880     0.30284291
h     0.79782505     0.09808119     0.69715711
h     0.20217497     0.59808119     0.80284292
h     0.79782504     0.40191880     0.19715711
h     0.79956089     0.89357856     0.20565128
h     0.20043911     0.10642144     0.79434875
h     0.79956091     0.60642144     0.70565128
h     0.20043910     0.39357856     0.29434874
h     0.56789812     0.97344495     0.14722854
h     0.43210188     0.02655505     0.85277148
h     0.56789814     0.52655505     0.64722855
h     0.43210187     0.47344495     0.35277148
h     0.74137170     0.06152528     0.19085096
h     0.25862830     0.93847472     0.80914907
h     0.74137172     0.43847472     0.69085097
h     0.25862829     0.56152528     0.30914906

K_POINTS automatic
2 2 2 1 1 1

CELL_PARAMETERS cubic
   12.300910000000     0.000000000000     0.188611000000
    0.000000000000    48.244268000000     0.000000000000
   -4.739247000000     0.000000000000    12.365389000000
