&control
 title='crystal',
 prefix='crystal',
 pseudo_dir='.',
 calculation='vc-relax',
/
&system
 ibrav=0,
 celldm(1)=1.0,
 nat=   112,
 ntyp=  4,
 ecutwfc=60.0,
 ecutrho=600.0,
 xdm=.true.,
 xdm_a1=0.4073,
 xdm_a2=2.4150,
/
&electrons
 conv_thr = 1d-8,
/
&ions
/
&cell
/
ATOMIC_SPECIES
h      1.007940 h.UPF
b     10.811000 b.UPF
c     12.010700 c.UPF
o     15.999400 o.UPF

ATOMIC_POSITIONS crystal
c     0.25526040     0.48876080     0.88106896
c     0.74473966     0.51123920     0.11893103
c     0.74473544     0.98876604     0.61893177
c     0.25526462     0.01123396     0.38106822
c     0.41867165     0.53376431     0.84988573
c     0.58132841     0.46623569     0.15011427
c     0.58131357     0.03377088     0.65010889
c     0.41868649     0.96622912     0.34989110
c     0.61054449     0.47378187     0.87137494
c     0.38945557     0.52621813     0.12862506
c     0.38944749     0.97378109     0.62861777
c     0.61055257     0.02621891     0.37138222
c     0.64876701     0.36508427     0.92506816
c     0.35123305     0.63491573     0.07493183
c     0.35123435     0.86507277     0.57492931
c     0.64876571     0.13492723     0.42507068
c     0.29371803     0.37997754     0.93356872
c     0.70628203     0.62002246     0.06643127
c     0.70628989     0.87997428     0.56643507
c     0.29371017     0.12002572     0.43356492
c     0.48572521     0.31959788     0.95484583
c     0.51427485     0.68040212     0.04515416
c     0.51428769     0.81958588     0.54515640
c     0.48571237     0.18041412     0.45484359
o     0.47998351     0.21339994     0.00741060
o     0.52001655     0.78660006     0.99258939
o     0.52003872     0.71338142     0.49259587
o     0.47996134     0.28661858     0.50740413
o     0.16239071     0.31353901     0.97245080
o     0.83760935     0.68646099     0.02754920
o     0.83762337     0.81353692     0.52755593
o     0.16237669     0.18646308     0.47244406
b     0.27923054     0.21005964     0.01800861
b     0.72076952     0.78994036     0.98199138
b     0.72079311     0.71004725     0.48200017
b     0.27920695     0.28995275     0.51799982
c     0.20628129     0.10397923     0.07175676
c     0.79371877     0.89602077     0.92824324
c     0.79374506     0.60396194     0.42825417
c     0.20625500     0.39603806     0.57174582
c     0.01562139     0.09679217     0.08431229
c     0.98437866     0.90320783     0.91568770
c     0.98439893     0.59680892     0.41569133
c     0.01560113     0.40319108     0.58430867
c     0.94185812     0.99935983     0.13600868
c     0.05814194     0.00064017     0.86399131
c     0.05816595     0.49937045     0.36399731
c     0.94183411     0.50062955     0.63600268
c     0.74152160     0.02031282     0.14569646
c     0.25847845     0.97968718     0.85430354
c     0.25850386     0.52032753     0.35431127
c     0.74149620     0.47967247     0.64568872
c     0.66579051     0.93463234     0.19558985
c     0.33420955     0.06536766     0.80441014
c     0.33423972     0.43463852     0.30442179
c     0.66576034     0.56536148     0.69557820
c     0.78746823     0.82316044     0.23606637
c     0.21253183     0.17683956     0.76393362
c     0.21256728     0.32315858     0.26394773
c     0.78743278     0.67684142     0.73605226
c     0.98610578     0.79877847     0.22650416
c     0.01389427     0.20122153     0.77349584
c     0.01392767     0.29877623     0.27350867
c     0.98607239     0.70122377     0.72649132
c     0.06235599     0.88601147     0.17726133
c     0.93764407     0.11398853     0.82273866
c     0.93767114     0.38601440     0.32274835
c     0.06232892     0.61398560     0.67725164
h     0.10596870     0.53505093     0.86439201
h     0.89403136     0.46494907     0.13560798
h     0.89402500     0.03506125     0.63561060
h     0.10597506     0.96493875     0.36438939
h     0.39461995     0.61775159     0.80798748
h     0.60538011     0.38224841     0.19201251
h     0.60535518     0.11776762     0.69200459
h     0.39464487     0.88223238     0.30799540
h     0.73352379     0.51181885     0.84591824
h     0.26647627     0.48818115     0.15408175
h     0.26645870     0.01181955     0.65407103
h     0.73354136     0.98818045     0.34592896
h     0.79822794     0.32007541     0.94236593
h     0.20177212     0.67992459     0.05763406
h     0.20177862     0.82005539     0.55763016
h     0.79822144     0.17994461     0.44236984
h     0.31859831     0.02856295     0.10197324
h     0.68140174     0.97143705     0.89802675
h     0.68143573     0.52851271     0.39804805
h     0.31856433     0.47148729     0.60195194
h     0.90206679     0.17139859     0.05416741
h     0.09793327     0.82860141     0.94583259
h     0.09794642     0.67144189     0.44582786
h     0.90205363     0.32855811     0.55417214
h     0.64729657     0.10666182     0.11366810
h     0.35270349     0.89333818     0.88633190
h     0.35272748     0.60667844     0.38633832
h     0.64727258     0.39332156     0.61366167
h     0.51116319     0.95459283     0.20291008
h     0.48883687     0.04540717     0.79708991
h     0.48887112     0.45459622     0.29710308
h     0.51112894     0.54540378     0.70289691
h     0.72835058     0.75279682     0.27434787
h     0.27164948     0.24720318     0.72565212
h     0.27168950     0.25278572     0.22567083
h     0.72831056     0.74721428     0.77432916
h     0.08047635     0.70932382     0.25726012
h     0.91952371     0.29067618     0.74273987
h     0.91956109     0.20931207     0.24275538
h     0.08043897     0.79068793     0.75724461
h     0.21625719     0.86285474     0.16987477
h     0.78374287     0.13714526     0.83012522
h     0.78377121     0.36285285     0.33013480
h     0.21622885     0.63714715     0.66986519

K_POINTS automatic
2 2 2 1 1 1

CELL_PARAMETERS cubic
   12.806932000000    -0.000069000000     0.123436000000
   -0.000084000000    14.136465000000     0.000114000000
   -5.362579000000     0.000340000000    39.950262000000
