&control
 title='crystal',
 prefix='crystal',
 pseudo_dir='.',
 calculation='vc-relax',
/
&system
 ibrav=0,
 celldm(1)=1.0,
 nat=    56,
 ntyp=  4,
 ecutwfc=60.0,
 ecutrho=600.0,
 xdm=.true.,
 xdm_a1=0.4073,
 xdm_a2=2.4150,
/
&electrons
 conv_thr = 1d-8,
/
&ions
/
&cell
/
ATOMIC_SPECIES
h      1.007940 h.UPF
b     10.811000 b.UPF
c     12.010700 c.UPF
o     15.999400 o.UPF

ATOMIC_POSITIONS crystal
h     0.39245601     0.92997456     0.12460078
h     0.60754398     0.07002542     0.87539918
c     0.33458596     0.79246534     0.11468500
c     0.66541403     0.20753465     0.88531496
c     0.28236987     0.75368265     0.02666303
c     0.71763013     0.24631733     0.97333694
h     0.30486886     0.86099173     0.96528167
h     0.69513113     0.13900825     0.03471829
c     0.20575466     0.57833819     0.01498683
c     0.79424533     0.42166180     0.98501313
h     0.16910026     0.55116455     0.94469816
h     0.83089973     0.44883543     0.05530180
c     0.17797372     0.43305183     0.09121351
c     0.82202627     0.56694816     0.90878646
h     0.11739032     0.29726352     0.08362271
h     0.88260967     0.70273646     0.91637726
c     0.23093604     0.47201071     0.17767217
c     0.76906395     0.52798927     0.82232780
c     0.30706679     0.64750623     0.18922807
c     0.69293320     0.35249375     0.81077189
o     0.34562713     0.64648308     0.28259143
o     0.65437286     0.35351690     0.71740854
b     0.28973104     0.46608493     0.32869875
b     0.71026895     0.53391505     0.67130121
o     0.21949670     0.35570747     0.26331634
o     0.78050329     0.64429251     0.73668363
c     0.30070638     0.40139020     0.43479236
c     0.69929361     0.59860978     0.56520760
h     0.35721797     0.49760700     0.47980595
h     0.64278202     0.50239298     0.52019402
c     0.23881604     0.23028725     0.47515599
c     0.76118396     0.76971273     0.52484397
h     0.18316431     0.13754735     0.42790045
h     0.81683568     0.86245263     0.57209952
c     0.23517189     0.15288431     0.57608486
c     0.76482810     0.84711567     0.42391510
c     0.31491127     0.23459718     0.64364563
c     0.68508872     0.76540280     0.35635433
h     0.38895130     0.35529140     0.61985162
h     0.61104869     0.64470858     0.38014835
c     0.30263903     0.15929105     0.74031841
c     0.69736096     0.84070893     0.25968156
h     0.36665574     0.22315906     0.79074994
h     0.63334426     0.77684092     0.20925002
c     0.21122321     0.00062479     0.77185395
c     0.78877678     0.99937519     0.22814602
h     0.19873238     0.94605857     0.84860886
h     0.80126761     0.05394141     0.15139110
c     0.13381145     0.91447413     0.70535252
c     0.86618854     0.08552585     0.29464744
h     0.06190421     0.79133132     0.72887913
h     0.93809578     0.20866866     0.27112083
c     0.14675596     0.98961891     0.60826896
c     0.85324403     0.01038107     0.39173100
h     0.08699548     0.92160007     0.55609848
h     0.91300451     0.07839992     0.44390148

K_POINTS automatic
2 2 2 1 1 1

CELL_PARAMETERS cubic
   15.073635000000     2.327824000000     1.775018000000
    2.151088000000    10.834687000000     1.147536000000
    6.374828000000    -6.080129000000    23.701208000000
