&control
 title='crystal',
 prefix='crystal',
 pseudo_dir='.',
 calculation='vc-relax',
/
&system
 ibrav=0,
 celldm(1)=1.0,
 nat=   112,
 ntyp=  4,
 ecutwfc=60.0,
 ecutrho=600.0,
 xdm=.true.,
 xdm_a1=0.4073,
 xdm_a2=2.4150,
/
&electrons
 conv_thr = 1d-8,
/
&ions
/
&cell
/
ATOMIC_SPECIES
h      1.007940 h.UPF
b     10.811000 b.UPF
c     12.010700 c.UPF
o     15.999400 o.UPF

ATOMIC_POSITIONS crystal
h     0.52651483     0.68803986     0.54813185
h     0.47348515     0.31196019     0.45186813
h     0.52651484     0.81196022     0.04813185
h     0.47348514     0.18803983     0.95186812
c     0.62402545     0.81788482     0.60173826
c     0.37597453     0.18211523     0.39826172
c     0.62402546     0.68211526     0.10173827
c     0.37597452     0.31788479     0.89826171
c     0.70702835     0.91270974     0.60643310
c     0.29297163     0.08729032     0.39356688
c     0.70702836     0.58729035     0.10643310
c     0.29297162     0.41270971     0.89356688
c     0.67328611     0.89552911     0.66939176
c     0.32671387     0.10447094     0.33060821
c     0.67328612     0.60447097     0.16939177
c     0.32671386     0.39552908     0.83060821
c     0.79843129     0.06253111     0.73870241
c     0.20156869     0.93746895     0.26129757
c     0.79843130     0.43746898     0.23870241
c     0.20156868     0.56253108     0.76129756
c     0.83291582     0.07617426     0.67611938
c     0.16708416     0.92382579     0.32388059
c     0.83291583     0.42382582     0.17611939
c     0.16708415     0.57617423     0.82388059
h     0.67263944     0.85619935     0.55471710
h     0.32736054     0.14380071     0.44528288
h     0.67263945     0.64380073     0.05471710
h     0.32736053     0.35619932     0.94528287
o     0.61408943     0.82830139     0.68153691
o     0.38591055     0.17169866     0.31846307
o     0.61408944     0.67169869     0.18153692
o     0.38591054     0.32830137     0.81846306
c     0.88179173     0.15322014     0.74432635
c     0.11820825     0.84677992     0.25567363
c     0.88179174     0.34677995     0.24432636
c     0.11820824     0.65322011     0.75567362
o     0.81996813     0.11181553     0.79550380
o     0.18003185     0.88818453     0.20449618
o     0.81996814     0.38818456     0.29550380
o     0.18003184     0.61181550     0.70449617
h     0.89465217     0.14992245     0.67777747
h     0.10534781     0.85007761     0.32222251
h     0.89465218     0.35007763     0.17777748
h     0.10534780     0.64992242     0.82222250
b     0.70585143     0.96144775     0.76004744
b     0.29414855     0.03855231     0.23995254
b     0.70585144     0.53855234     0.26004745
b     0.29414854     0.46144772     0.73995253
h     0.97952981     0.28022338     0.79853153
h     0.02047017     0.71977668     0.20146845
h     0.97952982     0.21977670     0.29853154
h     0.02047016     0.78022335     0.70146844
c     0.68585385     0.94159794     0.80140178
c     0.31414613     0.05840212     0.19859820
c     0.68585386     0.55840214     0.30140178
c     0.31414612     0.44159791     0.69859819
h     0.59658693     0.80441977     0.76999733
h     0.40341305     0.19558029     0.23000265
h     0.59658694     0.69558032     0.26999734
h     0.40341304     0.30441974     0.73000264
c     0.77717984     0.08328062     0.87648978
c     0.22282014     0.91671944     0.12351020
c     0.77717985     0.41671947     0.37648979
c     0.22282013     0.58328059     0.62351019
h     0.86593961     0.21686935     0.90651005
h     0.13406037     0.78313071     0.09348992
h     0.86593962     0.28313073     0.40651006
h     0.13406036     0.71686932     0.59348992
c     0.77314244     0.07974046     0.92407694
c     0.22685754     0.92025959     0.07592304
c     0.77314245     0.42025962     0.42407695
c     0.22685753     0.57974044     0.57592303
c     0.88230856     0.23074349     0.00281981
c     0.11769142     0.76925656     0.99718017
c     0.88230857     0.26925659     0.50281981
c     0.11769141     0.73074346     0.49718016
c     0.66526705     0.93025206     0.89508111
c     0.33473293     0.06974800     0.10491886
c     0.66526706     0.56974802     0.39508112
c     0.33473292     0.43025203     0.60491886
c     0.66706009     0.93260776     0.94328380
c     0.33293989     0.06739230     0.05671618
c     0.66706010     0.56739233     0.44328380
c     0.33293988     0.43260773     0.55671618
c     0.88381040     0.23452935     0.05096963
c     0.11618958     0.76547070     0.94903035
c     0.88381041     0.26547073     0.55096963
c     0.11618957     0.73452932     0.44903035
h     0.96657599     0.34707069     0.02611065
h     0.03342399     0.65292936     0.97388932
h     0.96657600     0.15292939     0.52611066
h     0.03342399     0.84707067     0.47388932
h     0.58008200     0.80804879     0.83470954
h     0.41991798     0.19195126     0.16529043
h     0.58008201     0.69195129     0.33470955
h     0.41991797     0.30804877     0.66529043
c     0.77607814     0.08572850     0.02124273
c     0.22392184     0.91427155     0.97875725
c     0.77607815     0.41427158     0.52124274
c     0.22392183     0.58572848     0.47875724
h     0.58331543     0.81275964     0.91995792
h     0.41668455     0.18724041     0.08004205
h     0.58331544     0.68724044     0.41995793
h     0.41668454     0.31275961     0.58004205
h     0.96896763     0.35533036     0.11133527
h     0.03103235     0.64466969     0.88866470
h     0.96896764     0.14466972     0.61133528
h     0.03103234     0.85533034     0.38866470
h     0.77655464     0.08775970     0.05863178
h     0.22344534     0.91224036     0.94136820
h     0.77655465     0.41224039     0.55863178
h     0.22344533     0.58775967     0.44136819

K_POINTS automatic
2 2 2 1 1 1

CELL_PARAMETERS cubic
   33.403095000000     0.000000000000     0.200369000000
    0.000000000000     7.151556000000     0.000000000000
  -46.246309000000     0.000000000000    30.574168000000
