&control
 title='crystal',
 prefix='crystal',
 pseudo_dir='.',
 calculation='vc-relax',
/
&system
 ibrav=0,
 celldm(1)=1.0,
 nat=    64,
 ntyp=  5,
 ecutwfc=60.0,
 ecutrho=600.0,
 xdm=.true.,
 xdm_a1=0.4073,
 xdm_a2=2.4150,
/
&electrons
 conv_thr = 1d-8,
/
&ions
/
&cell
/
ATOMIC_SPECIES
h      1.007940 h.UPF
c     12.010700 c.UPF
n     14.006700 n.UPF
o     15.999400 o.UPF
cl    35.453000 cl.UPF

ATOMIC_POSITIONS crystal
cl    0.11915332     0.29529671     0.60591173
cl    0.88084669     0.79529671     0.39408826
o     0.52984454     0.61867097     0.84494397
o     0.47015546     0.11867097     0.15505603
h     0.64728448     0.63588849     0.87151454
h     0.35271553     0.13588849     0.12848546
n     0.16943290     0.18854017     0.09177331
n     0.83056711     0.68854017     0.90822669
n     0.68968464     0.27102054     0.98081394
n     0.31031537     0.77102054     0.01918605
h     0.61058513     0.24174472     0.05251094
h     0.38941488     0.74174472     0.94748906
c     0.10803353     0.18567200     0.96029671
c     0.89196647     0.68567200     0.03970328
h     0.18986172     0.15931628     0.88234113
h     0.81013829     0.65931628     0.11765886
c     0.95082064     0.20918859     0.91764556
c     0.04917937     0.70918859     0.08235443
h     0.91475269     0.20210818     0.80729718
h     0.08524731     0.70210818     0.19270281
c     0.84295763     0.23760678     0.01636155
c     0.15704238     0.73760678     0.98363844
c     0.90456140     0.24091052     0.16070666
c     0.09543861     0.74091052     0.83929333
c     0.81179163     0.27848187     0.27124506
c     0.18820837     0.77848187     0.72875494
h     0.68638733     0.29533013     0.25061056
h     0.31361268     0.79533013     0.74938944
c     0.87649185     0.29523437     0.40656303
c     0.12350815     0.79523437     0.59343697
h     0.80471670     0.32913184     0.49042188
h     0.19528330     0.82913184     0.50957812
c     0.03811380     0.27075139     0.43506928
c     0.96188621     0.77075139     0.56493072
c     0.13326935     0.23040803     0.33150618
c     0.86673066     0.73040803     0.66849382
h     0.25842367     0.21257602     0.35360043
h     0.74157634     0.71257602     0.64639957
c     0.06874585     0.21758974     0.19183801
c     0.93125416     0.71758974     0.80816199
c     0.62105995     0.28151979     0.83690974
c     0.37894005     0.78151979     0.16309025
h     0.71043897     0.33767092     0.77318488
h     0.28956104     0.83767092     0.22681512
c     0.48542330     0.42339793     0.82782595
c     0.51457670     0.92339793     0.17217404
h     0.41931407     0.40771639     0.72567605
h     0.58068594     0.90771639     0.27432394
h     0.40611039     0.38413894     0.90719602
h     0.59388962     0.88413894     0.09280398
c     0.56854737     0.08288307     0.78302235
c     0.43145264     0.58288307     0.21697765
h     0.65919262     0.98010515     0.81945794
h     0.34080738     0.48010515     0.18054206
h     0.46417765     0.04212710     0.83418966
h     0.53582235     0.54212710     0.16581034
c     0.53720055     0.06778050     0.62520048
c     0.46279945     0.56778050     0.37479951
h     0.50218691     0.92188563     0.59519797
h     0.49781309     0.42188563     0.40480202
h     0.64233111     0.10084010     0.57313848
h     0.35766890     0.60084010     0.42686152
h     0.44380579     0.16378709     0.58380013
h     0.55619421     0.66378709     0.41619987

K_POINTS automatic
2 2 2 1 1 1

CELL_PARAMETERS cubic
   16.275237000000     0.000000000000     0.077433000000
    0.000000000000    13.240317000000     0.000000000000
   -1.684924000000     0.000000000000    18.160618000000
