## FHIaims input file generated by critic2.
lattice_vector 3.9519999950       0.0000000000       0.0000000000       
lattice_vector -1.9760000025      3.4225323943       0.0000000000       
lattice_vector 0.0000000000       0.0000000000       5.8600000000       
atom_frac  0.3333321300       0.6666660600       0.2841296900       Te
atom_frac  0.6666671800       0.3333335900       0.7158703100       Te
atom_frac  0.0000000000       0.0000000000       0.0000000000       Zr
