&control
 title='crystal',
 prefix='crystal',
 pseudo_dir='.',
 calculation='vc-relax',
/
&system
 ibrav=0,
 celldm(1)=1.0,
 nat=    48,
 ntyp=  4,
 ecutwfc=60.0,
 ecutrho=600.0,
 xdm=.true.,
 xdm_a1=0.4073,
 xdm_a2=2.4150,
/
&electrons
 conv_thr = 1d-8,
/
&ions
/
&cell
/
ATOMIC_SPECIES
h      1.007940 h.UPF
c     12.010700 c.UPF
n     14.006700 n.UPF
o     15.999400 o.UPF

ATOMIC_POSITIONS crystal
o     0.72711365     0.06229633     0.09564171
o     0.27288639     0.93770367     0.90435831
o     0.27287994     0.56228247     0.40434935
o     0.72712011     0.43771753     0.59565067
n     0.15830897     0.13586427     0.13868252
n     0.84169108     0.86413573     0.86131750
n     0.84168689     0.63586234     0.36131125
n     0.15831315     0.36413766     0.63868877
n     0.58605961     0.23260013     0.33272954
n     0.41394044     0.76739987     0.66727048
n     0.41392944     0.73258705     0.16725968
n     0.58607061     0.26741295     0.83274034
c     0.91059047     0.12639538     0.17175440
c     0.08940957     0.87360462     0.82824562
c     0.08941154     0.62637885     0.32824143
c     0.91058850     0.37362115     0.67175859
c     0.86141014     0.19317339     0.30975460
c     0.13858990     0.80682661     0.69024542
c     0.13858939     0.69315342     0.19023635
c     0.86141066     0.30684658     0.80976367
c     0.71194372     0.08589815     0.40088868
c     0.28805633     0.91410185     0.59911134
c     0.28806364     0.58587865     0.09911524
c     0.71193641     0.41412135     0.90088478
h     0.76686386     0.09322917     0.50996428
h     0.23313618     0.90677083     0.49003575
h     0.23313692     0.59320765     0.99002602
h     0.76686312     0.40679235     0.00997400
h     0.01350621     0.27392313     0.35858486
h     0.98649383     0.72607687     0.64141516
h     0.98647913     0.77390137     0.14140257
h     0.01352092     0.22609863     0.85859745
h     0.63953782     0.96494260     0.36211091
h     0.36046223     0.03505740     0.63788912
h     0.36047318     0.46492995     0.13788469
h     0.63952686     0.53507005     0.86211533
h     0.31068910     0.17771067     0.20717077
h     0.68931094     0.82228933     0.79282925
h     0.68931107     0.67770572     0.29282645
h     0.31068898     0.32229428     0.70717358
h     0.58214421     0.33139865     0.39957642
h     0.41785583     0.66860135     0.60042361
h     0.41783521     0.83138164     0.10041104
h     0.58216484     0.16861836     0.89958898
h     0.20667733     0.07488898     0.05185397
h     0.79332271     0.92511102     0.94814606
h     0.79332382     0.57488884     0.44814616
h     0.20667622     0.42511116     0.55185387

K_POINTS automatic
2 2 2 1 1 1

CELL_PARAMETERS cubic
    9.666112000000     0.000067000000    -0.111026000000
    0.000099000000    15.034976000000     0.000002000000
   -1.349531000000    -0.000015000000    18.551486000000
