## FHIaims input file generated by critic2.
lattice_vector 3.5399999919       0.0000000000       0.0000000000       
lattice_vector -1.7700000041      3.0657299270       0.0000000000       
lattice_vector 0.0000000000       0.0000000000       6.0100000000       
atom_frac  0.3333333400       0.6666666700       0.2547005000       Se
atom_frac  0.6666666800       0.3333333400       0.7452995000       Se
atom_frac  0.0000000000       0.0000000000       0.0000000000       Ti
