&control
 title='crystal',
 prefix='crystal',
 pseudo_dir='.',
 calculation='vc-relax',
/
&system
 ibrav=0,
 celldm(1)=1.0,
 nat=    50,
 ntyp=  4,
 ecutwfc=60.0,
 ecutrho=600.0,
 xdm=.true.,
 xdm_a1=0.4073,
 xdm_a2=2.4150,
/
&electrons
 conv_thr = 1d-8,
/
&ions
/
&cell
/
ATOMIC_SPECIES
h      1.007940 h.UPF
c     12.010700 c.UPF
n     14.006700 n.UPF
o     15.999400 o.UPF

ATOMIC_POSITIONS crystal
h     0.75177813     0.60660847     0.39781575
h     0.24822192     0.39339155     0.60218424
h     0.20538028     0.42765672     0.01766166
h     0.79461977     0.57234330     0.98233833
h     0.05214780     0.69675870     0.21441652
h     0.94785225     0.30324132     0.78558348
h     0.94446035     0.47352848     0.30966962
h     0.05553970     0.52647155     0.69033037
h     0.80574902     0.06058929     0.14562752
h     0.19425103     0.93941073     0.85437248
h     0.58504036     0.32406384     0.34939365
h     0.41495969     0.67593618     0.65060634
h     0.36497521     0.69553537     0.39320913
h     0.63502484     0.30446465     0.60679086
h     0.19722944     0.11771926     0.32293413
h     0.80277062     0.88228076     0.67706586
h     0.34689260     0.90921389     0.41074030
h     0.65310745     0.09078614     0.58925970
h     0.69815733     0.83379563     0.24444274
h     0.30184272     0.16620439     0.75555726
h     0.16033006     0.93039167     0.57771138
h     0.83966999     0.06960835     0.42228861
o     0.61812323     0.51537021     0.19635477
o     0.38187682     0.48462981     0.80364522
c     0.19927733     0.36110440     0.08504571
c     0.80072273     0.63889562     0.91495428
c     0.41504232     0.39507189     0.18768308
c     0.58495773     0.60492814     0.81231691
c     0.82881067     0.57355018     0.31037400
c     0.17118938     0.42644984     0.68962599
c     0.75868743     0.20721275     0.96896214
c     0.24131263     0.79278727     0.03103786
c     0.98160475     0.24056823     0.07107958
c     0.01839530     0.75943179     0.92892042
o     0.84784006     0.86573723     0.31953105
o     0.15216000     0.13426279     0.68046895
o     0.19533198     0.81472767     0.53858238
o     0.80466807     0.18527235     0.46141761
c     0.41491181     0.30630425     0.27295071
c     0.58508825     0.69369577     0.72704928
c     0.97684594     0.15294688     0.15755763
c     0.02315412     0.84705314     0.84244236
n     0.57417191     0.17932199     0.88610982
n     0.42582814     0.82067803     0.11389017
c     0.99249304     0.73027035     0.30698752
c     0.00750701     0.26972967     0.69301248
c     0.19588005     0.18662943     0.25686496
c     0.80412000     0.81337059     0.74313504
c     0.24076488     0.79185706     0.41394554
c     0.75923517     0.20814296     0.58605445

K_POINTS automatic
2 2 2 1 1 1

CELL_PARAMETERS cubic
   10.021396000000     0.155601000000     0.132734000000
   -2.049306000000    15.871703000000    -0.030668000000
   -3.995913000000    -7.535313000000    19.519243000000
