&control
 title='crystal',
 prefix='crystal',
 pseudo_dir='.',
 calculation='vc-relax',
/
&system
 ibrav=0,
 celldm(1)=1.0,
 nat=    84,
 ntyp=  4,
 ecutwfc=60.0,
 ecutrho=600.0,
 xdm=.true.,
 xdm_a1=0.4073,
 xdm_a2=2.4150,
/
&electrons
 conv_thr = 1d-8,
/
&ions
/
&cell
/
ATOMIC_SPECIES
h      1.007940 h.UPF
c     12.010700 c.UPF
n     14.006700 n.UPF
o     15.999400 o.UPF

ATOMIC_POSITIONS crystal
o     0.01884375     0.51839453     0.72146693
o     0.98115626     0.48160550     0.27853307
h     0.16118133     0.55593502     0.77051663
h     0.83881867     0.44406500     0.22948337
o     0.11824020     0.27865869     0.65431343
o     0.88175980     0.72134133     0.34568657
o     0.70736452     0.14235947     0.72156935
o     0.29263549     0.85764056     0.27843065
n     0.76522792     0.14861825     0.53553880
n     0.23477209     0.85138178     0.46446120
n     0.71060866     0.91323566     0.55678750
n     0.28939135     0.08676437     0.44321250
h     0.69362631     0.85543517     0.61607378
h     0.30637370     0.14456485     0.38392622
h     0.76275685     0.85587410     0.47809139
h     0.23724316     0.14412592     0.52190861
c     0.99466741     0.36954907     0.65764208
c     0.00533259     0.63045095     0.34235792
c     0.79678840     0.31634615     0.58427623
c     0.20321161     0.68365387     0.41572377
h     0.70233018     0.37133353     0.64741918
h     0.29766983     0.62866649     0.35258082
c     0.75955069     0.35518312     0.46333172
c     0.24044932     0.64481690     0.53666828
h     0.61066303     0.36223107     0.43650772
h     0.38933697     0.63776896     0.56349228
h     0.83014850     0.46593577     0.47691118
h     0.16985151     0.53406425     0.52308882
c     0.82474990     0.21559648     0.36518819
c     0.17525011     0.78440354     0.63481181
h     0.75880395     0.20166208     0.26891472
h     0.24119606     0.79833794     0.73108528
h     0.97452901     0.22935585     0.37203597
h     0.02547100     0.77064417     0.62796403
c     0.77391056     0.07796757     0.40053500
c     0.22608945     0.92203245     0.59946500
h     0.63828642     0.01913559     0.34714933
h     0.36171359     0.98086443     0.65285067
h     0.87651753     0.99184327     0.38508063
h     0.12348248     0.00815675     0.61491937
c     0.72842667     0.06956359     0.60826671
c     0.27157334     0.93043644     0.39173329
o     0.67525119     0.01880443     0.88152516
o     0.32474881     0.98119559     0.11847484
h     0.68875007     0.05811867     0.80862919
h     0.31124994     0.94188135     0.19137081
o     0.66639016     0.77569426     0.73740897
o     0.33360985     0.22430576     0.26259103
o     0.33043291     0.62874178     0.83883814
o     0.66956710     0.37125824     0.16116186
n     0.63660778     0.64568407     0.91659253
n     0.36339222     0.35431596     0.08340747
n     0.47144479     0.40363929     0.81827789
n     0.52855522     0.59636073     0.18172211
h     0.35080150     0.34572600     0.76034507
h     0.64919850     0.65427402     0.23965493
h     0.58704431     0.34455380     0.81034832
h     0.41295570     0.65544622     0.18965168
c     0.66444438     0.86572295     0.84543891
c     0.33555563     0.13427707     0.15456109
c     0.64819030     0.81368427     0.95541860
c     0.35180971     0.18631575     0.04458140
h     0.52384820     0.85981163     0.99030791
h     0.47615180     0.14018840     0.00969209
c     0.82169211     0.86440295     0.06073471
c     0.17830790     0.13559708     0.93926529
h     0.88528443     0.97726703     0.07289113
h     0.11471558     0.02273299     0.92710887
h     0.78228241     0.87236172     0.14998901
h     0.21771759     0.12763830     0.85001099
c     0.94547831     0.73119971     0.01869256
c     0.05452170     0.26880032     0.98130744
h     0.01904949     0.74388823     0.94774923
h     0.98095051     0.25611180     0.05225077
h     0.04864492     0.72683803     0.09766656
h     0.95135508     0.27316200     0.90233344
c     0.80942259     0.58659868     0.95956254
c     0.19057742     0.41340134     0.04043746
h     0.85515012     0.49900100     0.88023196
h     0.14484989     0.50099902     0.11976804
h     0.78842535     0.53421348     0.02847958
h     0.21157466     0.46578654     0.97152042
c     0.47592642     0.55998767     0.85597342
c     0.52407359     0.44001235     0.14402658

K_POINTS automatic
2 2 2 1 1 1

CELL_PARAMETERS cubic
   13.939919000000     0.088328000000     0.166148000000
   -0.300797000000    17.517260000000     0.013379000000
   -4.032797000000    -7.822752000000    19.949067000000
