%nproc=8
%mem=5000mb
#p hf/6-31G(d) scf=tight int(grid=ultrafine)  scfcyc=200 symm=tight

This text is a comment

0 1
O        0.000000    0.000000    0.854408 
C        0.000000    0.732294   -0.373090 
C        0.000000   -0.732294   -0.373090 
H        0.919428    1.263085   -0.589547 
H       -0.919428    1.263085   -0.589547 
H        0.919428   -1.263085   -0.589547 
H       -0.919428   -1.263085   -0.589547 

