%nproc=8
%mem=5000mb
#p hf/6-31G(d) scf=tight int(grid=ultrafine)  scfcyc=200 symm=tight

This text is a comment

0 1
C        0.000000    0.000000    0.763258 
C        0.000000    0.000000   -0.763258 
H        0.000000    1.016928    1.157843 
H       -0.880686   -0.508464    1.157843 
H        0.880686   -0.508464    1.157843 
H        0.000000   -1.016928   -1.157843 
H       -0.880686    0.508464   -1.157843 
H        0.880686    0.508464   -1.157843 

