%nproc=8
%mem=5000mb
#p hf/6-31G(d) scf=tight int(grid=ultrafine)  scfcyc=200 symm=tight

This text is a comment

0 1
C                  0.60616009    0.40548687    0.00000000
C                 -0.60616009   -0.40548687    0.00000000
C                  1.84396650   -0.11095336    0.00000000
C                 -1.84396650    0.11095336    0.00000000
H                  0.47202554    1.48310766    0.00000000
H                 -0.47202554   -1.48310766    0.00000000
H                  2.72071008    0.52201495    0.00000000
H                  2.00089802   -1.18321375    0.00000000
H                 -2.72071008   -0.52201495    0.00000000
H                 -2.00089802    1.18321375    0.00000000

