%nproc=8
%mem=5000mb
#p hf/6-31G(d) scf=tight int(grid=ultrafine)  scfcyc=200 symm=tight

This text is a comment

0 1
P                 -0.00000000    0.00000000   -0.00000000
F                 -0.00000000    0.00000000    1.57637269
F                 -0.00000000    1.53680074    0.00000000
F                 -0.00000000    0.00000000   -1.57637269
F                 -1.33090848   -0.76840037    0.00000000
F                  1.33090848   -0.76840037    0.00000000

