%nproc=8
%mem=5000mb
#p hf/6-31G(d) scf=tight int(grid=ultrafine)  scfcyc=200 symm=tight

This text is a comment

0 1
H       -1.941536    0.377106    0.000000 
O       -1.192952   -0.221186    0.000000 
C        0.000000    0.556697    0.000000 
C        1.170149   -0.402575    0.000000 
H        0.039888    1.200050    0.885595 
H        0.039888    1.200050   -0.885595 
H        2.113118    0.145753    0.000000 
H        1.135681   -1.039101   -0.884130 
H        1.135681   -1.039101    0.884130 

