%nproc=8
%mem=5000mb
#p hf/6-31G(d) scf=tight int(grid=ultrafine)  scfcyc=200 symm=tight

This text is a comment

0 1
C        0.000000    0.000000    0.000000 
C        0.000000    0.000000    1.310515 
C        0.000000    0.000000   -1.310515 
H       -0.929020    0.000000   -1.866060 
H        0.929020    0.000000   -1.866060 
H        0.000000    0.929020    1.866060 
H        0.000000   -0.929020    1.866060 

