%nproc=8
%mem=5000mb
#p hf/6-31G(d) scf=tight int(grid=ultrafine)  scfcyc=200 symm=tight

This text is a comment

0 2
C          0.0000000000        1.2239479742       -0.1969438064
C          0.0000000000        0.0000000000        0.4520404645
H          0.0000000000        2.1531678176        0.3538846767
H          0.0000000000        1.2743509430       -1.2784246855
C          0.0000000000       -1.2239479742       -0.1969438064
H          0.0000000000        0.0000000000        1.5372067564
H          0.0000000000       -1.2743509430       -1.2784246855
H          0.0000000000       -2.1531678176        0.3538846767

