%nproc=8
%mem=5000mb
#p hf/6-31G(d) scf=tight int(grid=ultrafine)  scfcyc=200 symm=tight

This text is a comment

0 1
C          0.0000000000        0.0000000000       -0.5548717118
H         -0.9087890372        0.0000000000       -1.1540924087
H          0.9087890372        0.0000000000       -1.1540924087
F          0.0000000000        1.0987136209        0.2366271506
F          0.0000000000       -1.0987136209        0.2366271506

