%nproc=8
%mem=5000mb
#p hf/6-31G(d) scf=tight int(grid=ultrafine)  scfcyc=200 symm=tight

This text is a comment

0 1
C         -0.0622341205        0.6640253773        0.0000000000
C          0.0622341205       -0.6640253773        0.0000000000
Cl         1.2556210027        1.7389732924        0.0000000000
F         -1.2561173421        1.2387047987        0.0000000000
F          1.2561173421       -1.2387047987        0.0000000000
Cl        -1.2556210027       -1.7389732924        0.0000000000

