%nproc=8
%mem=5000mb
#p hf/6-31G(d) scf=tight int(grid=ultrafine)  scfcyc=200 symm=tight

This text is a comment

0 1
N                  0.00000000    0.00000000   -0.86732382
N                  0.00000000    0.00000000    0.86732382
O                  1.09848173   -0.00000000   -1.32610325
O                 -1.09848173   -0.00000000   -1.32610325
O                  1.09848173    0.00000000    1.32610325
O                 -1.09848173   -0.00000000    1.32610325

