&control
 title='crystal',
 prefix='crystal',
 pseudo_dir='.',
 calculation='vc-relax',
/
&system
 ibrav=0,
 celldm(1)=1.0,
 nat=   132,
 ntyp=  3,
 ecutwfc=60.0,
 ecutrho=600.0,
 xdm=.true.,
 xdm_a1=0.4073,
 xdm_a2=2.4150,
/
&electrons
 conv_thr = 1d-8,
/
&ions
/
&cell
/
ATOMIC_SPECIES
h      1.007940 h.UPF
c     12.010700 c.UPF
o     15.999400 o.UPF

ATOMIC_POSITIONS crystal
c     0.71280711     0.90738835     0.57074738
c     0.28719292     0.40738836     0.42925268
h     0.58195696     0.91670143     0.68416007
h     0.41804307     0.41670144     0.31583999
h     0.80288589     0.87514479     0.60260254
h     0.19711415     0.37514480     0.39739752
c     0.54039089     0.90246652     0.40077717
c     0.45960914     0.40246653     0.59922289
h     0.40822114     0.87370096     0.42059450
h     0.59177889     0.37370097     0.57940556
c     0.70936177     0.89465227     0.23223893
c     0.29063827     0.39465227     0.76776113
h     0.57570920     0.88742299     0.11687435
h     0.42429083     0.38742299     0.88312570
h     0.83024281     0.92409500     0.20102136
h     0.16975723     0.42409501     0.79897870
c     0.05358381     0.84471945     0.13375236
c     0.94641622     0.34471945     0.86624770
c     0.22829503     0.80938953     0.17632322
c     0.77170501     0.30938953     0.82367684
c     0.40412612     0.79452700     0.04251166
c     0.59587391     0.29452700     0.95748839
h     0.54197481     0.76759596     0.07437731
h     0.45802523     0.26759596     0.92562275
c     0.40916660     0.81352232     0.87088200
c     0.59083343     0.31352233     0.12911806
h     0.54828349     0.80123134     0.76914934
h     0.45171654     0.30123135     0.23085072
c     0.23614310     0.84854646     0.83279229
c     0.76385693     0.34854647     0.16720777
h     0.23719110     0.86406334     0.70047261
h     0.76280894     0.36406334     0.29952745
c     0.05925000     0.86456929     0.96367876
c     0.94075003     0.36456929     0.03632130
h     0.92816965     0.89231601     0.93271309
h     0.07183038     0.39231602     0.06728697
c     0.21888685     0.78827847     0.35986274
c     0.78111318     0.28827847     0.64013732
h     0.41735563     0.77384228     0.39252266
h     0.58264440     0.27384228     0.60747740
h     0.17838693     0.81334229     0.46306649
h     0.82161310     0.31334230     0.53693356
c     0.99918364     0.75266059     0.37436638
c     0.00081639     0.25266059     0.62563368
h     0.04984215     0.72531031     0.28330192
h     0.95015788     0.22531032     0.71669813
h     0.80749343     0.76645999     0.32391979
h     0.19250660     0.26645999     0.67608026
c     0.96251358     0.73602246     0.56692352
c     0.03748645     0.23602247     0.43307654
h     0.15058725     0.72162169     0.62087357
h     0.84941278     0.22162170     0.37912648
h     0.80495171     0.71063126     0.57415092
h     0.19504833     0.21063126     0.42584914
h     0.90615402     0.76307232     0.65765439
h     0.09384602     0.26307232     0.34234567
o     0.92029143     0.94001123     0.54913351
o     0.07970860     0.44001123     0.45086654
o     0.37665781     0.94062772     0.36583319
o     0.62334222     0.44062772     0.63416687
o     0.88427464     0.85809134     0.26942434
o     0.11572539     0.35809135     0.73057572
h     0.93668486     0.95638006     0.66616578
h     0.06331517     0.45638006     0.33383428
h     0.20222972     0.93837373     0.43477696
h     0.79777031     0.43837374     0.56522309
c     0.58952818     0.01164179     0.07040526
c     0.41047185     0.51164179     0.92959479
h     0.72156246     0.00230618     0.18411696
h     0.27843757     0.50230618     0.81588310
h     0.49945361     0.04384560     0.10220031
h     0.50054642     0.54384560     0.89779975
c     0.76018455     0.01651814     0.90076951
c     0.23981549     0.51651814     0.09923055
h     0.89267303     0.04534513     0.92016350
h     0.10732700     0.54534513     0.07983656
c     0.58901501     0.02407595     0.73178285
c     0.41098503     0.52407596     0.26821721
h     0.72086684     0.03139777     0.61657312
h     0.27913319     0.53139777     0.38342693
h     0.46907121     0.99446559     0.70073342
h     0.53092883     0.49446559     0.29926664
c     0.24884983     0.07468256     0.63016368
c     0.75115021     0.57468257     0.36983637
c     0.08459979     0.11151733     0.66878041
c     0.91540024     0.61151733     0.33121965
c     0.90706572     0.12610001     0.53402292
c     0.09293431     0.62610001     0.46597714
h     0.77484234     0.15386200     0.56348807
h     0.22515770     0.65386200     0.43651198
c     0.89475476     0.10612075     0.36432283
c     0.10524527     0.60612075     0.63567723
h     0.75503200     0.11839722     0.26188895
h     0.24496804     0.61839723     0.73811110
c     0.06295360     0.07041837     0.32879758
c     0.93704643     0.57041837     0.67120248
h     0.05943105     0.05449484     0.19730789
h     0.94056899     0.55449484     0.80269217
c     0.23837604     0.05419395     0.46144806
c     0.76162399     0.55419395     0.53855199
h     0.36437028     0.02573467     0.43294326
h     0.63562976     0.52573468     0.56705680
c     0.10256797     0.13426847     0.84905260
c     0.89743207     0.63426847     0.15094746
h     0.07737661     0.11022458     0.95888363
h     0.92262342     0.61022459     0.04111642
h     0.93365431     0.15759808     0.86050277
h     0.06634572     0.65759808     0.13949728
c     0.37050315     0.15879798     0.88221868
c     0.62949688     0.65879799     0.11778138
h     0.53731780     0.13519401     0.87064007
h     0.46268224     0.63519402     0.12935998
h     0.39948906     0.18336035     0.77474992
h     0.60051098     0.68336036     0.22525014
c     0.37815616     0.18104218     0.06693601
c     0.62184387     0.68104219     0.93306404
h     0.57338927     0.19736785     0.09220050
h     0.42661076     0.69736786     0.90779956
h     0.34472918     0.15698696     0.17531162
h     0.65527085     0.65698697     0.82468844
h     0.21849845     0.20608617     0.07843277
h     0.78150158     0.70608617     0.92156728
o     0.38215497     0.97897110     0.04803884
o     0.61784506     0.47897110     0.95196121
o     0.92331805     0.97834338     0.86689403
o     0.07668198     0.47834338     0.13310602
o     0.41343241     0.06050935     0.76822613
o     0.58656762     0.56050936     0.23177393
h     0.36569606     0.96265430     0.16505959
h     0.63430397     0.46265430     0.83494047
h     0.09911912     0.98071841     0.93576227
h     0.90088091     0.48071842     0.06423779

K_POINTS automatic
2 2 2 1 1 1

CELL_PARAMETERS cubic
    9.318480000000     0.000000000000    -0.016643000000
    0.000000000000    57.419223000000     0.000000000000
   -0.053933000000     0.000000000000    13.998755000000
