&control
 title='crystal',
 prefix='crystal',
 pseudo_dir='.',
 calculation='vc-relax',
/
&system
 ibrav=0,
 celldm(1)=1.0,
 nat=    76,
 ntyp=  4,
 ecutwfc=60.0,
 ecutrho=600.0,
 xdm=.true.,
 xdm_a1=0.4073,
 xdm_a2=2.4150,
/
&electrons
 conv_thr = 1d-8,
/
&ions
/
&cell
/
ATOMIC_SPECIES
h      1.007940 h.UPF
c     12.010700 c.UPF
n     14.006700 n.UPF
o     15.999400 o.UPF

ATOMIC_POSITIONS crystal
c     0.79695906     0.32165697     0.13201588
c     0.20304091     0.67834303     0.86798413
c     0.20304112     0.82165580     0.36799734
c     0.79695885     0.17834420     0.63200267
c     0.08290417     0.35031111     0.22612246
c     0.91709581     0.64968890     0.77387755
c     0.91709612     0.85031020     0.27388876
c     0.08290386     0.14968980     0.72611125
c     0.27560628     0.31516507     0.46106501
c     0.72439369     0.68483493     0.53893500
c     0.72439648     0.81516546     0.03894251
c     0.27560349     0.18483455     0.96105750
c     0.06738245     0.41975401     0.28441569
c     0.93261752     0.58024600     0.71558432
c     0.93262156     0.91975361     0.21559862
c     0.06737841     0.08024639     0.78440139
c     0.06048018     0.43174089     0.56257955
c     0.93951980     0.56825911     0.43742046
c     0.93953409     0.93174096     0.93743856
c     0.06046588     0.06825904     0.06256145
h     0.88108718     0.43875168     0.14105642
h     0.11891279     0.56124832     0.85894359
h     0.11891695     0.93875015     0.35896148
h     0.88108302     0.06124985     0.64103853
h     0.80650797     0.27399806     0.06863931
h     0.19349201     0.72600195     0.93136070
h     0.19349155     0.77399670     0.43137271
h     0.80650842     0.22600330     0.56862730
h     0.65857835     0.34758757     0.96650416
h     0.34142162     0.65241243     0.03349585
h     0.34142029     0.84758584     0.53351051
h     0.65857969     0.15241416     0.46648950
h     0.16433461     0.34802832     0.06259874
h     0.83566536     0.65197168     0.93740127
h     0.83566216     0.84802674     0.43741023
h     0.16433781     0.15197326     0.56258978
h     0.28762432     0.50001882     0.28420870
h     0.71237565     0.49998118     0.71579131
h     0.71237712     0.00001873     0.21579527
h     0.28762285     0.99998127     0.78420474
h     0.29409487     0.44925192     0.04683625
h     0.70590510     0.55074808     0.95316376
h     0.70591103     0.94925292     0.45317626
h     0.29408895     0.05074709     0.54682375
h     0.49362283     0.43797078     0.37130777
h     0.50637714     0.56202923     0.62869224
h     0.50638040     0.93797053     0.12870691
h     0.49361957     0.06202947     0.87129310
h     0.47742619     0.33699078     0.54085373
h     0.52257378     0.66300922     0.45914628
h     0.52257654     0.83699136     0.95915335
h     0.47742344     0.16300864     0.04084666
h     0.30456597     0.26781688     0.40543919
h     0.69543400     0.73218313     0.59456082
h     0.69543629     0.76781681     0.09456467
h     0.30456368     0.23218319     0.90543534
h     0.18784140     0.31303369     0.61966538
h     0.81215857     0.68696632     0.38033463
h     0.81216401     0.81303511     0.88034392
h     0.18783597     0.18696489     0.11965609
h     0.70969405     0.32098230     0.29049841
h     0.29030592     0.67901771     0.70950160
h     0.29030828     0.82098176     0.20951636
h     0.70969170     0.17901824     0.79048365
n     0.30233054     0.45344368     0.24587898
n     0.69766943     0.54655632     0.75412103
n     0.69767399     0.95344368     0.25413420
n     0.30232599     0.04655632     0.74586582
o     0.28540041     0.44564740     0.73820488
o     0.71459956     0.55435260     0.26179513
o     0.71460656     0.94564826     0.76180735
o     0.28539342     0.05435175     0.23819266
o     0.83099277     0.42596339     0.59785502
o     0.16900721     0.57403661     0.40214499
o     0.16901442     0.92596305     0.90216276
o     0.83098555     0.07403695     0.09783725

K_POINTS automatic
2 2 2 1 1 1

CELL_PARAMETERS cubic
    9.790149000000     0.000003000000    -0.049500000000
    0.000015000000    41.043793000000     0.000099000000
   -3.392628000000     0.000021000000     9.641737000000
