&control
 title='crystal',
 prefix='crystal',
 pseudo_dir='..',
 calculation='vc-relax',
 etot_conv_thr=1.0D-5,
/
&system
 ibrav=0,
 celldm(1)=1.0,
 nat=    76,
 ntyp=  4,
 ecutwfc=80.0,
 ecutrho=800.0,
 xdm=.true.,
 xdm_a1=0.6512,
 xdm_a2=1.4633,
/
&electrons
 conv_thr = 1d-8,
/
&ions
/
&cell
/
ATOMIC_SPECIES
h      1.007940 h.UPF
c     12.010700 c.UPF
n     14.006700 n.UPF
o     15.999400 o.UPF

ATOMIC_POSITIONS crystal
c        0.796959080   0.321656975   0.132015908
c        0.203041136   0.821655800   0.367997333
c        0.203040920   0.678343025   0.867984092
c        0.796958864   0.178344200   0.632002667
c        0.082904173   0.350311104   0.226122453
c        0.917096143   0.850310202   0.273888783
c        0.917095827   0.649688896   0.773877547
c        0.082903857   0.149689798   0.726111217
c        0.275606282   0.315165069   0.461064998
c        0.724396506   0.815165458   0.038942535
c        0.724393718   0.684834931   0.538935002
c        0.275603494   0.184834542   0.961057465
c        0.067382457   0.419754002   0.284415685
c        0.932621591   0.919753616   0.215598645
c        0.932617543   0.580245998   0.715584315
c        0.067378409   0.080246384   0.784401355
c        0.060480179   0.431740891   0.562579520
c        0.939534112   0.931740958   0.937438554
c        0.939519821   0.568259109   0.437420480
c        0.060465888   0.068259042   0.062561446
h        0.881087193   0.438751689   0.141056436
h        0.118916967   0.938750146   0.358961468
h        0.118912807   0.561248311   0.858943564
h        0.881083033   0.061249854   0.641038532
h        0.806507982   0.273998063   0.068639340
h        0.193491574   0.773996699   0.431372704
h        0.193492018   0.726001937   0.931360660
h        0.806508426   0.226003301   0.568627296
h        0.658578357   0.347587566   0.966504135
h        0.341420308   0.847585835   0.533510501
h        0.341421643   0.652412434   0.033495865
h        0.658579692   0.152414165   0.466489499
h        0.164334615   0.348028320   0.062598748
h        0.835662181   0.848026741   0.437410242
h        0.835665385   0.651971680   0.937401252
h        0.164337819   0.151973259   0.562589758
h        0.287624331   0.500018817   0.284208692
h        0.712377149   1.000018736   0.215795290
h        0.712375669   0.499981183   0.715791308
h        0.287622851  -0.000018736   0.784204710
h        0.294094885   0.449251921   0.046836261
h        0.705911047   0.949252914   0.453176264
h        0.705905115   0.550748079   0.953163739
h        0.294088953   0.050747086   0.546823736
h        0.493622838   0.437970776   0.371307768
h        0.506380426   0.937970534   0.128706928
h        0.506377162   0.562029224   0.628692232
h        0.493619574   0.062029466   0.871293072
h        0.477426197   0.336990782   0.540853717
h        0.522576559   0.836991357   0.959153330
h        0.522573803   0.663009218   0.459146283
h        0.477423441   0.163008643   0.040846670
h        0.304565971   0.267816875   0.405439173
h        0.695436315   0.767816816   0.094564692
h        0.695434029   0.732183125   0.594560827
h        0.304563685   0.232183184   0.905435308
h        0.187841408   0.313033682   0.619665361
h        0.812164030   0.813035105   0.880343909
h        0.812158592   0.686966318   0.380334639
h        0.187835970   0.186964895   0.119656091
h        0.709694064   0.320982301   0.290498419
h        0.290308298   0.820981759   0.209516375
h        0.290305936   0.679017699   0.709501581
h        0.709691702   0.179018241   0.790483625
n        0.302330554   0.453443678   0.245878984
n        0.697674015   0.953443684   0.254134210
n        0.697669446   0.546556322   0.754121016
n        0.302325985   0.046556316   0.745865790
o        0.285400426   0.445647394   0.738204857
o        0.714606582   0.945648253   0.761807343
o        0.714599574   0.554352606   0.261795143
o        0.285393418   0.054351747   0.238192657
o        0.830992783   0.425963393   0.597855022
o        0.169014433   0.925963043   0.902162724
o        0.169007217   0.574036607   0.402144978
o        0.830985567   0.074036957   0.097837276

K_POINTS automatic
4 4 4 1 1 1

CELL_PARAMETERS cubic
   9.790149008   0.000002683  -0.049500284
   0.000014821  41.043793148   0.000098902
  -3.392628120   0.000021255   9.641737498
