&control
 title='crystal',
 prefix='crystal',
 pseudo_dir='.',
 calculation='vc-relax',
/
&system
 ibrav=0,
 celldm(1)=1.0,
 nat=   124,
 ntyp=  3,
 ecutwfc=60.0,
 ecutrho=600.0,
 xdm=.true.,
 xdm_a1=0.4073,
 xdm_a2=2.4150,
/
&electrons
 conv_thr = 1d-8,
/
&ions
/
&cell
/
ATOMIC_SPECIES
h      1.007940 h.UPF
c     12.010700 c.UPF
o     15.999400 o.UPF

ATOMIC_POSITIONS crystal
o     0.36923126     0.29866571     0.47351453
o     0.63076869     0.79866571     0.52648546
o     0.22982946     0.34953136     0.19144842
o     0.77017050     0.84953136     0.80855157
o     0.17935820     0.04567410     0.07260702
o     0.82064176     0.54567410     0.92739297
o     0.23781421     0.92173145     0.30996976
o     0.76218574     0.42173145     0.69003023
c     0.44987978     0.23067280     0.44483718
c     0.55012018     0.73067280     0.55516281
c     0.46797522     0.24112546     0.30919765
c     0.53202474     0.74112546     0.69080233
c     0.63680587     0.23737438     0.34303214
c     0.36319408     0.73737438     0.65696785
c     0.71745360     0.13114317     0.43344901
c     0.28254636     0.63114317     0.56655098
c     0.70065812     0.12837267     0.57045284
c     0.29934184     0.62837267     0.42954715
c     0.53400847     0.13130482     0.54173082
c     0.46599149     0.63130482     0.45826917
c     0.38780360     0.35126860     0.22366299
c     0.61219635     0.85126860     0.77633700
c     0.40397714     0.36274371     0.08838817
c     0.59602281     0.86274371     0.91161182
c     0.32967156     0.28573091     0.97485721
c     0.67032840     0.78573091     0.02514278
c     0.35201858     0.29520841     0.85338889
c     0.64798138     0.79520841     0.14661110
c     0.44819072     0.38092286     0.84320117
c     0.55180923     0.88092286     0.15679882
c     0.52141080     0.45845827     0.95537177
c     0.47858916     0.95845827     0.04462822
c     0.49871126     0.44913533     0.07671462
c     0.50128870     0.94913533     0.92328537
c     0.05191862     0.06784638     0.06150438
c     0.94808134     0.56784638     0.93849561
c     0.00782881     0.04121601     0.17975675
c     0.99217115     0.54121601     0.82024324
c     0.91366413     0.14264774     0.19773294
c     0.08633583     0.64264774     0.80226704
c     0.78597023     0.18458979     0.05978180
c     0.21402973     0.68458979     0.94021819
c     0.84493082     0.22016065     0.95373257
c     0.15506914     0.72016065     0.04626742
c     0.93225857     0.11828525     0.92797846
c     0.06774138     0.61828525     0.07202152
c     0.14656216     0.01637688     0.32081714
c     0.85343779     0.51637688     0.67918284
c     0.10511207     0.98756576     0.43916509
c     0.89488788     0.48756576     0.56083490
c     0.00806956     0.89379584     0.42665755
c     0.99193039     0.39379584     0.57334244
c     0.96926406     0.86801111     0.53564686
c     0.03073590     0.36801111     0.46435313
c     0.02861127     0.93480456     0.65947947
c     0.97138869     0.43480456     0.34052052
c     0.12592180     0.02787236     0.67332991
c     0.87407816     0.52787236     0.32667008
c     0.16367564     0.05413728     0.56337689
c     0.83632432     0.55413728     0.43662310
h     0.41286888     0.16233020     0.24597590
h     0.58713108     0.66233020     0.75402408
h     0.69057606     0.31894350     0.39852015
h     0.30942390     0.81894350     0.60147984
h     0.64610881     0.23690575     0.24317510
h     0.35389115     0.73690575     0.75682489
h     0.67330627     0.04918208     0.37383665
h     0.32669369     0.54918208     0.62616334
h     0.83758219     0.13463077     0.45868461
h     0.16241777     0.63463077     0.54131537
h     0.75799822     0.20520768     0.63499848
h     0.24200174     0.70520768     0.36500150
h     0.75328149     0.04899633     0.63122188
h     0.24671847     0.54899633     0.36877811
h     0.47933907     0.04865558     0.48837228
h     0.52066089     0.54865558     0.51162771
h     0.52037693     0.13887245     0.63930677
h     0.47962302     0.63887245     0.36069322
h     0.44120506     0.42885439     0.28982547
h     0.55879489     0.92885439     0.71017452
h     0.25552443     0.21810436     0.98283335
h     0.74447552     0.71810436     0.01716664
h     0.29440097     0.23545203     0.76526012
h     0.70559899     0.73545203     0.23473987
h     0.46474890     0.38619862     0.74770637
h     0.53525106     0.88619862     0.25229362
h     0.59713607     0.52533102     0.94943411
h     0.40286389     0.02533102     0.05056588
h     0.55653079     0.50941503     0.16451830
h     0.44346916     0.00941503     0.83548169
h     0.23244747     0.34442542     0.28561325
h     0.76755248     0.84442542     0.71438674
h     0.93633115     0.96156101     0.14523000
h     0.06366881     0.46156101     0.85476999
h     0.99035131     0.21656761     0.24790380
h     0.00964864     0.71656761     0.75209619
h     0.87024560     0.11438889     0.27220098
h     0.12975435     0.61438889     0.72779901
h     0.72851713     0.25969571     0.08057922
h     0.27148283     0.75969571     0.91942077
h     0.70166150     0.11432504     0.01532059
h     0.29833845     0.61432504     0.98467940
h     0.91977669     0.29690040     0.99336694
h     0.08022327     0.79690040     0.00663304
h     0.75244954     0.24655423     0.85294197
h     0.24755042     0.74655423     0.14705802
h     0.85460650     0.04421337     0.87716395
h     0.14539346     0.54421337     0.12283604
h     0.98332938     0.14347125     0.85828475
h     0.01667058     0.64347125     0.14171524
h     0.21322228     0.09844842     0.34925664
h     0.78677768     0.59844842     0.65074335
h     0.96221583     0.84090107     0.33072630
h     0.03778413     0.34090107     0.66927369
h     0.89162727     0.79627331     0.52347762
h     0.10837269     0.29627331     0.47652237
h     0.00004352     0.91495187     0.74590571
h     0.99995643     0.41495187     0.25409428
h     0.17250970     0.07886649     0.77066070
h     0.82749026     0.57886649     0.22933929
h     0.24004304     0.12672993     0.57341896
h     0.75995691     0.62672993     0.42658103
h     0.25346504     0.94367271     0.22697514
h     0.74653492     0.44367271     0.77302485

K_POINTS automatic
2 2 2 1 1 1

CELL_PARAMETERS cubic
   18.672060000000     0.000000000000    -0.225523000000
    0.000000000000    21.447229000000     0.000000000000
   -8.515468000000     0.000000000000    18.000632000000
