&control
 title='crystal',
 prefix='crystal',
 pseudo_dir='..',
 calculation='vc-relax',
 etot_conv_thr=1.0D-5,
/
&system
 ibrav=0,
 celldm(1)=1.0,
 nat=    76,
 ntyp=  4,
 ecutwfc=80.0,
 ecutrho=800.0,
 xdm=.true.,
 xdm_a1=0.6512,
 xdm_a2=1.4633,
/
&electrons
 conv_thr = 1d-8,
/
&ions
/
&cell
/
ATOMIC_SPECIES
h      1.007940 h.UPF
c     12.010700 c.UPF
n     14.006700 n.UPF
o     15.999400 o.UPF

ATOMIC_POSITIONS crystal
c        0.318429903   0.014876842   0.854441705
c        0.818429903   0.485123158   0.145558295
c        0.681570097   0.514876842   0.645558295
c        0.181570097   0.985123158   0.354441705
c        0.451696781   0.092563237   0.896343084
c        0.951696781   0.407436763   0.103656916
c        0.548303219   0.592563237   0.603656916
c        0.048303219   0.907436763   0.396343084
c        0.563214290   0.122343295   0.703904733
c        0.063214290   0.377656705   0.296095267
c        0.436785710   0.622343295   0.796095267
c        0.936785710   0.877656705   0.203904733
c        0.737440660   0.193601134   0.711182557
c        0.237440660   0.306398866   0.288817443
c        0.262559340   0.693601134   0.788817443
c        0.762559340   0.806398866   0.211182557
c        0.603060667   0.269522621   0.749141661
c        0.103060667   0.230477379   0.250858339
c        0.396939333   0.769522621   0.750858339
c        0.896939333   0.730477379   0.249141661
h        0.590814362   0.049647497   0.162838817
h        0.090814362   0.450352503   0.837161183
h        0.409185638   0.549647497   0.337161183
h        0.909185638   0.950352503   0.662838817
h        0.819422887   0.052401639   0.982285644
h        0.319422887   0.447598361   0.017714356
h        0.180577113   0.552401639   0.517714356
h        0.680577113   0.947598361   0.482285644
h        0.731057009   0.134135614   0.098581145
h        0.231057009   0.365864386   0.901418855
h        0.268942991   0.634135614   0.401418855
h        0.768942991   0.865864386   0.598581145
h        0.678580969   0.076239028   0.637215538
h        0.178580969   0.423760972   0.362784462
h        0.321419031   0.576239028   0.862784462
h        0.821419031   0.923760972   0.137215538
h        0.398220539   0.133405887   0.606918687
h        0.898220539   0.366594113   0.393081313
h        0.601779461   0.633405887   0.893081313
h        0.101779461   0.866594113   0.106918687
h        0.896281628   0.188522643   0.817807500
h        0.396281628   0.311477357   0.182192500
h        0.103718372   0.688522643   0.682192500
h        0.603718372   0.811477357   0.317807500
h        0.837231794   0.198997918   0.571224139
h        0.337231794   0.301002082   0.428775861
h        0.162768206   0.698997918   0.928775861
h        0.662768206   0.801002082   0.071224139
h        0.650078004   0.382729361   0.692944811
h        0.150078004   0.117270639   0.307055189
h        0.349921996   0.882729361   0.807055189
h        0.849921996   0.617270639   0.192944811
h        0.310490353   0.133234643   0.956403596
h        0.810490353   0.366765357   0.043596404
h        0.689509647   0.633234643   0.543596404
h        0.189509647   0.866765357   0.456403596
n        0.661785348   0.081534848   0.044754057
n        0.161785348   0.418465152   0.955245943
n        0.338214652   0.581534848   0.455245943
n        0.838214652   0.918465152   0.544754057
o        0.470513827   0.957131846   0.838318795
o        0.970513827   0.542868154   0.161681205
o        0.529486173   0.457131846   0.661681205
o        0.029486173   0.042868154   0.338318795
o        0.073958716   0.014208719   0.829011398
o        0.573958716   0.485791281   0.170988602
o        0.926041284   0.514208719   0.670988602
o        0.426041284   0.985791281   0.329011398
o        0.381854502   0.275616155   0.821167367
o        0.881854502   0.224383845   0.178832633
o        0.618145498   0.775616155   0.678832633
o        0.118145498   0.724383845   0.321167367
o        0.748866222   0.328824747   0.695386708
o        0.248866222   0.171175253   0.304613292
o        0.251133778   0.828824747   0.804613292
o        0.751133778   0.671175253   0.195386708

K_POINTS automatic
4 4 4 1 1 1

CELL_PARAMETERS cubic
   9.677829022   0.000000000   0.000000000
   0.000000000  32.777720925   0.000000000
   0.000000000   0.000000000  13.021820402
