&control
 title='crystal',
 prefix='crystal',
 pseudo_dir='.',
 calculation='vc-relax',
/
&system
 ibrav=0,
 celldm(1)=1.0,
 nat=    76,
 ntyp=  4,
 ecutwfc=60.0,
 ecutrho=600.0,
 xdm=.true.,
 xdm_a1=0.4073,
 xdm_a2=2.4150,
/
&electrons
 conv_thr = 1d-8,
/
&ions
/
&cell
/
ATOMIC_SPECIES
h      1.007940 h.UPF
c     12.010700 c.UPF
n     14.006700 n.UPF
o     15.999400 o.UPF

ATOMIC_POSITIONS crystal
c     0.31842991     0.01487684     0.85444173
c     0.81842991     0.48512316     0.14555830
c     0.18157010     0.98512315     0.35444171
c     0.68157010     0.51487684     0.64555832
c     0.45169678     0.09256324     0.89634311
c     0.95169678     0.40743676     0.10365692
c     0.04830323     0.90743676     0.39634310
c     0.54830323     0.59256324     0.60365693
c     0.56321429     0.12234330     0.70390475
c     0.06321429     0.37765670     0.29609528
c     0.93678572     0.87765670     0.20390474
c     0.43678572     0.62234329     0.79609529
c     0.73744066     0.19360113     0.71118258
c     0.23744066     0.30639887     0.28881745
c     0.76255935     0.80639886     0.21118256
c     0.26255935     0.69360113     0.78881747
c     0.60306067     0.26952262     0.74914169
c     0.10306067     0.23047738     0.25085834
c     0.89693934     0.73047738     0.24914167
c     0.39693934     0.76952262     0.75085836
h     0.59081437     0.04964750     0.16283882
h     0.09081437     0.45035250     0.83716121
h     0.90918564     0.95035250     0.66283880
h     0.40918564     0.54964749     0.33716123
h     0.81942289     0.05240164     0.98228567
h     0.31942289     0.44759836     0.01771436
h     0.68057712     0.94759836     0.48228566
h     0.18057712     0.55240164     0.51771437
h     0.73105701     0.13413561     0.09858115
h     0.23105701     0.36586439     0.90141888
h     0.76894300     0.86586438     0.59858114
h     0.26894300     0.63413561     0.40141890
h     0.67858097     0.07623903     0.63721556
h     0.17858097     0.42376097     0.36278447
h     0.82141904     0.92376097     0.13721554
h     0.32141904     0.57623903     0.86278449
h     0.39822054     0.13340589     0.60691870
h     0.89822054     0.36659411     0.39308133
h     0.10177947     0.86659411     0.10691869
h     0.60177947     0.63340588     0.89308134
h     0.89628164     0.18852264     0.81780753
h     0.39628164     0.31147736     0.18219250
h     0.60371838     0.81147735     0.31780751
h     0.10371838     0.68852264     0.68219252
h     0.83723180     0.19899792     0.57122415
h     0.33723180     0.30100208     0.42877588
h     0.66276821     0.80100208     0.07122414
h     0.16276821     0.69899791     0.92877589
h     0.65007801     0.38272936     0.69294483
h     0.15007801     0.11727064     0.30705520
h     0.84992200     0.61727064     0.19294482
h     0.34992200     0.88272936     0.80705521
h     0.31049035     0.13323464     0.95640363
h     0.81049035     0.36676536     0.04359640
h     0.18950966     0.86676536     0.45640361
h     0.68950966     0.63323464     0.54359642
n     0.66178534     0.08153485     0.04475406
n     0.16178534     0.41846515     0.95524597
n     0.83821467     0.91846515     0.54475404
n     0.33821467     0.58153484     0.45524599
o     0.47051383     0.95713184     0.83831882
o     0.97051383     0.54286816     0.16168121
o     0.02948618     0.04286815     0.33831881
o     0.52948618     0.45713184     0.66168122
o     0.07395872     0.01420872     0.82901142
o     0.57395872     0.48579128     0.17098861
o     0.42604130     0.98579128     0.32901141
o     0.92604130     0.51420872     0.67098863
o     0.38185450     0.27561615     0.82116739
o     0.88185450     0.22438385     0.17883264
o     0.11814551     0.72438384     0.32116738
o     0.61814551     0.77561615     0.67883265
o     0.74886623     0.32882475     0.69538673
o     0.24886623     0.17117525     0.30461330
o     0.75113378     0.67117525     0.19538671
o     0.25113378     0.82882474     0.80461332

K_POINTS automatic
2 2 2 1 1 1

CELL_PARAMETERS cubic
    9.677829000000     0.000000000000     0.000000000000
    0.000000000000    32.777721000000     0.000000000000
    0.000000000000     0.000000000000    13.021820000000
