&control
 title='crystal',
 prefix='crystal',
 pseudo_dir='.',
 calculation='vc-relax',
/
&system
 ibrav=0,
 celldm(1)=1.0,
 nat=    88,
 ntyp=  4,
 ecutwfc=60.0,
 ecutrho=600.0,
 xdm=.true.,
 xdm_a1=0.4073,
 xdm_a2=2.4150,
/
&electrons
 conv_thr = 1d-8,
/
&ions
/
&cell
/
ATOMIC_SPECIES
h      1.007940 h.UPF
c     12.010700 c.UPF
n     14.006700 n.UPF
o     15.999400 o.UPF

ATOMIC_POSITIONS crystal
c     0.41452765     0.22653971     0.28235599
c     0.91452766     0.27346029     0.71764406
c     0.58544152     0.72655071     0.21762298
c     0.08544153     0.77344928     0.78237708
c     0.38207030     0.15210489     0.55965356
c     0.88207030     0.34789510     0.44034649
c     0.61789976     0.65210414     0.94041690
c     0.11789977     0.84789586     0.05958315
c     0.20156904     0.15051894     0.38337473
c     0.70156905     0.34948105     0.61662532
c     0.79842265     0.65051650     0.11661910
c     0.29842266     0.84948349     0.88338095
c     0.17548841     0.09225969     0.25385510
c     0.67548842     0.40774030     0.74614495
c     0.82452060     0.59226083     0.24615507
c     0.32452061     0.90773916     0.75384498
c     0.99632915     0.08971007     0.06940967
c     0.49632916     0.41028992     0.93059038
c     0.00366696     0.58971285     0.43061204
c     0.50366697     0.91028714     0.56938801
c     0.79536658     0.10312388     0.19974088
c     0.29536659     0.39687611     0.80025917
c     0.20463730     0.60312493     0.30028100
c     0.70463731     0.89687506     0.69971905
c     0.99201049     0.03090660     0.94091409
c     0.49201050     0.46909339     0.05908596
c     0.00798907     0.53091010     0.55911807
c     0.50798908     0.96908989     0.44088198
n     0.24757427     0.19823519     0.21508705
n     0.74757428     0.30176480     0.78491300
n     0.75247283     0.69823451     0.28496185
n     0.25247284     0.80176548     0.71503820
o     0.49585113     0.26895209     0.19081678
o     0.99585114     0.23104790     0.80918327
o     0.50414587     0.76894886     0.30915662
o     0.00414588     0.73105113     0.69084343
o     0.49991844     0.19943112     0.49713976
o     0.99991845     0.30056887     0.50286029
o     0.50008443     0.69943605     0.00283585
o     0.00008444     0.80056394     0.99716420
o     0.42820160     0.11956798     0.72740711
o     0.92820161     0.38043201     0.27259294
o     0.57180285     0.61956229     0.77257064
o     0.07180285     0.88043770     0.22742941
h     0.15444876     0.21251782     0.07221232
h     0.65444877     0.28748217     0.92778773
h     0.84553041     0.71251726     0.42776859
h     0.34553042     0.78748273     0.57223146
h     0.06771866     0.16065185     0.49920373
h     0.56771867     0.33934814     0.50079632
h     0.93230068     0.66065540     0.00079627
h     0.43230068     0.83934459     0.99920378
h     0.31553476     0.08128627     0.15372347
h     0.81553476     0.41871372     0.84627658
h     0.68446541     0.58128662     0.34629284
h     0.18446542     0.91871337     0.65370721
h     0.15420768     0.06048823     0.40558901
h     0.65420769     0.43951176     0.59441104
h     0.84580232     0.56048967     0.09443438
h     0.34580233     0.93951032     0.90556567
h     0.02092693     0.12213472     0.92103447
h     0.52092694     0.37786527     0.07896558
h     0.97907400     0.62213662     0.57897162
h     0.47907401     0.87786338     0.42102843
h     0.67075102     0.10056261     0.06330631
h     0.17075103     0.39943739     0.93669374
h     0.32925159     0.60056465     0.43672578
h     0.82925160     0.89943534     0.56327427
h     0.76527890     0.07268510     0.35423456
h     0.26527891     0.42731489     0.64576549
h     0.23472784     0.57268718     0.14580110
h     0.73472785     0.92731281     0.85419895
h     0.79316990     0.14646766     0.28048571
h     0.29316990     0.35353233     0.71951434
h     0.20683830     0.64646937     0.21952840
h     0.70683831     0.85353062     0.78047165
h     0.86659796     0.02794123     0.80540718
h     0.36659796     0.47205876     0.19459287
h     0.13339455     0.52794413     0.69463166
h     0.63339456     0.97205586     0.30536839
h     0.97339098     0.99635336     0.08090510
h     0.47339099     0.50364663     0.91909495
h     0.02660615     0.49635616     0.41914233
h     0.52660616     0.00364383     0.58085772
h     0.13315448     0.02285796     0.83776159
h     0.63315449     0.47714203     0.16223846
h     0.86683844     0.52286186     0.66227164
h     0.36683845     0.97713813     0.33772841

K_POINTS automatic
2 2 2 1 1 1

CELL_PARAMETERS cubic
   12.501361000000     0.000000000000     0.000000000000
    0.000000000000    44.054550000000     0.000372000000
    0.000000000000     0.000039000000     9.968914000000
