&control
 title='crystal',
 prefix='crystal',
 pseudo_dir='.',
 calculation='vc-relax',
/
&system
 ibrav=0,
 celldm(1)=1.0,
 nat=    92,
 ntyp=  5,
 ecutwfc=60.0,
 ecutrho=600.0,
 xdm=.true.,
 xdm_a1=0.4073,
 xdm_a2=2.4150,
/
&electrons
 conv_thr = 1d-8,
/
&ions
/
&cell
/
ATOMIC_SPECIES
h      1.007940 h.UPF
c     12.010700 c.UPF
n     14.006700 n.UPF
o     15.999400 o.UPF
s     32.065000 s.UPF

ATOMIC_POSITIONS crystal
s     0.94647266     0.33627157     0.79651638
s     0.44653515     0.16370720     0.20346877
s     0.05352125     0.83625543     0.70348925
s     0.55347075     0.66368964     0.29653397
o     0.31626126     0.14879525     0.50736031
o     0.81624445     0.35115453     0.49271163
o     0.68376184     0.64882732     0.99268136
o     0.18373328     0.85118031     0.00733322
n     0.14403510     0.46342674     0.64726390
n     0.64412348     0.03655339     0.35271576
n     0.85595878     0.96345316     0.85272656
n     0.35587978     0.53652387     0.14727213
n     0.14304491     0.20551191     0.64810618
n     0.64307865     0.29445943     0.35192487
n     0.85695865     0.70550824     0.85191967
n     0.35691746     0.79445971     0.14810117
c     0.07980913     0.33836331     0.69538672
c     0.57986829     0.16161120     0.30461005
c     0.92019469     0.83834103     0.80461448
c     0.42014298     0.66161275     0.19540156
c     0.24644559     0.24217348     0.56519677
c     0.74647054     0.25779162     0.43484805
c     0.75356719     0.74219113     0.93483187
c     0.25351248     0.75780983     0.06518059
c     0.25556493     0.42179962     0.56065019
c     0.75564251     0.07815811     0.43934657
c     0.74443810     0.92181836     0.93934947
c     0.24435131     0.57818088     0.06065364
c     0.19329017     0.47777755     0.45258040
c     0.69339050     0.02208442     0.54739456
c     0.80671669     0.97785369     0.04740579
c     0.30660388     0.52215567     0.95259332
h     0.06529068     0.44608845     0.44260206
h     0.56538854     0.05374114     0.55738333
h     0.93471457     0.94617240     0.05739254
h     0.43460567     0.55382309     0.94261238
h     0.26597819     0.42250526     0.39002347
h     0.76608021     0.07732166     0.60997322
h     0.73402808     0.92260351     0.10997420
h     0.23391224     0.57741764     0.89002581
h     0.20530639     0.60491376     0.44533902
h     0.70543524     0.89494484     0.55458777
h     0.79469949     0.10499070     0.05461992
h     0.29455883     0.39501950     0.94537098
c     0.43283656     0.47563510     0.58331886
c     0.93293506     0.02442485     0.41666688
c     0.56715876     0.97562015     0.91667652
c     0.06707029     0.52440418     0.08333052
h     0.50313939     0.43213502     0.51546524
h     0.00324257     0.06797455     0.48451045
h     0.49686349     0.93211141     0.98453308
h     0.99675412     0.56794737     0.01548896
c     0.50171816     0.40219630     0.68439137
c     0.00173344     0.09789343     0.31558292
c     0.49828876     0.90215832     0.81560627
c     0.99825850     0.59785141     0.18441626
h     0.63005650     0.43392121     0.69363544
h     0.13008133     0.06623234     0.30631803
h     0.36994648     0.93386147     0.80635960
h     0.86991466     0.56616759     0.19367821
h     0.49604596     0.27387675     0.68292501
h     0.99599477     0.22621053     0.31704684
h     0.50397857     0.77383953     0.81707655
h     0.00397894     0.72616873     0.18295719
h     0.43599854     0.44302415     0.75489943
h     0.93598998     0.05703081     0.24508670
h     0.56400477     0.94299481     0.74509813
h     0.06400577     0.55699737     0.25491195
c     0.44886178     0.65393539     0.58719148
c     0.94906094     0.84612853     0.41281020
c     0.55110875     0.15392230     0.91279929
c     0.05096807     0.34611183     0.08718096
h     0.57554487     0.68401049     0.60494834
h     0.07575235     0.81612856     0.39503108
h     0.42442385     0.18397355     0.89503449
h     0.92427964     0.31608727     0.10495170
h     0.37341765     0.70477233     0.65023181
h     0.87359792     0.79522694     0.34979546
h     0.62655782     0.20476728     0.84976288
h     0.12642708     0.29521868     0.15019896
h     0.41736168     0.71033573     0.51192167
h     0.91765108     0.78973758     0.48809653
h     0.58259193     0.21033012     0.98807066
h     0.08239609     0.28972758     0.01189536
h     0.11022610     0.57637333     0.66613018
h     0.61030325     0.92359415     0.33384165
h     0.88977337     0.07636100     0.83385076
h     0.38969256     0.42360075     0.16613719
h     0.11226398     0.09249268     0.67052629
h     0.61227533     0.40748061     0.32951538
h     0.88773458     0.59249134     0.82950630
h     0.38772651     0.90747416     0.17051731

K_POINTS automatic
2 2 2 1 1 1

CELL_PARAMETERS cubic
   15.546963000000    -0.000196000000    -0.000515000000
   -0.000202000000    16.125660000000     0.000008000000
   -0.000791000000     0.000013000000    23.822239000000
