&control
 title='crystal',
 prefix='crystal',
 pseudo_dir='..',
 calculation='vc-relax',
 etot_conv_thr=1.0D-5,
/
&system
 ibrav=0,
 celldm(1)=1.0,
 nat=    44,
 ntyp=  4,
 ecutwfc=80.0,
 ecutrho=800.0,
 xdm=.true.,
 xdm_a1=0.6512,
 xdm_a2=1.4633,
/
&electrons
 conv_thr = 1d-8,
/
&ions
/
&cell
/
ATOMIC_SPECIES
h      1.007940 h.UPF
c     12.010700 c.UPF
n     14.006700 n.UPF
o     15.999400 o.UPF

ATOMIC_POSITIONS crystal
o        0.088474983   0.237321407   0.327431306
o        0.911525017   0.762678593   0.672568694
o        0.114736739   0.084192880   0.869798968
o        0.885263261   0.915807120   0.130201032
n        0.069618893   0.733475010   0.314633484
n        0.930381107   0.266524990   0.685366516
c        0.109479274   0.054714399   0.102875468
c        0.890520726   0.945285601   0.897124532
c        0.132194490   0.778308786   0.119999671
c        0.867805510   0.221691214   0.880000329
c        0.238147847   0.756724888   0.233537086
c        0.761852153   0.243275112   0.766462914
c        0.311797969   0.743171142   0.029231463
c        0.688202031   0.256828858   0.970768537
c        0.311236192   0.470119338   0.791270356
c        0.688763808   0.529880662   0.208729644
c        0.412708105   0.806863443   0.191577516
c        0.587291895   0.193136557   0.808422484
h        0.115515925   0.623508202   0.911718050
h        0.884484075   0.376491798   0.088281950
h        0.246061897   0.576635389   0.287893153
h        0.753938103   0.423364611   0.712106847
h        0.253175460   0.927192010   0.431699353
h        0.746824540   0.072807990   0.568300647
h        0.291916888   0.895550949   0.935182437
h        0.708083112   0.104449051   0.064817563
h        0.239490590   0.416135606   0.674014024
h        0.760509410   0.583864394   0.325985976
h        0.334117555   0.314558284   0.878127178
h        0.665882445   0.685441716   0.121872822
h        0.361516384   0.464791476   0.640435399
h        0.638483616   0.535208524   0.359564601
h        0.467136903   0.795100903   0.049964542
h        0.532863097   0.204899097   0.950035458
h        0.415121329   1.007033624   0.354272316
h        0.584878671  -0.007033624   0.645727684
h        0.434352397   0.664497095   0.297459245
h        0.565647603   0.335502905   0.702540755
h        0.076657592   0.533225648   0.308684586
h        0.923342408   0.466774352   0.691315414
h        0.089212805   0.860117764   0.523930786
h        0.910787195   0.139882236   0.476069214
h       -0.002579666   0.772165068   0.260419322
h        1.002579666   0.227834932   0.739580678

K_POINTS automatic
4 4 4 1 1 1

CELL_PARAMETERS cubic
  26.371466415  -0.059978706  -0.112038503
   0.583684747  10.176977695   0.022637264
  -1.174511691  -3.475908072   8.951183826
