&control
 title='crystal',
 prefix='crystal',
 pseudo_dir='.',
 calculation='vc-relax',
/
&system
 ibrav=0,
 celldm(1)=1.0,
 nat=    44,
 ntyp=  4,
 ecutwfc=60.0,
 ecutrho=600.0,
 xdm=.true.,
 xdm_a1=0.4073,
 xdm_a2=2.4150,
/
&electrons
 conv_thr = 1d-8,
/
&ions
/
&cell
/
ATOMIC_SPECIES
h      1.007940 h.UPF
c     12.010700 c.UPF
n     14.006700 n.UPF
o     15.999400 o.UPF

ATOMIC_POSITIONS crystal
o     0.08847499     0.23732140     0.32743131
o     0.91152503     0.76267861     0.67256876
o     0.11473675     0.08419287     0.86979896
o     0.88526327     0.91580715     0.13020111
n     0.06961889     0.73347499     0.31463350
n     0.93038112     0.26652502     0.68536657
c     0.10947928     0.05471440     0.10287547
c     0.89052074     0.94528561     0.89712460
c     0.13219449     0.77830878     0.11999970
c     0.86780553     0.22169124     0.88000037
c     0.23814785     0.75672488     0.23353711
c     0.76185217     0.24327513     0.76646295
c     0.31179797     0.74317114     0.02923150
c     0.68820205     0.25682887     0.97076856
c     0.31123620     0.47011934     0.79127037
c     0.68876381     0.52988068     0.20872969
c     0.41270811     0.80686344     0.19157755
c     0.58729191     0.19313657     0.80842251
h     0.11551593     0.62350818     0.91171806
h     0.88448408     0.37649183     0.08828200
h     0.24606190     0.57663539     0.28789318
h     0.75393812     0.42336463     0.71210689
h     0.25317546     0.92719200     0.43169939
h     0.74682456     0.07280801     0.56830068
h     0.29191690     0.89555094     0.93518246
h     0.70808312     0.10444908     0.06481761
h     0.23949060     0.41613560     0.67401403
h     0.76050942     0.58386441     0.32598603
h     0.33411757     0.31455829     0.87812719
h     0.66588245     0.68544173     0.12187288
h     0.36151639     0.46479147     0.64043542
h     0.63848362     0.53520854     0.35956465
h     0.46713691     0.79510091     0.04996459
h     0.53286311     0.20489911     0.95003548
h     0.41512133     0.00703362     0.35427236
h     0.58487868     0.99296639     0.64572771
h     0.43435240     0.66449710     0.29745928
h     0.56564762     0.33550292     0.70254078
h     0.07665759     0.53322564     0.30868460
h     0.92334243     0.46677437     0.69131547
h     0.08921281     0.86011774     0.52393080
h     0.91078721     0.13988227     0.47606926
h     0.99742033     0.77216505     0.26041933
h     0.00257969     0.22783496     0.73958073

K_POINTS automatic
2 2 2 1 1 1

CELL_PARAMETERS cubic
   26.371466000000    -0.059979000000    -0.112039000000
    0.583685000000    10.176978000000     0.022637000000
   -1.174512000000    -3.475908000000     8.951184000000
