&control
 title='crystal',
 prefix='crystal',
 pseudo_dir='..',
/
&system
 ibrav=1,
 celldm(1)=40,
 nat=2,
 ntyp=1,
 ecutwfc=80.0,
 ecutrho=800.0,
 xdm=.true.,
 xdm_a1=0.6754,
 xdm_a2=1.4651,
 input_dft='b86bpbex',
 exx_fraction=0.25,
/
&electrons
 conv_thr = 1d-8,
/
ATOMIC_SPECIES
Br    79.904000 br.UPF

ATOMIC_POSITIONS angstrom
Br       3.283599914   5.093706266   3.370792929
Br       3.283600086   3.841893734   5.323007071

K_POINTS gamma

