&control
 title='crystal',
 prefix='crystal',
 pseudo_dir='.',
 calculation='vc-relax',
/
&system
 ibrav=0,
 celldm(1)=1.0,
 nat=    80,
 ntyp=  3,
 ecutwfc=60.0,
 ecutrho=600.0,
 xdm=.true.,
 xdm_a1=0.4073,
 xdm_a2=2.4150,
/
&electrons
 conv_thr = 1d-8,
/
&ions
/
&cell
/
ATOMIC_SPECIES
h      1.007940 h.UPF
c     12.010700 c.UPF
o     15.999400 o.UPF

ATOMIC_POSITIONS crystal
c     0.49228996     0.41877848     0.19504767
c     0.99228997     0.08122152     0.80495237
c     0.50771007     0.58122152     0.69504769
c     0.00771005     0.91877848     0.30495234
c     0.42589574     0.34828404     0.30197240
c     0.92589576     0.15171596     0.69802764
c     0.57410428     0.65171596     0.80197242
c     0.07410427     0.84828404     0.19802762
c     0.24548514     0.32196551     0.12054569
c     0.74548515     0.17803449     0.87945434
c     0.75451489     0.67803449     0.62054571
c     0.25451487     0.82196552     0.37945432
c     0.06467490     0.37332681     0.12622342
c     0.56467492     0.12667320     0.87377661
c     0.93532512     0.62667320     0.62622345
c     0.43532511     0.87332681     0.37377659
c     0.14359014     0.44266738     0.03397515
c     0.64359016     0.05733262     0.96602488
c     0.85640988     0.55733262     0.53397517
c     0.35640987     0.94266738     0.46602486
h     0.60792395     0.44127123     0.33955161
h     0.10792397     0.05872878     0.66044842
h     0.39207607     0.55872878     0.83955163
h     0.89207606     0.94127123     0.16044840
h     0.84909059     0.34950975     0.40116192
h     0.34909060     0.15049026     0.59883811
h     0.15090944     0.65049026     0.90116195
h     0.65090942     0.84950975     0.09883809
h     0.37587852     0.35432499     0.52438207
h     0.87587853     0.14567501     0.47561796
h     0.62412151     0.64567501     0.02438210
h     0.12412149     0.85432500     0.97561794
h     0.29892652     0.31727683     0.89823740
h     0.79892654     0.18272317     0.10176263
h     0.70107350     0.68272317     0.39823742
h     0.20107349     0.81727683     0.60176261
h     0.94633725     0.35707880     0.97090501
h     0.44633727     0.14292120     0.02909502
h     0.05366277     0.64292120     0.47090504
h     0.55366275     0.85707881     0.52909500
h     0.02409671     0.48168089     0.06071639
h     0.52409673     0.01831911     0.93928364
h     0.97590331     0.51831911     0.56071642
h     0.47590330     0.98168089     0.43928362
h     0.19104339     0.44102718     0.80855251
h     0.69104341     0.05897282     0.19144753
h     0.80895663     0.55897282     0.30855253
h     0.30895662     0.94102719     0.69144751
h     0.62779448     0.45603237     0.85132956
h     0.12779450     0.04396764     0.14867047
h     0.37220555     0.54396764     0.35132958
h     0.87220553     0.95603237     0.64867045
h     0.61083133     0.27532267     0.46874460
h     0.11083135     0.22467733     0.53125544
h     0.38916869     0.72467733     0.96874462
h     0.88916868     0.77532267     0.03125541
h     0.14885486     0.22923153     0.04096089
h     0.64885488     0.27076847     0.95903914
h     0.85114516     0.77076847     0.54096092
h     0.35114514     0.72923153     0.45903912
o     0.56992151     0.41189004     0.91639296
o     0.06992152     0.08810996     0.08360707
o     0.43007852     0.58810996     0.41639298
o     0.93007850     0.91189005     0.58360705
o     0.60476985     0.30422800     0.29246375
o     0.10476987     0.19577200     0.70753629
o     0.39523017     0.69577200     0.79246377
o     0.89523015     0.80422800     0.20753626
o     0.18166945     0.25596119     0.21586185
o     0.68166947     0.24403882     0.78413818
o     0.81833057     0.74403882     0.71586187
o     0.31833055     0.75596119     0.28413816
o     0.97575064     0.37752310     0.40661616
o     0.47575066     0.12247690     0.59338387
o     0.02424938     0.62247690     0.90661618
o     0.52424937     0.87752310     0.09338385
o     0.31706186     0.46441620     0.21036476
o     0.81706188     0.03558380     0.78963527
o     0.68293817     0.53558380     0.71036479
o     0.18293815     0.96441621     0.28963525

K_POINTS automatic
2 2 2 1 1 1

CELL_PARAMETERS cubic
   12.138378000000     0.000000000000     0.000000000000
    0.000000000000    37.164632000000     0.000000000000
    0.000000000000     0.000000000000     8.840520000000
