&control
 title='crystal',
 prefix='crystal',
 pseudo_dir='.',
 calculation='vc-relax',
/
&system
 ibrav=0,
 celldm(1)=1.0,
 nat=    52,
 ntyp=  4,
 ecutwfc=60.0,
 ecutrho=600.0,
 xdm=.true.,
 xdm_a1=0.4073,
 xdm_a2=2.4150,
/
&electrons
 conv_thr = 1d-8,
/
&ions
/
&cell
/
ATOMIC_SPECIES
h      1.007940 h.UPF
c     12.010700 c.UPF
n     14.006700 n.UPF
o     15.999400 o.UPF

ATOMIC_POSITIONS crystal
c     0.14408043     0.31108279     0.16231311
c     0.85591955     0.68891720     0.66231311
c     0.35592041     0.81107874     0.66231266
c     0.64407956     0.18892125     0.16231266
c     0.16336762     0.21440465     0.40271951
c     0.83663236     0.78559535     0.90271951
c     0.33663306     0.71440043     0.90271854
c     0.66336692     0.28559956     0.40271854
c     0.08933282     0.00838662     0.44669799
c     0.91066716     0.99161337     0.94669799
c     0.41066674     0.50837744     0.94669834
c     0.58933323     0.49162255     0.44669834
n     0.14088869     0.38899994     0.57920481
n     0.85911128     0.61100005     0.07920481
n     0.35911176     0.88899489     0.07920375
n     0.64088821     0.11100510     0.57920375
o     0.08984405     0.49189106     0.14064711
o     0.91015592     0.50810893     0.64064711
o     0.41015742     0.99188369     0.64064720
o     0.58984256     0.00811630     0.14064720
o     0.18580715     0.19500241     0.99871225
o     0.81419283     0.80499758     0.49871225
o     0.31419266     0.69500196     0.49871135
o     0.68580732     0.30499803     0.99871135
h     0.05710128     0.44682488     0.57234746
h     0.94289869     0.55317511     0.07234746
h     0.44289851     0.94681958     0.07234457
h     0.55710147     0.05318041     0.57234457
h     0.19857315     0.52199229     0.55435270
h     0.80142682     0.47800770     0.05435270
h     0.30142628     0.02198812     0.05435236
h     0.69857370     0.97801187     0.55435236
h     0.15498561     0.32039103     0.74362567
h     0.84501436     0.67960896     0.24362567
h     0.34501569     0.82038682     0.24362501
h     0.65498428     0.17961317     0.74362501
h     0.25373124     0.16940121     0.42047066
h     0.74626874     0.83059878     0.92047066
h     0.24626930     0.66940228     0.92046892
h     0.75373068     0.33059771     0.42046892
h     0.10809658     0.93993106     0.61593930
h     0.89190340     0.06006893     0.11593930
h     0.39190211     0.43992388     0.11593982
h     0.60809787     0.56007611     0.61593982
h     0.10607347     0.87738809     0.32045985
h     0.89392651     0.12261190     0.82045985
h     0.39392573     0.37737896     0.82046116
h     0.60607425     0.62262103     0.32046116
h     0.99862466     0.05167419     0.44088242
h     0.00137531     0.94832580     0.94088242
h     0.50137517     0.55165836     0.94088356
h     0.49862480     0.44834164     0.44088356

K_POINTS automatic
2 2 2 1 1 1

CELL_PARAMETERS cubic
   22.170074000000     0.000130000000     0.000000000000
    0.000062000000    11.263100000000     0.000000000000
    0.000000000000     0.000000000000    11.082456000000
