%nprocs=4
%mem=4GB
#p pbepbe aug-cc-pvtz output=wfx scf=(conver=6) int=(grid=ultrafine)

title

0 1
C     1.2180943    0.6935200    0.0000000 
C     1.2180943   -0.6935200    0.0000000 
C    -1.2180943   -0.6935200    0.0000000 
C    -1.2180943    0.6935200    0.0000000 
C    -0.0000000    1.3947767    0.0000000 
C    -0.0000000   -1.3947767    0.0000000 
C    -0.0000000    2.8235452    0.0000000 
C    -0.0000000   -2.8235452    0.0000000 
N    -0.0000000    3.9859339    0.0000000 
N    -0.0000000   -3.9859339    0.0000000 
H    -2.1529797   -1.2431459    0.0000000 
H    -2.1529797    1.2431459    0.0000000 
H     2.1529797    1.2431459    0.0000000 
H     2.1529797   -1.2431459    0.0000000 

02_m2.wfx

