%nprocs=4
%mem=4GB
#p pbepbe aug-cc-pvtz output=wfx scf=(conver=6) int=(grid=ultrafine)

title

0 1
C    -0.0765445    3.0404357   -1.7880053 
C    -0.3260352   -3.1709538    1.7244911 
C    -5.8692017   -0.5599227    0.2310787 
C    -5.7022978    0.2871111   -1.0595104 
C    -0.4033150    4.1462639   -2.8547365 
C    -0.6809876   -4.2853550    2.7716801 
C    -7.1501990   -1.4026387    0.1484128 
C    -6.9320102    1.1852674   -1.2645956 
C    -3.5887975   -0.1313851    2.1552044 
C    -3.1149273   -0.1649038   -2.5494173 
C    -8.3797501   -0.5145631   -0.0746161 
C    -8.2170761    0.3514131   -1.3294088 
C     4.5171207    1.5404200   -3.6900848 
C     3.9914772   -1.3965657    4.0061908 
C     3.3668059   -4.9892810   -1.2757264 
C     3.2338674    5.0951027    1.4909484 
C     1.9929972    3.4437745   -0.7852925 
C     1.8455827   -3.4595793    0.9126302 
C    -0.2016385    3.6334103   -0.4244293 
C    -0.2944979   -3.7729750    0.3586586 
C     1.1306301   -2.7810836    1.8793254 
C     1.4066885    2.7373638   -1.8162312 
C     4.1717127    2.8807423   -1.5821014 
C     3.9120931   -2.7817255    1.8973399 
C    -2.5622347   -2.1962760    1.0307435 
C    -2.3054452    1.9303025   -1.3095893 
C     2.2196010    2.1023931   -2.7775512 
C     1.8192737   -2.0907252    2.8959027 
C    -1.4098963   -2.1089781    1.8864991 
C    -1.0780745    1.9208457   -2.0594172 
C     3.2454594   -3.5010018    0.8375853 
C     3.3757222    3.5558750   -0.5841927 
N    -4.5027750    1.1076898   -0.9780871 
N    -4.7169073   -1.4291098    0.4103074 
C     3.6169713    2.1806556   -2.6681913 
C     3.2256715   -2.0935545    2.9140097 
C    -3.3331571    0.9714483   -1.5979286 
C    -3.6417596   -1.2685529    1.1785077 
C    -2.5878803   -3.1850546   -0.0676913 
C    -2.4935224    2.9162037   -0.2250357 
C    -1.3659331   -3.8923348   -0.4358516 
C    -1.3545771    3.6910640    0.2587010 
C     4.0300544    4.3037076    0.4831178 
C     4.0248854   -4.1820798   -0.1837837 
O     0.9916000   -4.1113835    0.0072171 
O     1.0226470    4.0427421    0.0405960 
O     5.2492915   -2.7462393    1.9256272 
O     5.5053139    2.9002942   -1.4821466 
O     1.1532809   -1.4184384    3.8498584 
O     1.6803785    1.4108414   -3.7973203 
O     5.2777190    4.3116198    0.5709947 
O     5.2771016   -4.1099255   -0.1734920 
O    -3.6052333   -3.3591187   -0.7916919 
O    -3.5852835    3.0312581    0.3973053 
O    -1.2639203   -1.2983449    2.8317717 
O    -0.8046696    1.1460087   -3.0048403 
H     5.7046114    3.4416585   -0.6402815 
H     5.5486461   -3.2741515    1.1062735 
H    -4.4910464    1.9214689   -0.3119879 
H    -4.6025232   -2.2524447   -0.2355257 
H     0.6913435    1.3010937   -3.6124315 
H     0.1833822   -1.3602668    3.5668199 
H    -5.9509398    0.1267273    1.0776379 
H    -5.6184888   -0.3990144   -1.9057795 
H    -1.3422330   -4.3706546   -1.4076317 
H    -1.4592507    4.1808820    1.2199282 
H    -6.9909889    1.9015142   -0.4337573 
H    -7.0505693   -2.1193459   -0.6781995 
H    -7.2492660   -1.9863587    1.0695375 
H    -6.7954928    1.7675858   -2.1818431 
H    -8.5224990    0.1342013    0.8004098 
H    -8.1855270   -0.2949188   -2.2171687 
H    -3.4560955   -0.5158042    3.1686823 
H    -2.1999478   -0.6971441   -2.2836497 
H    -9.2754909   -1.1393597   -0.1552744 
H    -9.0801250    1.0145597   -1.4504645 
H    -2.7166552    0.4921146    1.9542217 
H    -3.9464693   -0.8674164   -2.5449085 
H     3.3579713   -0.6590459    4.5016154 
H     3.9878077    0.7500843   -4.2254399 
H    -4.4792226    0.4925792    2.1091717 
H    -2.9579405    0.2184091   -3.5613160 
H     4.8831983   -0.9083042    3.6069985 
H     5.4148997    1.1355899   -3.2169293 
H     4.1446807   -5.3663726   -1.9399749 
H     3.9289143    5.5551099    2.1939188 
H     0.0264136   -5.1127259    2.6763730 
H     0.2442492    5.0109699   -2.6910980 
H     2.5298028    4.4529410    2.0262724 
H     2.6531285   -4.3845362   -1.8416825 
H    -0.6074161   -3.8618955    3.7763360 
H    -0.2177141    3.7389552   -3.8515256 
H    -1.4498055    4.4523332   -2.7706339 
H    -1.6967596   -4.6525907    2.6008252 
H     2.8011954   -5.8228778   -0.8460783 
H     2.6393267    5.8664730    0.9905378 
H     4.6365943    2.2215963   -4.5110048 
H     4.3260575   -2.1167116    4.7630560 
C     3.6305071   -0.1327034   -0.0512977 
C     2.5767767    1.0272137    1.7093763 
C     2.2271977   -0.2415710   -0.2441467 
C     1.5622592    0.5162470    0.8577608 
C     1.8262893   -0.9892548   -1.3663651 
C     4.1166363   -1.3922248   -1.9884463 
C     0.9650892    2.0252112    3.1188863 
C     2.7649476   -1.5448011   -2.2394815 
C     3.9137624    0.6568436    1.1825843 
C     2.3072005    1.7707332    2.8415678 
C     4.5833287   -0.6854644   -0.8843585 
C    -0.0577390    1.5600936    2.3023024 
C     0.2322142    0.8048497    1.1647710 
N     0.4256684   -1.2966037   -1.7004242 
N     5.0834366   -2.0024528   -2.9275766 
N     0.6161903    2.8298188    4.3072742 
O    -0.4403060   -1.0031086   -0.8676410 
O     0.1852667   -1.8594922   -2.7678676 
O     6.2721360   -1.7366252   -2.7566704 
O     1.5457914    3.2366098    5.0088864 
O     4.6294658   -2.7282491   -3.8159907 
O    -0.5806261    3.0517153    4.5169908 
O     5.0076958    0.9326996    1.6403161 
H    -0.5761379    0.4552407    0.5455232 
H     2.4273949   -2.0954666   -3.1068606 
H    -1.0812743    1.7899551    2.5681443 
H     5.6419764   -0.5703196   -0.6846266 
H     3.0996963    2.1439954    3.4796026 

03_di.wfx

