%nprocs=4
%mem=4GB
#p pbepbe aug-cc-pvtz output=wfx scf=(conver=6) int=(grid=ultrafine)

title

0 1
C     1.0103294   -1.1172449    0.0644694 
C    -1.3520613   -0.9583765    0.0584622 
C     0.6592845    0.2550166    0.0625585 
C    -0.8248500    0.3551793    0.0399087 
C     1.7149525    1.1716866    0.0250997 
C     3.3215731   -0.6104109   -0.0116902 
C    -3.5543292   -0.1059918   -0.0371241 
C     3.0439911    0.7481155   -0.0326088 
C    -0.2381405   -1.9474967    0.0863677 
C    -2.7119044   -1.2142431    0.0266930 
C     2.3145090   -1.5742840    0.0395000 
C    -3.0721333    1.1999932   -0.0732786 
C    -1.6962780    1.4427268   -0.0319363 
N     1.5149871    2.6383499    0.0640195 
N     4.7396681   -1.0435095   -0.0482575 
N    -5.0213736   -0.3253370   -0.0728310 
O     0.5909121    3.0624312    0.7620244 
O     2.3045416    3.3287034   -0.5774873 
O     4.9515546   -2.2566005   -0.0524949 
O    -5.4163957   -1.4915208   -0.0283948 
O     5.5999932   -0.1625259   -0.0717457 
O    -5.7424897    0.6715958   -0.1450240 
O    -0.3082033   -3.1615497    0.1154470 
H    -1.3351056    2.4615509   -0.0435203 
H     3.8482744    1.4716236   -0.0843033 
H    -3.7810701    2.0177536   -0.1283958 
H     2.5486143   -2.6328452    0.0510593 
H    -3.1088503   -2.2227899    0.0434830 

03_m2.wfx

