%nprocs=4
%mem=4GB
#p pbepbe aug-cc-pvtz output=wfx scf=(conver=6) int=(grid=ultrafine)

title

0 1
C    -0.0371625    3.4844827   -1.1269014 
C     0.0094624   -3.4957302    1.1549974 
C    -5.5443637   -0.6093832    0.4030162 
C    -5.5231281    0.4070502   -0.7718722 
C    -0.3747473    4.6534588   -2.1192510 
C    -0.3310123   -4.6376814    2.1779186 
C    -6.8014621   -1.4905074    0.3298475 
C    -6.8129815    1.2425547   -0.7857573 
C    -2.9995254   -0.2888385    2.0106755 
C    -2.8709147    0.1857603   -2.2133413 
C    -8.0796119   -0.6459768    0.3105258 
C    -8.0582305    0.3525435   -0.8521445 
C     4.6838429    2.2605786   -2.8995338 
C     4.5949491   -1.9067305    3.0086711 
C     3.3208413   -5.3171604   -2.2573571 
C     3.0371515    5.2498342    2.5315396 
C     1.9690299    3.9057860   -0.0095762 
C     2.0833858   -3.9031731    0.1628366 
C    -0.2420085    3.9607693    0.2732640 
C    -0.1068649   -4.0370111   -0.2307118 
C     1.4952773   -3.2095801    1.2016239 
C     1.4583159    3.2553779   -1.1144000 
C     4.2014294    3.4856863   -0.7460640 
C     4.2604400   -3.3631235    0.9780137 
C    -2.2009021   -2.3435517    0.6951325 
C    -2.2249327    2.2472785   -0.8281281 
C     2.3342757    2.7061584   -2.0701473 
C     2.3027081   -2.5512170    2.1478798 
C    -0.9858529   -2.3809718    1.4635427 
C    -0.9711608    2.3446454   -1.5236291 
C     3.4684953   -4.0292761   -0.0252950 
C     3.3384771    4.0505209    0.2627199 
N    -4.3856305    1.3041416   -0.6427472 
N    -4.3695528   -1.4656545    0.3520048 
C     3.7229354    2.8312929   -1.8926969 
C     3.7022064   -2.6197150    2.0312735 
C    -3.1852368    1.2599504   -1.2156114 
C    -3.2130421   -1.3796389    1.0053062 
C    -2.3782716   -3.2632187   -0.4453858 
C    -2.5007514    3.1363416    0.3198438 
C    -1.2403379   -4.0297229   -0.9442323 
C    -1.4150497    3.9064051    0.9164405 
C     3.9105475    4.6645345    1.4515555 
C     4.1208687   -4.7160083   -1.1292395 
O     1.1159956   -4.4740058   -0.6819844 
O     0.9438104    4.3984615    0.8135280 
O     5.5982231   -3.4091092    0.8988653 
O     5.5320928    3.5477489   -0.5802515 
O     1.7656782   -1.8410266    3.1535962 
O     1.8685635    2.0520136   -3.1473022 
O     5.1559336    4.7041778    1.6024514 
O     5.3711602   -4.7978099   -1.1733743 
O    -3.4591565   -3.3354900   -1.0936525 
O    -3.6261162    3.1703367    0.8899100 
O    -0.7328729   -1.6603814    2.4550998 
O    -0.6345667    1.6600347   -2.5176848 
H     5.6623247    4.0294268    0.3113494 
H     5.7936773   -3.9757778    0.0731574 
H    -4.4385373    2.0774794    0.0692913 
H    -4.3529103   -2.2478690   -0.3514336 
H     0.8746886    1.8946340   -3.0125364 
H     0.7659488   -1.7621921    2.9874344 
H    -5.5528635   -0.0462766    1.3407208 
H    -5.4487975   -0.1553577   -1.7071061 
H    -1.3309607   -4.4687738   -1.9308311 
H    -1.5711911    4.2979946    1.9144517 
H    -6.8437742    1.8567513    0.1246915 
H    -6.7483773   -2.1038051   -0.5802596 
H    -6.7971992   -2.1797724    1.1807712 
H    -6.7754590    1.9319960   -1.6357607 
H    -8.1715909   -0.0996536    1.2591893 
H    -8.0661082   -0.1955195   -1.8043499 
H    -2.8878824   -0.7175443    3.0103572 
H    -1.9320804   -0.3015404   -1.9445268 
H    -8.9529923   -1.3027123    0.2360968 
H    -8.9577488    0.9772505   -0.8379104 
H    -2.0605995    0.2282783    1.8038932 
H    -3.6596397   -0.5633168   -2.2649953 
H     4.0450866   -1.1094444    3.5125913 
H     4.2099576    1.4550314   -3.4636249 
H    -3.8152872    0.4323187    2.0057251 
H    -2.7090191    0.6259423   -3.2008743 
H     5.4673472   -1.4911288    2.4963368 
H     5.5832382    1.8860507   -2.4053238 
H     4.0153739   -5.7468673   -2.9803004 
H     3.6822842    5.6619849    3.3085484 
H     0.3101606   -5.5014159    1.9853152 
H     0.2217697    5.5322791   -1.8619558 
H     2.3861025    4.4770455    2.9521306 
H     2.7050907   -4.5479230   -2.7348533 
H    -0.1471214   -4.2682692    3.1897226 
H    -0.1299548    4.3351826   -3.1355977 
H    -1.4376917    4.9033259   -2.0577745 
H    -1.3797610   -4.9318589    2.0790290 
H     2.6384954   -6.0883168   -1.8870840 
H     2.3873510    6.0317555    2.1265227 
H     5.0033800    3.0281821   -3.6154263 
H     4.9726065   -2.5944614    3.7755409 
C     2.8456167   -0.7743225   -1.0999608 
C     1.9406689   -0.1499622   -0.1711225 
C     4.7347855    0.1551133    0.0494173 
C     2.4859711    0.6298936    0.8874353 
C     3.8495370    0.7751340    0.9683200 
C     4.2561926   -0.6258616   -0.9745040 
N     1.6328036    1.2846813    1.8691416 
N     2.1507041   -1.4503027   -2.0010273 
O     0.8451854   -1.2497222   -1.6441094 
N     0.6965119   -0.4550691   -0.5151149 
Cl    5.2998734   -1.4023044   -2.0930756 
O     0.4124856    1.2139683    1.6890682 
O     2.1781814    1.8748264    2.8094033 
H     5.8018202    0.3041996    0.1598589 
H     4.2516765    1.3803851    1.7721206 

04_di.wfx

