%nprocs=4
%mem=4GB
#p pbepbe aug-cc-pvtz output=wfx scf=(conver=6) int=(grid=ultrafine)

title

0 1
C     0.8187399    0.9089021    0.8813727 
C    -1.3935941    0.8979414    0.0379098 
C     0.6289882   -0.2910306    0.1528793 
C    -0.7552823   -0.2900798   -0.3920976 
C     1.7323505   -1.1448235    0.0534709 
C     3.0775704    0.3690587    1.3409437 
C    -3.3559450    0.3023127   -1.1368387 
C     2.9621376   -0.8131444    0.6251964 
C    -0.4522642    1.7044712    0.8645250 
C    -2.6939119    1.2134134   -0.3160013 
C     2.0109871    1.2560181    1.4884189 
C    -2.7558677   -0.8692465   -1.5917622 
C    -1.4446797   -1.1781109   -1.2188691 
N     1.6827273   -2.4550942   -0.6347272 
N     4.3839372    0.6948964    1.9633328 
N    -4.7522081    0.5932754   -1.5460511 
O     0.6367941   -3.1017449   -0.5407775 
O     2.6994121   -2.8172632   -1.2236431 
O     4.4582963    1.7602565    2.5765138 
O    -5.2573155    1.6332207   -1.1200495 
O     5.2968853   -0.1197976    1.8225369 
O    -5.3094721   -0.2228719   -2.2825596 
O    -0.6525359    2.7742573    1.4078346 
H    -0.9959124   -2.0988692   -1.5644622 
H     3.8128650   -1.4747932    0.5180052 
H    -3.3248023   -1.5334680   -2.2317583 
H     2.1198837    2.1787088    2.0473316 
H    -3.1777835    2.1236049    0.0193256 

05_m2.wfx

