%nprocs=4
%mem=4GB
#p pbepbe aug-cc-pvtz output=wfx scf=(conver=6) int=(grid=ultrafine)

title

0 1
C    -0.1059339   -4.1671210   -1.1073283 
C     0.0743393   -4.1215223    1.2703406 
C     0.6389955   -1.3113446    3.5054433 
C     0.2013458   -3.3715904    2.5426403 
C    -0.2283949   -3.4658516   -2.4075548 
C    -0.6490782   -1.4405717   -3.4488785 
C    -0.0167040   -6.0821502    0.1186639 
C     1.0369062    0.1082963    3.2874640 
C     2.2846279    0.3916839    2.6899502 
C     0.1561314    1.1562912    3.6430350 
C    -1.0349964   -0.0101738   -3.2870085 
C    -0.1464615    1.0152952   -3.6861562 
C    -2.2803070    0.3075062   -2.7016556 
C     2.6741235    1.7675719    2.4792478 
C    -2.6595240    1.6939324   -2.5496360 
C     0.5605281    2.5278435    3.4316106 
C    -0.5406928    2.3974895   -3.5332522 
C    -0.0169573   -3.4271131    0.0678363 
C    -1.7878393    2.6979451   -2.9823469 
C     1.8096768    2.7953978    2.8683408 
C    -0.4797015   -2.0202744   -4.7148699 
C     0.4654471   -1.8405152    4.7927371 
C    -3.1918786   -0.6883258   -2.2358237 
C     3.1890713   -0.6298472    2.2675983 
C     1.1649303    0.7460747   -4.1754930 
C    -1.1570869    0.9177469    4.1431583 
C     0.0330863   -3.9829282    3.7884727 
C    -0.0648893   -4.1259800   -3.6288783 
C    -3.9039069    2.0114222   -1.9338470 
C     3.9209546    2.0493415    1.8511074 
C     0.3763316    3.4256779   -3.8994337 
C    -0.3489723    3.5773694    3.7534817 
C     0.1588271   -3.1929041    4.9281732 
C    -0.1842655   -3.3793179   -4.7981364 
C    -4.3783662   -0.3420522   -1.6397850 
C     4.3783482   -0.3180347    1.6583137 
C     2.0235228    1.7672200   -4.5073215 
C    -4.7395688    1.0214795   -1.4815866 
C    -2.0081748    1.9583378    4.4309941 
C     4.7496737    1.0348825    1.4425450 
C    -1.6003419    3.3048433    4.2433353 
C     1.6254294    3.1233880   -4.3774666 
N    -0.5113111   -2.1527821   -2.3215281 
N     0.4945878   -2.0651040    2.4061739 
N     0.0558504   -5.4695761    1.3066014 
N    -0.0876920   -5.5155666   -1.0919584 
H    -2.9257608   -1.7333464   -2.3374337 
H    -0.0185799   -2.3491642    0.0461898 
H     1.4988224   -0.2833503   -4.2517726 
H     2.9154233   -1.6676455    2.4137027 
H    -1.4985448   -0.1050275    4.2630605 
H    -5.0425052   -1.1162464   -1.2690771 
H    -2.0781579    3.7393983   -2.8607605 
H     2.1074874    3.8285592    2.7023457 
H    -0.1890311   -5.0430843    3.8377533 
H     0.1489534   -5.1889366   -3.6372352 
H    -0.5956368   -1.4136527   -5.6075279 
H    -5.6758986    1.2769230   -0.9946561 
H     0.5869261   -1.2010692    5.6614193 
H     4.1941182    3.0880212    1.6845388 
H    -4.1697430    3.0582350   -1.8125643 
H    -0.0313377    4.6034427    3.5858996 
H     0.0664718    4.4602741   -3.7752132 
H    -0.0177936   -7.1701850    0.1396108 
H     5.0367444   -1.1121716    1.3210440 
H    -3.0119300    1.7483193    4.7882397 
H     3.0258458    1.5349414   -4.8546878 
H     5.6887049    1.2624372    0.9470468 
H    -2.2932925    4.1111350    4.4609312 
H     2.3239799    3.9145839   -4.6297882 
H    -0.0565462   -3.8523648   -5.7675542 
H     0.0273756   -3.6272663    5.9150339 
C     1.2949420    1.0158183   -0.5926234 
C    -1.2911079    1.0528516    0.5558175 
C    -0.6187500   -0.1855089    0.2968859 
C     0.6152441   -0.2037079   -0.2712159 
C    -0.6195580    2.2765629    0.2178666 
C     0.6326733    2.2591218   -0.3132616 
C    -2.5713366    1.0611607    1.1224629 
C     2.5736540    0.9879253   -1.1622057 
C     3.2121940   -0.2356622   -1.4909003 
C    -3.2213991   -0.1413790    1.5023295 
C    -3.2716614    2.2731358    1.3483545 
C     3.2841234    2.1824655   -1.4420342 
N     3.7231220   -1.2456116   -1.7661831 
N    -3.8327917    3.2793996    1.5217228 
N     3.8544422    3.1750536   -1.6588441 
N    -3.7419214   -1.1342336    1.8187188 
H    -1.1180522   -1.1135720    0.5508999 
H    -1.1228288    3.2176585    0.4151803 
H     1.1425040    3.1859119   -0.5562243 
H     1.1107232   -1.1465395   -0.4726109 

06_di.wfx

