%nprocs=4
%mem=4GB
#p pbepbe aug-cc-pvtz output=wfx scf=(conver=6) int=(grid=ultrafine)

title

0 1
C    -1.7326155    3.0053589   -1.2063615 
C    -1.7326155   -3.0053589   -1.2063615 
C    -1.7326155    3.0053589    1.2063615 
C    -1.7326155   -3.0053589    1.2063615 
C     3.1682211   -1.4129806    1.2063615 
C     3.1682211    1.4129806    1.2063615 
C     3.1682211    1.4129806   -1.2063615 
C     3.1682211   -1.4129806   -1.2063615 
C    -0.3647902    3.4497923    1.2063615 
C    -0.3647902   -3.4497923    1.2063615 
C    -0.3647902    3.4497923   -1.2063615 
C    -0.3647902   -3.4497923   -1.2063615 
C     2.3228585   -2.5765223    1.2063615 
C     2.3228585    2.5765223   -1.2063615 
C     2.3228585   -2.5765223   -1.2063615 
C     2.3228585    2.5765223    1.2063615 
C    -3.3936738   -0.7191083   -1.2063615 
C    -3.3936738    0.7191083   -1.2063615 
C    -3.3936738    0.7191083    1.2063615 
C    -3.3936738   -0.7191083    1.2063615 
C    -1.9682276    2.2899422   -2.4410412 
C    -1.9682276   -2.2899422   -2.4410412 
C    -1.9682276    2.2899422    2.4410412 
C    -1.9682276   -2.2899422    2.4410412 
C     1.5696487   -2.5795268   -2.4410412 
C     1.5696487   -2.5795268    2.4410412 
C     1.5696487    2.5795268   -2.4410412 
C     1.5696487    2.5795268    2.4410412 
C     2.9383239   -0.6957070   -2.4410412 
C     2.9383239   -0.6957070    2.4410412 
C     2.9383239    0.6957070   -2.4410412 
C     2.9383239    0.6957070    2.4410412 
C     0.2463353   -3.0094973    2.4410412 
C     0.2463353   -3.0094973   -2.4410412 
C     0.2463353    3.0094973    2.4410412 
C     0.2463353    3.0094973   -2.4410412 
C    -2.7860803   -1.1642646    2.4410412 
C    -2.7860803    1.1642646   -2.4410412 
C    -2.7860803    1.1642646    2.4410412 
C    -2.7860803   -1.1642646   -2.4410412 
C    -0.7468835    2.2986709   -3.2194969 
C    -0.7468835   -2.2986709   -3.2194969 
C    -0.7468835   -2.2986709    3.2194969 
C    -0.7468835    2.2986709    3.2194969 
C    -2.4169656    0.0000000    3.2194969 
C    -2.4169656    0.0000000   -3.2194969 
C     1.9553663    1.4206568    3.2194969 
C     1.9553663    1.4206568   -3.2194969 
C     1.9553663   -1.4206568   -3.2194969 
C     1.9553663   -1.4206568    3.2194969 
C    -1.2348689    0.0000000    3.9653470 
C    -1.2348689    0.0000000   -3.9653470 
C     0.9990299    0.7258377    3.9653470 
C     0.9990299   -0.7258377    3.9653470 
C     0.9990299    0.7258377   -3.9653470 
C     0.9990299   -0.7258377   -3.9653470 
C    -0.3815955   -1.1744301    3.9653470 
C    -0.3815955    1.1744301    3.9653470 
C    -0.3815955   -1.1744301   -3.9653470 
C    -0.3815955    1.1744301   -3.9653470 
C     3.4858839   -0.7339546    0.0000000 
C     3.4858839    0.7339546    0.0000000 
C    -3.2515470    1.4551694    0.0000000 
C    -3.2515470   -1.4551694    0.0000000 
C    -2.3887317   -2.6427329    0.0000000 
C    -2.3887317    2.6427329    0.0000000 
C     1.7752297   -3.0884682    0.0000000 
C     1.7752297    3.0884682    0.0000000 
C     0.3791651   -3.5420771    0.0000000 
C     0.3791651    3.5420771    0.0000000 

12_m2.wfx

