%nprocs=4
%mem=4GB
#p pbepbe aug-cc-pvtz output=wfx scf=(conver=6) int=(grid=ultrafine)

title

0 1
C    -0.5489573    0.5539890    3.3593409 
C     0.5603634    1.0168265    4.0802294 
C     1.1844009    2.2225679    3.7877447 
C     0.6661279    2.9914213    2.7568689 
C    -0.4649895    2.6185614    2.0199692 
C    -1.0200255    1.3700277    2.3247626 
O     1.3119526    4.2118700    2.4339641 
C     2.4615473    4.0863681    1.7101856 
N     3.5762763    3.7035283    2.3211645 
C     4.6397968    3.6259009    1.5160785 
C     4.5946099    3.9257482    0.1616561 
N     3.4834032    4.3145195   -0.4677631 
C     2.4171339    4.3882322    0.3176173 
C     5.9492932    3.6974938   -0.4306630 
N     6.7410951    3.2619233    0.6475529 
C     6.0298647    3.1841150    1.8624117 
C     8.1180470    2.7781192    0.4881246 
C     8.1421644    1.3081572    0.1237890 
C     8.2975636    0.3330771    1.1127096 
C     8.2626761   -1.0203845    0.7818600 
C     8.0741163   -1.4213953   -0.5437349 
C     7.9224322   -0.4444137   -1.5361593 
C     7.9546084    0.9075562   -1.2047042 
O     6.5011810    2.8238035    2.9212759 
O     6.3386251    3.8298446   -1.5739113 
O     1.2267868    4.7805518   -0.2180921 
C     0.5582954    3.8163006   -1.0077759 
C     1.0051826    3.5837843   -2.2997619 
C     0.3199655    2.6502358   -3.0667518 
C    -0.7903570    1.9451444   -2.5785832 
C    -1.1988976    2.2297069   -1.2698856 
C    -0.5561862    3.1714191   -0.4568149 
O     1.0478471    0.2350396    5.1446451 
C     2.2503994   -0.3986481    4.9173696 
N     3.3605557    0.2691091    5.0418179 
C     4.5276417   -0.4063960    4.7994866 
C     4.5048267   -1.7860182    4.4212999 
N     3.3162231   -2.4578272    4.3097822 
C     2.2291617   -1.7862697    4.5548462 
C     5.7167588   -2.4576199    4.1526697 
C     6.9101358   -1.7750711    4.2704945 
C     6.9328489   -0.4118745    4.6430442 
C     5.7617946    0.2709089    4.8996815 
O     1.0065720   -2.4189005    4.4852897 
C     0.4903244   -2.6381198    3.1969938 
C     1.0779525   -3.6010433    2.3854192 
C     0.5311965   -3.8154858    1.1283359 
C    -0.5850316   -3.1138254    0.6532528 
C    -1.1048644   -2.1217106    1.4958391 
C    -0.6123725   -1.8754380    2.7835460 
O     1.1167994   -4.7911877    0.2844670 
C     2.2733125   -4.4075840   -0.3343977 
N     3.3975554   -4.3650233    0.3748204 
C     4.4678119   -3.9831478   -0.3210939 
C     4.4227233   -3.6601033   -1.6710651 
N     3.3082754   -3.7065989   -2.3996265 
C     2.2299737   -4.0808005   -1.7188275 
C     5.8645038   -3.7731887    0.1754545 
N     6.5819992   -3.3356525   -0.9546593 
C     5.7853998   -3.2266361   -2.1087248 
C     7.9790980   -2.8909211   -0.8971642 
C    -1.1448043   -0.7998912    3.7235689 
C    -2.6669045   -0.8001971    4.0345187 
C    -3.7026499   -0.6996694    2.9118260 
C    -5.1518374   -0.6766228    3.4251175 
C    -1.1350842   -3.4533187   -0.7270396 
C    -2.6619398   -3.7450215   -0.8276366 
C    -3.6723562   -2.7669114   -0.2177516 
C    -5.1120420   -2.9798297   -0.7057187 
O     6.1786316   -2.8464339   -3.1937988 
O     1.0352251   -4.1624684   -2.3784603 
C     0.4151102   -2.9184184   -2.6453367 
C     0.8501839   -2.1678092   -3.7275656 
C     0.2148539   -0.9575559   -3.9859816 
C    -0.8222693   -0.4682101   -3.1783516 
C    -1.1953126   -1.2573614   -2.0835414 
C    -0.6335594   -2.5087045   -1.8124918 
O     6.3394839   -3.9228533    1.2828306 
O     0.6273566   -0.2012971   -5.0977749 
C     1.8681792    0.3899067   -4.9692959 
N     2.9421403   -0.3059927   -5.2046011 
C     4.1450841    0.3327764   -5.0503230 
C     4.1951102    1.7036367   -4.6427240 
N     3.0409669    2.4048720   -4.4126835 
C     1.9188327    1.7667557   -4.5754987 
C     5.4446811    2.3349671   -4.4630221 
C     6.6035511    1.6227466   -4.6955711 
C     6.5546385    0.2680428   -5.0966469 
C     5.3462151   -0.3754445   -5.2681246 
C    -1.4369217    0.8954785   -3.4756330 
C    -2.9876932    0.9559284   -3.5829746 
C    -3.8789627    0.3169646   -2.5112014 
C    -5.3766431    0.5668469   -2.7471702 
O     0.7215769    2.4207371   -4.3917541 
C    -1.0087358    3.5564332    0.9473801 
C    -2.5193798    3.9185348    1.0466832 
C    -3.5819879    2.8248234    1.2066118 
C    -5.0176587    3.3563265    1.0689736 
H     2.0602951    2.5418315    4.3384266 
H     5.7571066    1.3235898    5.1585036 
H     7.8836568    0.1071979    4.7217270 
H     7.8442390   -2.2913643    4.0690482 
H     5.6783295   -3.4949108    3.8404388 
H     1.9462770   -4.1539140    2.7207193 
H    -1.9134710   -1.5054298    1.1280330 
H     1.6669738   -2.5071685   -4.3523182 
H    -1.9492915   -0.8768555   -1.4086353 
H     5.2886076   -1.4216888   -5.5462682 
H     7.4801356   -0.2754712   -5.2630830 
H     7.5667546    2.1070617   -4.5628434 
H     5.4626911    3.3656857   -4.1270354 
H    -2.0464368    1.6914703   -0.8653886 
H     1.8664121    4.1050086   -2.6979957 
H     8.5758661    3.3861087   -0.2955910 
H     8.6263896    2.9560138    1.4379478 
H     8.4230003    0.6360353    2.1479500 
H     8.3616348   -1.7729363    1.5582697 
H     7.7674546   -0.7475190   -2.5676763 
H     7.8201973    1.6592765   -1.9763556 
H     8.4107715   -3.0875628   -1.8812660 
H     8.4765203   -3.5071718   -0.1453073 
H    -1.8416960    1.0108688    1.7197302 
H    -0.6930414   -1.0370432    4.6867436 
H    -0.6705912   -4.4076458   -0.9757284 
H    -1.0896501    1.1458932   -4.4784790 
H    -0.5028615    4.5041877    1.1347193 
H    -2.8203055    0.0201691    4.7458220 
H    -2.8693335   -1.7271457    4.5883171 
H    -2.7396874    4.5139113    0.1532435 
H    -2.6253400    4.5983640    1.9022188 
H    -3.2498893    2.0186363   -3.6716237 
H    -3.2427566    0.4965453   -4.5451046 
H    -2.8763483   -3.8585524   -1.8988420 
H    -2.8245016   -4.7307488   -0.3764197 
H    -3.5384757    0.1949692    2.3017118 
H    -3.5972761   -1.5607828    2.2493317 
H    -3.3939062   -1.7307594   -0.4348196 
H    -3.6563698   -2.8733334    0.8718685 
H    -3.6204316    0.6937444   -1.5138639 
H    -3.7152498   -0.7650854   -2.4935817 
H    -3.4461774    2.0224020    0.4698488 
H    -3.4729285    2.3659503    2.1942258 
C    -5.5201183    0.5753331    4.2314672 
H    -5.3335132   -1.5689674    4.0415132 
H    -5.8192363   -0.7604802    2.5582634 
H    -5.1426012   -2.8984806   -1.8016439 
H    -5.7264181   -2.1582471   -0.3176936 
C    -5.7278950   -4.3177573   -0.2800166 
H    -5.5587347    1.6448305   -2.8576191 
H    -5.9192079    0.2507836   -1.8482040 
C    -5.9482308   -0.1677268   -3.9661633 
C    -5.3710849    3.8406809   -0.3429523 
H    -5.1765424    4.1743595    1.7862567 
H    -5.7056300    2.5531021    1.3587457 
C    -7.0029872    0.6355164    4.6320162 
H    -4.9068695    0.6196156    5.1394755 
H    -5.2695968    1.4703667    3.6444023 
C    -6.8485095    4.2287947   -0.5147538 
H    -4.7472190    4.7043093   -0.6025309 
H    -5.1204295    3.0505893   -1.0643778 
C    -7.4704892   -0.0156555   -4.1155203 
H    -5.4632996    0.2006057   -4.8782962 
H    -5.6987819   -1.2363516   -3.8904898 
C    -7.2123824   -4.4557742   -0.6540323 
H    -5.1659452   -5.1417949   -0.7367280 
H    -5.6189714   -4.4318921    0.8087589 
H    -7.5333002   -5.4858144   -0.4542957 
C    -8.1323006   -3.4910296    0.1039763 
H    -7.3276956   -4.3010239   -1.7357912 
H    -7.1444664    1.4579511    5.3444541 
C    -7.9563008    0.8349181    3.4478900 
H    -7.2684999   -0.2863029    5.1675205 
H    -6.9723071    4.7231627   -1.4865967 
C    -7.8161266    3.0418904   -0.4351691 
H    -7.1158469    4.9744971    0.2465125 
H    -7.7734063   -0.4315580   -5.0845892 
C    -8.2726650   -0.7049250   -3.0054378 
H    -7.7250563    1.0527950   -4.1450546 
H    -8.9968785    0.8905093    3.7844095 
H    -7.7260349    1.7672446    2.9188993 
H    -7.8870026    0.0146042    2.7253571 
H    -8.8507489    3.3677730   -0.5855043 
H    -7.5834426    2.2986862   -1.2060274 
H    -7.7672834    2.5401733    0.5366864 
H    -9.3493383   -0.6072624   -3.1795063 
H    -8.0352009   -1.7743461   -2.9606381 
H    -8.0594218   -0.2750728   -2.0210952 
H    -9.1813420   -3.6574485   -0.1622761 
H    -8.0338695   -3.6308544    1.1873108 
H    -7.8993127   -2.4450802   -0.1205074 
C     2.1058087    0.1878946   -0.6325298 
C     3.2760831    0.0887564    1.3969739 
C     4.6091656   -0.0222347    0.6730520 
C     3.3983825    0.1014266   -1.4293677 
N     4.4044273   -0.6382014   -0.6468666 
O     2.3312586    0.8422569    0.6247860 
H     5.2902431   -0.6212436   -1.1513070 
H     5.2989867   -0.6412226    1.2551289 
H     3.2225964   -0.4391173   -2.3648429 
H     1.3571536    0.7834106   -1.1577238 
H     3.3915410    0.6248692    2.3402318 
H     3.7289409    1.1249964   -1.6747507 
H     5.0502686    0.9851898    0.5890449 
H     2.8676071   -0.9149001    1.5922958 
H     1.7001842   -0.8192911   -0.4496857 

13_di.wfx

