%nprocs=4
%mem=4GB
#p pbepbe aug-cc-pvtz output=wfx scf=(conver=6) int=(grid=ultrafine)

title

0 1
C    -0.3671609    1.3606226    3.0696109 
C     0.7309208    1.9917092    3.6726853 
C     1.3428653    3.1081707    3.1169139 
C     0.8280190    3.6124217    1.9310892 
C    -0.2822297    3.0546499    1.2822347 
C    -0.8307834    1.9041790    1.8660054 
O     1.4534378    4.7453876    1.3492318 
C     2.6317152    4.4797518    0.7125172 
N     3.7269072    4.2755102    1.4355498 
C     4.8182211    4.0099912    0.7122745 
C     4.8185525    3.9577775   -0.6753141 
N     3.7283397    4.1672633   -1.4173326 
C     2.6330806    4.4254992   -0.7118964 
C     6.1951090    3.5952979   -1.1440397 
N     6.9434101    3.4418499    0.0376145 
C     6.1942835    3.6780652    1.2063138 
C     8.3250528    2.9428961    0.0529504 
C     8.3605074    1.4288013    0.0708886 
C     8.3296068    0.7354840    1.2855372 
C     8.3172954   -0.6569625    1.3023843 
C     8.3348189   -1.3797695    0.1045940 
C     8.3592300   -0.6866332   -1.1102532 
C     8.3726471    0.7061672   -1.1267696 
O     6.6259724    3.6078284    2.3385385 
O     6.6280039    3.4501156   -2.2688824 
O     1.4585690    4.6490273   -1.3663816 
C     0.8320052    3.4979380   -1.9060805 
C     1.3356952    2.9500768   -3.0765792 
C     0.6985104    1.8316460   -3.5989210 
C    -0.4219974    1.2503651   -2.9864547 
C    -0.8890449    1.8531087   -1.8130099 
C    -0.2945251    2.9883383   -1.2473223 
O     1.2028999    1.4899266    4.8955414 
C     2.4081443    0.8200866    4.8649253 
N     3.5185719    1.4969594    4.8287902 
C     4.6866876    0.7816389    4.8475890 
C     4.6633632   -0.6483268    4.8968492 
N     3.4725982   -1.3256047    4.9211947 
C     2.3843029   -0.6127090    4.9089746 
C     5.8783178   -1.3665532    4.9213339 
C     7.0738542   -0.6780521    4.9134279 
C     7.0966711    0.7346457    4.8652302 
C     5.9241446    1.4607278    4.8238370 
O     1.1566199   -1.2408767    4.9676603 
C     0.6742029   -1.7743145    3.7612727 
C     1.2808921   -2.9095437    3.2356824 
C     0.7738618   -3.4334194    2.0555559 
C    -0.3255662   -2.8794956    1.3857566 
C    -0.8677022   -1.7100446    1.9369324 
C    -0.4118311   -1.1434505    3.1346445 
O     1.3894616   -4.5819616    1.4938662 
C     2.5651362   -4.3484931    0.8407637 
N     3.6604542   -4.1095365    1.5537242 
C     4.7549269   -3.8877827    0.8217650 
C     4.7591641   -3.9066641   -0.5666120 
N     3.6696383   -4.1505150   -1.2984909 
C     2.5706231   -4.3705486   -0.5856329 
C     6.1334180   -3.5476315    1.3026944 
N     6.8858880   -3.3711702    0.1262608 
C     6.1394049   -3.5769929   -1.0493942 
C     8.2746900   -2.8931101    0.1233295 
C    -0.9667746    0.1361850    3.7519288 
C    -2.4964729    0.2107347    4.0162053 
C    -3.5023132   -0.0570211    2.8942299 
C    -4.9652958    0.0882331    3.3438285 
C    -0.8275036   -3.5518380    0.1132716 
C    -2.3503666   -3.8701004    0.0334685 
C    -3.3790675   -2.7785839    0.3489130 
C    -4.8016024   -3.1110142   -0.1225453 
O     6.5764054   -3.4915101   -2.1784788 
O     1.4016323   -4.6256245   -1.2426990 
C     0.7876868   -3.4879435   -1.8267345 
C     1.2605830   -3.0186606   -3.0428787 
C     0.6394284   -1.9077948   -3.6049607 
C    -0.4231567   -1.2442071   -2.9736826 
C    -0.8353822   -1.7491872   -1.7346089 
C    -0.2865174   -2.8956700   -1.1513280 
O     6.5654008   -3.4355204    2.4314998 
O     1.0952696   -1.4360280   -4.8476817 
C     2.3296321   -0.8154888   -4.8153885 
N     3.4132747   -1.5348610   -4.8284866 
C     4.6075220   -0.8632129   -4.7970555 
C     4.6380750    0.5666586   -4.7407527 
N     3.4735827    1.2886204   -4.7303192 
C     2.3610193    0.6157614   -4.7724070 
C     5.8787887    1.2384582   -4.6956660 
C     7.0476478    0.5056235   -4.7202680 
C     7.0179393   -0.9065477   -4.7744318 
C     5.8187088   -1.5877780   -4.8062311 
C    -1.0284691    0.0003260   -3.6150991 
C    -2.5750921    0.0166471   -3.7869589 
C    -3.5026329   -0.3599017   -2.6252498 
C    -4.9909901   -0.1787471   -2.9612677 
O     1.1548778    1.2810792   -4.8049692 
C    -0.8062349    3.6977439    0.0021001 
C    -2.3241373    4.0384823   -0.0346832 
C    -3.3797632    2.9912402    0.3407766 
C    -4.8150608    3.4550842    0.0440443 
H     2.2041338    3.5615877    3.5912938 
H     5.9213362    2.5432103    4.7620878 
H     8.0504795    1.2544499    4.8566686 
H     8.0100689   -1.2282954    4.9389380 
H     5.8406122   -2.4498746    4.9324764 
H     2.1359920   -3.3567274    3.7268011 
H    -1.6623495   -1.2093832    1.4009746 
H     2.0983507   -3.4917560   -3.5397483 
H    -1.6118981   -1.2223601   -1.1975008 
H     5.7751264   -2.6709312   -4.8204473 
H     7.9509901   -1.4625282   -4.7827838 
H     8.0039729    1.0200618   -4.6925929 
H     5.8817603    2.3206040   -4.6278548 
H    -1.7467257    1.4182540   -1.3159520 
H     2.2036574    3.3728125   -3.5665174 
H     8.8122662    3.3375263   -0.8413833 
H     8.7972132    3.3591567    0.9454594 
H     8.3001672    1.2898844    2.2188078 
H     8.2782257   -1.1881735    2.2487108 
H     8.3519552   -1.2409084   -2.0442050 
H     8.3761003    1.2385446   -2.0730269 
H     8.7501961   -3.3168891   -0.7638837 
H     8.7460556   -3.2946006    1.0231077 
H    -1.6437396    1.4053168    1.3553423 
H    -0.5371650    0.1584711    4.7534834 
H    -0.3563152   -4.5346835    0.1216575 
H    -0.6460885    0.0006250   -4.6364597 
H    -0.3210238    4.6737230   -0.0307526 
H    -2.6741859    1.2062259    4.4400871 
H    -2.7069506   -0.5063811    4.8212805 
H    -2.5185299    4.4036726   -1.0495856 
H    -2.4706655    4.8972817    0.6333984 
H    -2.8365809    1.0251582   -4.1342239 
H    -2.7949986   -0.6605004   -4.6205485 
H    -2.5259364   -4.2438771   -0.9842819 
H    -2.5313601   -4.7164123    0.7062652 
H    -3.3332515    0.6088584    2.0399452 
H    -3.3649220   -1.0780257    2.5331912 
H    -3.0892147   -1.8253625   -0.1046202 
H    -3.4026305   -2.6150372    1.4309818 
H    -3.2757841    0.2399317   -1.7349886 
H    -3.3414440   -1.4070738   -2.3501878 
H    -3.2133277    2.0451679   -0.1901568 
H    -3.2995783    2.7708251    1.4098457 
C    -5.3757625    1.5151027    3.7284989 
H    -5.1499355   -0.5817461    4.1961150 
H    -5.6067013   -0.2678198    2.5279769 
H    -4.7934928   -3.3026454   -1.2049552 
H    -5.4248461   -2.2212582    0.0288030 
C    -5.4394709   -4.3041886    0.5985694 
H    -5.1651187    0.8428692   -3.3265780 
H    -5.5642491   -0.2778957   -2.0318393 
C    -5.5250734   -1.1800308   -3.9928937 
C    -5.1265636    3.6093952   -1.4501124 
H    -5.0057330    4.4087282    0.5568826 
H    -5.5047494    2.7247037    0.4838796 
C    -6.8682542    1.6552295    4.0685260 
H    -4.7844401    1.8468694    4.5904242 
H    -5.1297526    2.1976151    2.9027632 
C    -6.6015950    3.9245782   -1.7470505 
H    -4.5040945    4.4057414   -1.8753196 
H    -4.8438115    2.6843781   -1.9714594 
C    -7.0400849   -1.0694278   -4.2277902 
H    -5.0061486   -1.0359893   -4.9482562 
H    -5.2858918   -2.2004385   -3.6592541 
C    -6.9124531   -4.5309040    0.2222092 
H    -4.8690417   -5.2145504    0.3767404 
H    -5.3658795   -4.1471894    1.6850501 
H    -7.2468813   -5.4806425    0.6580124 
C    -7.8485708   -3.4102633    0.6908039 
H    -6.9927998   -4.6462566   -0.8676213 
H    -7.0429756    2.6528600    4.4906210 
C    -7.7986611    1.4546940    2.8665030 
H    -7.1262779    0.9361613    4.8581026 
H    -6.6979394    4.1933283   -2.8065740 
C    -7.5589469    2.7666973   -1.4402020 
H    -6.9022003    4.8132732   -1.1752161 
H    -7.3120228   -1.7057295   -5.0792760 
C    -7.8852861   -1.4740740   -3.0141817 
H    -7.2858434   -0.0394688   -4.5213141 
H    -8.8471113    1.5877554    3.1531332 
H    -7.5733967    2.1816558    2.0772245 
H    -7.6993653    0.4524948    2.4358689 
H    -8.5913883    3.0341729   -1.6885827 
H    -7.2933383    1.8778992   -2.0235288 
H    -7.5370676    2.4887252   -0.3813735 
H    -8.9541952   -1.4332141   -3.2483196 
H    -7.6491198   -2.4973554   -2.6994358 
H    -7.7117781   -0.8141195   -2.1577426 
H    -8.8903897   -3.6389364    0.4430699 
H    -7.7824549   -3.2779804    1.7775749 
H    -7.6033540   -2.4517712    0.2218184 

13_m1.wfx

