%nprocs=4
%mem=4GB
#p pbepbe aug-cc-pvtz output=wfx scf=(conver=6) int=(grid=ultrafine)

title

0 1
C    -0.4823250    0.7832581    3.2700502 
C     0.6355855    1.2909955    3.9486606 
C     1.2555633    2.4778563    3.5761809 
C     0.7254399    3.1854353    2.5051454 
C    -0.4096205    2.7591797    1.8012553 
C    -0.9590832    1.5296140    2.1869251 
O     1.3536282    4.3914832    2.1093305 
C     2.5046989    4.2313932    1.3855049 
N     3.6278682    3.9230653    2.0262129 
C     4.6911632    3.7872072    1.2322500 
C     4.6377749    3.9452501   -0.1460105 
N     3.5226640    4.2603229   -0.8041055 
C     2.4543467    4.4042982   -0.0260768 
C     5.9867396    3.6327910   -0.7164446 
N     6.7835849    3.3230699    0.3984630 
C     6.0755914    3.3625789    1.6130287 
C     8.1485216    2.7961911    0.2790214 
C     8.1451144    1.3048906    0.0159219 
C     7.9495447    0.4052268    1.0699888 
C     7.9021611   -0.9632036    0.8285596 
C     8.0474768   -1.4594333   -0.4729640 
C     8.2389792   -0.5616758   -1.5259698 
C     8.2881078    0.8105000   -1.2825884 
O     6.5375317    3.0871189    2.7022559 
O     6.3671046    3.6217567   -1.8700932 
O     1.2627040    4.7433343   -0.5974179 
C     0.5926885    3.7170403   -1.3041737 
C     1.0252499    3.3830213   -2.5791181 
C     0.3267996    2.3965679   -3.2648018 
C    -0.7786272    1.7318571   -2.7131383 
C    -1.1721272    2.1177547   -1.4269623 
C    -0.5208498    3.1208766   -0.6986804 
O     1.1294326    0.5773191    5.0545175 
C     2.3233050   -0.0865850    4.8669616 
N     3.4413271    0.5760149    4.9386386 
C     4.6016017   -0.1323638    4.7704723 
C     4.5631782   -1.5391084    4.5118486 
N     3.3664713   -2.2012381    4.4386188 
C     2.2850500   -1.4991996    4.6177968 
C     5.7690980   -2.2485882    4.3246583 
C     6.9710306   -1.5760657    4.4084873 
C     7.0087460   -0.1857091    4.6632650 
C     5.8442886    0.5341160    4.8353783 
O     1.0566593   -2.1233816    4.5950593 
C     0.5278922   -2.4298638    3.3284555 
C     1.0941268   -3.4597586    2.5864983 
C     0.5294472   -3.7632749    1.3554385 
C    -0.5842147   -3.0874830    0.8396061 
C    -1.0790286   -2.0242352    1.6071670 
C    -0.5692422   -1.6857378    2.8673927 
O     1.0972762   -4.8042160    0.5795949 
C     2.2520410   -4.4708000   -0.0698209 
N     3.3766278   -4.3874022    0.6289377 
C     4.4393448   -4.0238525   -0.0919916 
C     4.3863488   -3.7699084   -1.4554705 
N     3.2689476   -3.8767211   -2.1786437 
C     2.1990898   -4.2252316   -1.4738615 
C     5.8383961   -3.7918629    0.3876531 
N     6.5478558   -3.3940014   -0.7611719 
C     5.7494644   -3.3570326   -1.9206765 
C     7.9466801   -2.9474830   -0.7339880 
C    -1.0822774   -0.5390998    3.7316955 
C    -2.6012998   -0.5073915    4.0565121 
C    -3.6471743   -0.4523141    2.9401401 
C    -5.0912701   -0.4020343    3.4657034 
C    -1.1573369   -3.5274659   -0.5031756 
C    -2.6880217   -3.8129964   -0.5536850 
C    -3.6786153   -2.7809416   -0.0021854 
C    -5.1278721   -3.0087280   -0.4541713 
O     6.1429309   -3.0478636   -3.0268681 
O     1.0016617   -4.3587054   -2.1157157 
C     0.3729259   -3.1399065   -2.4733087 
C     0.8056518   -2.4660063   -3.6057072 
C     0.1777191   -1.2697770   -3.9379948 
C    -0.8476085   -0.7202064   -3.1554330 
C    -1.2224577   -1.4372566   -2.0134733 
C    -0.6693495   -2.6718620   -1.6652827 
O     6.3148531   -3.9011917    1.4995796 
O     0.5860995   -0.5916070   -5.1024976 
C     1.8312870   -0.0026723   -5.0253823 
N     2.8996969   -0.7214483   -5.2150538 
C     4.1088184   -0.0855604   -5.0969581 
C     4.1715763    1.3074539   -4.7740404 
N     3.0232689    2.0334738   -4.5989238 
C     1.8957373    1.3968486   -4.7252826 
C     5.4263453    1.9329641   -4.6115542 
C     6.5787293    1.1916765   -4.7751269 
C     6.5175621   -0.1832928   -5.0956418 
C     5.3036581   -0.8197181   -5.2530879 
C    -1.4479475    0.6307507   -3.5294567 
C    -2.9993209    0.7039989   -3.6225147 
C    -3.8869622    0.1569909   -2.4977805 
C    -5.3834782    0.4138171   -2.7341906 
O     0.7059217    2.0721475   -4.5766877 
C    -0.9623198    3.6198107    0.6718167 
C    -2.4700656    3.9956205    0.7580909 
C    -3.5330504    2.9228231    1.0185595 
C    -4.9695067    3.4501104    0.8729808 
H     2.1347697    2.8322804    4.0997378 
H     5.8516132    1.6053431    5.0033722 
H     7.9670657    0.3226687    4.7162590 
H     7.9010688   -2.1195953    4.2696090 
H     5.7191231   -3.3085489    4.1028377 
H     1.9601121   -3.9964081    2.9528379 
H    -1.8815100   -1.4257556    1.1992294 
H     1.6163362   -2.8509437   -4.2115342 
H    -1.9622883   -1.0038117   -1.3554054 
H     5.2368705   -1.8804222   -5.4661162 
H     7.4371819   -0.7501043   -5.2059194 
H     7.5453107    1.6696986   -4.6467615 
H     5.4536513    2.9811214   -4.3356131 
H    -2.0177132    1.6167390   -0.9734344 
H     1.8807631    3.8712910   -3.0282229 
H     8.6286641    3.3363315   -0.5397433 
H     8.6523486    3.0296665    1.2197646 
H     7.8194156    0.7823884    2.0798632 
H     7.7389246   -1.6537655    1.6503717 
H     8.3313443   -0.9379121   -2.5408030 
H     8.4190419    1.5052800   -2.1069161 
H     8.3792706   -3.2055267   -1.7028867 
H     8.4397210   -3.5205308    0.0548925 
H    -1.7834348    1.1321243    1.6103661 
H    -0.6229656   -0.7116390    4.7050098 
H    -0.7033137   -4.5017777   -0.6847119 
H    -1.1122823    0.8118871   -4.5511291 
H    -0.4501185    4.5758868    0.7823418 
H    -2.7399328    0.3493111    4.7269057 
H    -2.8056710   -1.4032207    4.6587080 
H    -2.6976257    4.5166702   -0.1788071 
H    -2.5640765    4.7438086    1.5560519 
H    -3.2495325    1.7609077   -3.7853822 
H    -3.2714785    0.1794756   -4.5459496 
H    -2.9227345   -4.0046344   -1.6092699 
H    -2.8507437   -4.7600395   -0.0260810 
H    -3.4866604    0.4156867    2.2923519 
H    -3.5511272   -1.3401474    2.3127732 
H    -3.3911092   -1.7670976   -0.2980788 
H    -3.6478580   -2.8085179    1.0922661 
H    -3.6102370    0.5988908   -1.5325511 
H    -3.7401518   -0.9236542   -2.4053786 
H    -3.4150592    2.0688723    0.3387617 
H    -3.4053492    2.5365187    2.0347462 
C    -5.4472818    0.8850418    4.2206342 
H    -5.2703628   -1.2664569    4.1214461 
H    -5.7669108   -0.5202644    2.6094177 
H    -5.1722443   -3.0089665   -1.5526294 
H    -5.7254235   -2.1512996   -0.1212522 
C    -5.7565028   -4.3015006    0.0785730 
H    -5.5506551    1.4840474   -2.9188310 
H    -5.9200161    0.1705796   -1.8092720 
C    -5.9806077   -0.3957086   -3.8919636 
C    -5.3482502    3.8433770   -0.5605826 
H    -5.1124906    4.3135442    1.5384340 
H    -5.6539444    2.6700508    1.2272976 
C    -6.9254667    0.9672561    4.6342530 
H    -4.8241543    0.9668900    5.1192896 
H    -5.2007757    1.7528279    3.5923228 
C    -6.8290207    4.2195380   -0.7304324 
H    -4.7303391    4.6890543   -0.8854346 
H    -5.1092674    3.0091081   -1.2346388 
C    -7.5022290   -0.2312390   -4.0347933 
H    -5.5014283   -0.0996969   -4.8330210 
H    -5.7454819   -1.4599840   -3.7441164 
C    -7.2468907   -4.4464548   -0.2685716 
H    -5.2107688   -5.1657273   -0.3198327 
H    -5.6366583   -4.3340177    1.1717325 
H    -7.5794179   -5.4535911    0.0123838 
C    -8.1455937   -3.4138128    0.4226208 
H    -7.3720912   -4.3728145   -1.3577816 
H    -7.0570877    1.8221768    5.3093790 
C    -7.8915106    1.1142903    3.4528182 
H    -7.1869228    0.0719537    5.2148200 
H    -6.9700801    4.6531394   -1.7285489 
C    -7.7933569    3.0392785   -0.5617140 
H    -7.0844327    5.0105567   -0.0120157 
H    -7.8228062   -0.7071529   -4.9699750 
C    -8.3011637   -0.8313822   -2.8718465 
H    -7.7416196    0.8365456   -4.1341282 
H    -8.9275511    1.1941976    3.7982966 
H    -7.6614123    2.0174748    2.8753563 
H    -7.8365527    0.2585006    2.7713656 
H    -8.8309580    3.3553185   -0.7124855 
H    -7.5737398    2.2512081   -1.2906165 
H    -7.7262277    2.5969504    0.4375038 
H    -9.3782412   -0.7257517   -3.0386533 
H    -8.0817039   -1.8996730   -2.7596069 
H    -8.0671925   -0.3417863   -1.9206758 
H    -9.1995740   -3.5851567    0.1800054 
H    -8.0374273   -3.4720434    1.5124715 
H    -7.9010897   -2.3913857    0.1166571 
C     3.9724940    0.2637745    1.2506914 
C     4.5619233    0.1761645   -1.0615140 
C     3.1529416   -0.0298849   -1.5949468 
C     2.4753323    0.0752705    1.0593999 
S     2.1005123   -0.9312180   -0.4108726 
O     4.5765025    0.9479544    0.1457172 
H     2.0440923   -0.4670801    1.9039160 
H     3.1755733   -0.6482081   -2.4959076 
H     2.6905102    0.9323306   -1.8336845 
H     1.9690700    1.0415653    0.9767179 
H     4.4665748   -0.7084080    1.3963977 
H     5.0490765   -0.7912307   -0.8759578 
H     5.1617951    0.7417617   -1.7793186 
H     4.1651532    0.8949647    2.1224111 

14_di.wfx

