%nprocs=4
%mem=4GB
#p pbepbe aug-cc-pvtz output=wfx scf=(conver=6) int=(grid=ultrafine)

title

0 1
C     0.6835573    1.1839560    0.0265070 
C     1.4207174    0.0000000    0.0211459 
C     0.6835573   -1.1839560    0.0265070 
C    -0.7103587   -1.2303773    0.0211459 
C    -1.3671147    0.0000000    0.0265070 
C    -0.7103587    1.2303773    0.0211459 
C    -1.4523010    2.5154591    0.0123679 
C    -1.7982062    3.1145845    1.2231033 
C    -2.4943910    4.3204120    1.2744753 
C    -2.8566168    4.9478054    0.0858596 
C    -2.5206768    4.3659403   -1.1364692 
C    -1.8248707    3.1607687   -1.1799870 
C    -1.4523010   -2.5154591    0.0123679 
C    -1.8248707   -3.1607687   -1.1799870 
C    -2.5206768   -4.3659403   -1.1364692 
C    -2.8566168   -4.9478054    0.0858596 
C    -2.4943910   -4.3204120    1.2744753 
C    -1.7982062   -3.1145845    1.2231033 
C     2.9046020    0.0000000    0.0123679 
C     3.6497414    0.0000000   -1.1799870 
C     5.0413536    0.0000000   -1.1364692 
C     5.7132335    0.0000000    0.0858596 
C     4.9887820    0.0000000    1.2744753 
C     3.5964124    0.0000000    1.2231033 
F     1.3569201    2.3502545    0.0224356 
F    -2.7138401    0.0000000    0.0224356 
F     1.3569201   -2.3502545    0.0224356 
F    -1.4583622    2.5259573    2.3845097 
F    -2.8144566    4.8747818    2.4503327 
F    -3.5257909    6.1068490    0.1201420 
F    -2.8878318    5.0018714   -2.2604281 
F    -2.8878318   -5.0018714   -2.2604281 
F    -3.5257909   -6.1068490    0.1201420 
F    -2.8144566   -4.8747818    2.4503327 
F    -1.4583622   -2.5259573    2.3845097 
F     5.7756636    0.0000000   -2.2604281 
F     7.0515818    0.0000000    0.1201420 
F     5.6289132    0.0000000    2.4503327 
F     2.9167243    0.0000000    2.3845097 
I    -1.3490845    2.3366829   -3.0439945 
I    -1.3490845   -2.3366829   -3.0439945 
I     2.6981690    0.0000000   -3.0439945 

16_m1.wfx

