%nprocs=4
%mem=4GB
#p pbepbe aug-cc-pvtz output=wfx scf=(conver=6) int=(grid=ultrafine)

title

0 1
C    -1.2782207   -0.6764592    0.1207431 
C     1.2782207    0.6764592    0.1207431 
N     1.1488616   -0.7468123   -0.1752307 
N    -1.1488616    0.7468123   -0.1752307 
C    -0.0017720    1.4743821   -0.0984328 
C     0.0017720   -1.4743821   -0.0984328 
O     0.0322154    2.6955513   -0.1967600 
O    -0.0322154   -2.6955513   -0.1967600 
H    -1.9956837    1.2960407   -0.2803640 
H     1.9956837   -1.2960407   -0.2803640 
H    -2.0374294   -1.1161788   -0.5301832 
H     2.0374294    1.1161788   -0.5301832 
H    -1.5968291   -0.8437275    1.1602276 
H     1.5968291    0.8437275    1.1602276 

17_m2.wfx

