%nprocs=4
%mem=4GB
#p pbepbe aug-cc-pvtz output=wfx scf=(conver=6) int=(grid=ultrafine)

title

0 1
C    -4.7731951    1.1245301    0.3857274 
C    -5.4261469    1.0750301   -1.0073750 
C    -5.7297600   -0.3789239   -1.3560467 
C    -6.5835067   -1.0257758   -0.2738953 
C    -5.9432064   -0.8361448    1.1088954 
O    -5.7197738    0.5503589    1.3298224 
O    -4.5521370    1.5461473   -2.0386154 
C    -4.7933658    2.8416820   -2.5772980 
C    -4.5579026    2.7521192   -4.0928702 
C    -3.0646529    2.5732505   -4.3962750 
C    -2.2366987    3.5835270   -3.5952309 
C    -2.5564677    3.4772865   -2.1058393 
O    -3.9608022    3.8099986   -1.9579514 
O    -0.8566087    3.2684722   -3.8536498 
C    -0.0324976    4.3124864   -4.3139277 
C     0.9029096    3.7499557   -5.3868015 
C     1.8612677    2.7566444   -4.7563324 
C     2.5906463    3.3984138   -3.5799468 
C     1.5698324    3.9176475   -2.5606521 
O     0.7362875    4.8883585   -3.2615181 
O     3.4170077    2.3460017   -3.0514018 
C     4.7520415    2.6530898   -2.7425665 
C     5.6215778    1.4649986   -3.1792861 
C     5.3293626    0.2425726   -2.3193998 
C     5.4408853    0.5939198   -0.8389426 
C     4.4961448    1.7689298   -0.5347430 
O     4.9366542    2.8898891   -1.3561118 
O     5.0880536   -0.5938924   -0.1228159 
C     5.9105109   -0.9730474    0.9745461 
C     6.0729143   -2.4987006    0.9081859 
C     4.7443766   -3.1778314    1.2525016 
C     4.1635450   -2.5822497    2.5387118 
C     4.0109369   -1.0660053    2.4135117 
O     5.3507250   -0.5438927    2.2043180 
O     2.8975824   -3.2465539    2.7320564 
C     2.6379110   -3.7900761    4.0014299 
C     1.9319943   -5.1399830    3.8111946 
C     0.5571223   -4.9324318    3.1919821 
C    -0.2484312   -3.9207462    4.0006237 
C     0.5582680   -2.6176554    4.1217801 
O     1.8103596   -2.9418437    4.7888505 
O    -1.4746531   -3.7298850    3.2866369 
C    -2.6873228   -3.7768727    4.0288329 
O    -3.1351914   -2.4730244    4.3583710 
C    -3.3409102   -1.6392203    3.1862269 
C    -4.4666974   -2.2919978    2.3823665 
C    -4.0865310   -3.7108837    1.9499993 
C    -3.7055666   -4.5464133    3.1753921 
C    -3.6061293   -0.2153713    3.6973272 
O    -2.6070265    0.7188462    3.2742960 
O    -3.2140534   -5.8394783    2.8644155 
O    -5.1871651   -4.3264102    1.2876387 
O    -4.7506826   -1.5788576    1.1595829 
O    -0.1813638   -6.1591615    3.1583956 
O     2.6620480   -6.0189577    2.9296943 
C    -0.0977966   -1.4813975    4.9208389 
O    -0.2277548   -0.2757451    4.1597278 
O     4.9640471   -4.5755408    1.4204853 
O     6.6102770   -2.8824683   -0.3468755 
C     3.4201179   -0.3262457    3.6223994 
O     2.2595276    0.4404904    3.2805657 
O     6.2605063   -0.8098704   -2.5976333 
O     5.3721349    1.0903315   -4.5534614 
C     4.4714299    2.2647313    0.9181854 
O     3.1484325    2.3070241    1.4618952 
O     2.7768859    2.3345127   -5.7723593 
O     0.1089513    3.1507190   -6.4166322 
C     2.1482847    4.6405685   -1.3339832 
O     1.7153010    4.0976660   -0.0777347 
O    -2.8552365    2.7572372   -5.7890927 
O    -5.3870127    1.7465764   -4.6544772 
C    -1.7541756    4.3891212   -1.1739865 
O    -1.0709162    3.6440353   -0.1458176 
O    -6.4042318   -0.3992735   -2.6182348 
O    -6.7224726   -2.4184973   -0.6249576 
C    -4.4026997    2.5150662    0.9210195 
O    -3.0452736    2.5951676    1.3748371 
H     3.3050718   -6.5216915    3.4536587 
H     0.3619752   -6.7962359    2.6639547 
H     6.2064891   -2.3111221   -1.0316563 
H     4.1021018   -4.9601489    1.6762323 
H     5.9783521    1.5876449   -5.1239790 
H     6.1749865   -1.0141883   -3.5441425 
H     0.7119846    2.5972221   -6.9421696 
H     3.4277858    1.7461570   -5.3383799 
H    -5.3993146    0.9911939   -4.0329533 
H    -1.8900300    2.7102757   -5.9488783 
H    -7.5664228   -2.7453437   -0.2761057 
H    -6.6115811   -1.3305033   -2.8061402 
H    -2.2499443   -5.7663792    2.7104660 
H    -5.4315359   -3.7322967    0.5502345 
H     3.5666914   -3.8989949    4.5740618 
H     1.8103948   -5.6092431    4.7953290 
H     0.6825457   -4.5373831    2.1739040 
H    -0.4609146   -4.3255773    5.0001437 
H     0.7782888   -2.2491666    3.1149675 
H     6.8849187   -0.4784299    0.9034047 
H     6.8090033   -2.7948999    1.6649286 
H     4.0265976   -2.9926362    0.4384963 
H     4.8261790   -2.8168300    3.3835449 
H     3.3950858   -0.8381917    1.5367324 
H     5.0621046    3.5808990   -3.2394337 
H     6.6758553    1.7391420   -3.0520097 
H     4.3025451   -0.0973255   -2.5151992 
H     6.4758478    0.8757830   -0.5985983 
H     3.4758698    1.4919548   -0.8237277 
H    -0.6367323    5.1344151   -4.7120874 
H     1.4810259    4.5886526   -5.8018036 
H     1.2897267    1.8987798   -4.3741488 
H     3.2281798    4.2210755   -3.9347025 
H     0.9588629    3.0709903   -2.2293164 
H    -5.8216809    3.1521564   -2.3644889 
H    -4.8764645    3.7006860   -4.5405815 
H    -2.7553140    1.5629955   -4.0816363 
H    -2.4538195    4.6007817   -3.9490645 
H    -2.4040439    2.4411034   -1.7840162 
H    -6.6249290   -1.1477742    1.9093899 
H    -7.5670107   -0.5397313   -0.2661735 
H    -4.7749524   -0.9198184   -1.4268642 
H    -6.3544168    1.6635702   -1.0103672 
H    -3.8692387    0.5060450    0.3672904 
H    -2.5245078   -4.2844249    4.9854493 
H    -4.6103572   -4.6939359    3.7770023 
H    -3.2167229   -3.6428512    1.2781432 
H    -5.3787315   -2.3318884    2.9946804 
H    -2.4251835   -1.6313116    2.5841883 
H     5.0386914    1.5955494    1.5659735 
H     4.9316299    3.2608752    0.9442205 
H     2.5951842    2.9227963    0.9150248 
H     3.0963678   -1.0305169    4.3904206 
H     4.2007640    0.3208513    4.0418707 
H     2.5151172    1.1414013    2.6249017 
H    -1.1110108   -1.7523626    5.2216391 
H     0.5064030   -1.3070067    5.8203022 
H     0.6668196    0.0310183    3.8553668 
H    -4.5521075    0.1686825    3.3126017 
H    -3.6577466   -0.2529121    4.7928743 
H    -1.7181918    0.4111841    3.5954928 
H     3.2367473    4.5634631   -1.3143167 
H     1.8704759    5.7001271   -1.4054054 
H    -4.4970001    3.2676365    0.1379363 
H    -5.0933053    2.7593027    1.7379420 
H    -2.8852972    1.9299314    2.0984444 
H    -0.9784655    4.9200739   -1.7276898 
H    -2.4336466    5.1200180   -0.7212939 
H    -1.7556457    3.2917285    0.4894126 
H     0.7321886    4.0359429   -0.0472141 
C    -1.0430391   -0.5741558   -0.2304692 
C     0.5691841   -0.9037818   -1.9740891 
C    -0.4076541    0.1392197   -1.4320533 
C     0.1250435   -1.3602727    0.4134987 
C     1.1933937   -1.5305459   -0.7068209 
O     0.3826463    1.2639337   -1.0110637 
H    -0.2122180    1.9555563   -0.6518648 
H     0.5425323   -0.7983204    1.2517899 
H     1.3077341   -0.4531781   -2.6440788 
H    -1.8227867   -1.2580124   -0.5904238 
H    -1.1467975    0.4561007   -2.1813197 
H     1.4652967   -2.5787974   -0.8641150 
H     0.0066787   -1.6542776   -2.5419743 
H     2.1082003   -0.9955536   -0.4389035 
H    -0.2169057   -2.3232647    0.8041488 
H    -1.5147462    0.1282883    0.4631272 

19_di.wfx

