%nprocs=4
%mem=4GB
#p pbepbe aug-cc-pvtz output=wfx scf=(conver=6) int=(grid=ultrafine)

title

0 1
C    -0.4407515   -0.9627316    0.6257361 
C     0.4247897    0.4090690   -1.1852510 
C    -0.8485878   -0.3105532   -0.7033214 
C     0.4801587    0.0908745    1.2587386 
C     1.3345581    0.5718502    0.0666207 
O    -1.8452469    0.7165246   -0.4939468 
H    -2.6230667    0.2925229   -0.0970894 
H    -0.1280775    0.9159412    1.6436236 
H     0.1416722    1.3687532   -1.6253612 
H     0.1198059   -1.8848369    0.4186427 
H    -1.2228411   -1.0381885   -1.4366970 
H     2.2240959   -0.0606692   -0.0315822 
H     0.9232145   -0.1771318   -1.9633938 
H     1.6828005    1.6004639    0.1951197 
H     1.0827926   -0.3011346    2.0836436 
H    -1.3053167   -1.2307537    1.2445179 

19_m2.wfx

