%nprocs=4
%mem=4GB
#p pbepbe aug-cc-pvtz output=wfx scf=(conver=6) int=(grid=ultrafine)

title

0 1
C     0.0026889   -1.0756890   -1.3460692 
C    -1.2138964    0.9891456   -0.6203691 
C     1.2912598    0.9237235   -0.5622051 
C    -1.3037977   -1.0762093    0.8025650 
C     1.2076887   -1.1416498    0.8602321 
C    -0.0126324    0.9331837    1.5871041 
C     0.0425739    0.4541950   -1.3242407 
C    -0.0442980   -1.6114999    0.0972435 
C    -1.2661584    0.4626683    0.8271571 
C     1.2486418    0.3971539    0.8856487 
O     0.0858000    0.8775149   -2.7030480 
H     0.1124697    1.8488817   -2.7073190 
H    -0.0723085   -2.7078406    0.0746216 
H    -2.1658775    0.8468016    1.3239379 
H     2.1430743    0.7345545    1.4241968 
H    -0.8791210   -1.4022247   -1.9107015 
H     0.8905250   -1.4491218   -1.8707473 
H     2.1856675    0.5605357   -1.0830128 
H    -2.1009208    0.6725923   -1.1826590 
H    -1.3533508   -1.4654983    1.8279340 
H     1.1903015   -1.5324390    1.8860564 
H    -0.0461167    0.5732460    2.6237652 
H     2.1116691   -1.5330833    0.3756580 
H    -2.2039361   -1.4213905    0.2772443 
H    -1.1927672    2.0888906   -0.6223055 
H     1.3276616    2.0231178   -0.5640463 
H     0.0151596    2.0304411    1.6233588 

21_m2.wfx

