%nprocs=4
%mem=4GB
#p pbepbe aug-cc-pvtz output=wfx scf=(conver=6) int=(grid=ultrafine)

title

0 1
C     1.3918147   -7.2167242    0.0000000 
C    -5.5579825    4.8087325    0.0000000 
C    -4.6466396    2.8513915    1.2599633 
C    -4.6466396    2.8513915   -1.2599633 
C     0.1504430   -5.4502201   -1.2600317 
C     0.1504430   -5.4502201    1.2600317 
C    -4.4654755    3.7274302    0.0000000 
C     0.9999955   -5.7303703    0.0000000 
C     2.9582182    1.7097343    0.0000000 
C     4.1674056   -0.2572780    0.0000000 
C     1.8579269    3.7396298    0.0000000 
C    -0.6329532    3.9553533    0.0000000 
C     3.1104716   -2.5231633    0.0000000 
C     0.5502167    3.1102664    0.0000000 
C     2.9690493   -1.0760538    0.0000000 
C     4.4276306   -3.0426267    0.0000000 
C    -0.4254950    5.3559771    0.0000000 
C     2.2217471   -4.8048928    0.0000000 
C    -3.0536956    4.3241808    0.0000000 
C     1.7074260    0.9869638    0.0000000 
C    -1.9500354    3.4712954    0.0000000 
C     2.0336111   -3.4228197    0.0000000 
C     5.5308874   -2.1172878    0.0000000 
C     0.9271711    5.8498161    0.0000000 
C     0.5119271    1.7261991    0.0000000 
C     1.7508583   -0.4179439    0.0000000 
C     3.5422239   -5.2981300    0.0000000 
C    -2.8218976    5.7146147    0.0000000 
C     4.6238551   -4.4327876    0.0000000 
C    -1.5321436    6.2199525    0.0000000 
N     4.1501730    1.0721717    0.0000000 
N     3.0011784    3.0608388    0.0000000 
N     5.4371068   -0.8207821    0.0000000 
N     2.0036725    5.1211345    0.0000000 
H    -2.1182547    2.3987368    0.0000000 
H     1.0202193   -3.0333036    0.0000000 
H     3.7211240   -6.3673028    0.0000000 
H    -3.6590430    6.4033182    0.0000000 
H    -0.4348186    1.1909934    0.0000000 
H     0.8142578   -0.9708418    0.0000000 
H     5.6386068   -4.8240789    0.0000000 
H    -1.3647058    7.2945651    0.0000000 
H     1.0717229    6.9330131    0.0000000 
H     6.5415769   -2.5329405    0.0000000 
H    -6.5421300    4.3287610    0.0000000 
H     0.4848487   -7.8302640    0.0000000 
H    -0.1935603   -4.4115945    1.2879589 
H    -0.1935603   -4.4115945   -1.2879589 
H    -3.9179760    2.0351552    1.2881945 
H    -3.9179760    2.0351552   -1.2881945 
H    -5.4964828    5.4456477    0.8890152 
H    -5.4964828    5.4456477   -0.8890152 
H     1.9744514   -7.4812370   -0.8890515 
H     1.9744514   -7.4812370    0.8890515 
H     0.7299714   -5.6402939   -2.1693062 
H     0.7299714   -5.6402939    2.1693062 
H    -4.5225423    3.4484839    2.1692867 
H    -4.5225423    3.4484839   -2.1692867 
H    -5.6502347    2.4112480    1.2687276 
H    -5.6502347    2.4112480   -1.2687276 
H    -0.7315766   -6.1006242    1.2690875 
H    -0.7315766   -6.1006242   -1.2690875 

23_m1.wfx

