%nprocs=4
%mem=4GB
#p pbepbe aug-cc-pvtz output=wfx scf=(conver=6) int=(grid=ultrafine)

title

2 1
O    -4.3713971   -0.0525243   -2.9881928 
O    -2.7700351    3.2969804   -3.1081301 
O     0.8594787    4.0067362   -3.1270946 
O     3.8659890    1.8290939   -3.2617553 
O     3.7019329   -1.8761861   -3.0638441 
O     0.8988611   -4.3300891   -3.0662893 
O    -2.6889705   -3.3462850   -2.9133187 
O    -4.2315391    0.0528854    3.1790800 
O    -2.5535529    3.3473824    3.0305093 
O     1.0382370    4.3294164    3.0227679 
O     3.8367579    1.8763678    2.8956060 
O     4.0071910   -1.8313538    3.0861315 
O     0.9973048   -4.0075302    3.0862748 
O    -2.6325756   -3.2958806    3.2291782 
N    -5.1671011   -1.1355650   -1.0899330 
N    -5.1793203    1.1010135   -1.1347967 
N    -4.1257556    3.3017623   -1.2139990 
N    -2.3706409    4.6849562   -1.2833700 
N     0.0143397    5.1920385   -1.3134166 
N     2.1966286    4.6904352   -1.3501681 
N     4.1434915    3.2216306   -1.4161846 
N     5.1091841    1.2070414   -1.3934571 
N     5.0557373   -1.2295867   -1.2875786 
N     4.0802269   -3.2451106   -1.2226266 
N     2.2054578   -4.8054759   -1.1992324 
N     0.0283928   -5.3072684   -1.1409599 
N    -2.3384129   -4.7149095   -1.0644032 
N    -4.0907551   -3.3225367   -1.0570918 
N    -5.1246492   -1.0992299    1.3643260 
N    -5.1108045    1.1373866    1.3188164 
N    -4.0370766    3.3245692    1.2390362 
N    -2.2853496    4.7157649    1.1676424 
N     0.0827673    5.3066907    1.1382441 
N     2.2605249    4.8061675    1.0997035 
N     4.1333407    3.2443028    1.0388203 
N     5.1085825    1.2276666    1.0603745 
N     5.1651694   -1.2092001    1.1638454 
N     4.2005386   -3.2234745    1.2294674 
N     2.2525509   -4.6922882    1.2511538 
N     0.0699690   -5.1902201    1.3112720 
N    -2.3137644   -4.6828699    1.3878632 
N    -4.0714625   -3.3013563    1.3975237 
C    -5.8403188   -0.7814968    0.1437595 
C    -5.8396608    0.7843510    0.1168366 
C    -2.9992219   -3.7435541   -1.8022030 
C    -1.3032139   -5.5414749   -1.6591773 
C    -4.2502333    4.0667489    0.0114518 
C    -3.0234083    5.0376992   -0.0394101 
C     1.0274084   -4.7567067   -1.9324159 
C     3.4783893   -4.4416136   -1.7839026 
C     0.5296408    5.8510023   -0.1290415 
C     2.0553781    5.5005031   -0.1553970 
C     4.2144328   -2.0890398   -1.9779455 
C     5.6041066   -0.0447969   -1.9240265 
C     4.9101557    3.2324564   -0.1869852 
C     5.5894992    1.8218499   -0.1728313 
C     4.3131816    2.0560207   -2.1519366 
C     5.5904112   -1.8242259   -0.0770198 
C     4.9112933   -3.2343356   -0.0329049 
C    -5.1164826   -2.4762254   -1.6353318 
C    -4.8440784   -0.0303788   -1.8650420 
C     2.0568991   -5.5009911    0.0632097 
C     0.5313163   -5.8505883    0.1055306 
C    -5.1526445    2.4212851   -1.7350361 
C    -3.0522406    3.7074517   -1.9958326 
C    -3.0216534   -5.0363215    0.1746185 
C    -4.2496444   -4.0655267    0.1783531 
C    -1.2954339    5.4465845   -1.8827631 
C     1.0055969    4.5594290   -2.0504462 
C    -5.0733086   -2.4195240    1.9629945 
C    -4.7547528    0.0315979    2.0785537 
C     3.4712142    4.3765194   -1.9712660 
C    -2.9637502   -3.7062238    2.1304744 
C    -1.2130439   -5.4446362    1.9387706 
C    -5.0355457    2.4777357    1.8622660 
C    -2.9129192    3.7448117    1.9343637 
C     1.0941899   -4.5598020    2.0038458 
C     3.5540196   -4.3786069    1.8140284 
C    -1.2241420    5.5416805    1.7155761 
C     1.1162058    4.7564106    1.8844336 
C     4.4037327   -2.0581139    1.9571663 
C     5.6837809    0.0424435    1.6719566 
C     3.5583370    4.4415002    1.6262800 
C     4.3001568    2.0882698    1.7876771 
H    -6.8469303   -1.2203911    0.1683162 
H     5.4372336    0.0769923    2.7360273 
H     3.4216330    4.2437592    2.6922931 
H     4.2566563    5.2760783    1.4790804 
H     6.7725987    0.0674800    1.5312918 
H     4.2067072   -5.2544401    1.7013813 
H    -1.4943068    6.5973983    1.5809089 
H    -1.1461130    5.3015274    2.7787517 
H     3.4013637   -4.1517793    2.8720143 
H    -1.4399595   -6.5159696    1.8575230 
H    -6.0177720    2.9596027    1.7685195 
H    -4.7591721    2.3779876    2.9147228 
H    -1.1209415   -5.1537476    2.9879642 
H     3.2707586    4.1492318   -3.0211594 
H    -4.8158324   -2.2812645    3.0159558 
H    -6.0599546   -2.8919378    1.8691203 
H     4.1284112    5.2523392   -1.8887414 
H    -5.2192906   -4.5811966    0.1896734 
H    -1.5183918    6.5179113   -1.7915143 
H    -3.3000169   -6.0987517    0.1893535 
H    -1.2503816    5.1556348   -2.9350174 
H     0.3281919   -6.9286004    0.1615347 
H    -6.1335652    2.8950277   -1.5978965 
H     2.7111631   -6.3829455    0.0929528 
H    -4.9418311    2.2828046   -2.7982798 
H     5.6257407   -4.0680000   -0.0625993 
H    -6.0933799   -2.9580685   -1.4969116 
H     6.6868416   -1.8653871   -0.1276524 
H    -4.8879309   -2.3771670   -2.6992361 
H     6.6871117    1.8621956   -0.1708382 
H     5.3108703   -0.0791528   -2.9761866 
H     5.6258187    4.0655882   -0.1896643 
H     6.6980312   -0.0705248   -1.8314430 
H     2.7081505    6.3819763   -0.2156051 
H     4.1820793   -5.2767037   -1.6688755 
H     0.3249150    6.9291941   -0.1748116 
H     3.2936017   -4.2433586   -2.8425617 
H    -3.3022639    6.1000943   -0.0411934 
H    -1.2726495   -5.3014231   -2.7248009 
H    -5.2194874    4.5823489    0.0424493 
H    -1.5677572   -6.5970032   -1.5124808 
H    -6.8456574    1.2248479    0.1377277 
C     0.0163389   -1.4468549   -0.2292178 
C    -1.2302971    0.7137685   -0.2605636 
C     0.0291536    1.4467134    0.2283648 
C     1.2732822   -0.7105604    0.2669812 
C     1.2609666    0.7084866   -0.3246687 
C    -1.2183458   -0.7118899    0.3165311 
C     0.0692047    0.0686589    2.3171704 
C    -0.0364918   -0.0687913   -2.3177400 
C     1.2231100    0.6735198   -1.8623947 
C    -1.1941570   -0.6578138    1.8504098 
C     0.0092289   -1.4962676   -1.7657447 
C     0.0919948    1.4960886    1.7636350 
C    -1.2762509    0.6594177   -1.7939429 
C     1.3058133   -0.6751873    1.8047801 
C    -1.4639604   -0.5285400   -4.3838042 
C     1.1111129    1.0957710    4.4093290 
C     0.9055568   -1.0998513   -4.4546481 
C    -1.2611144    0.5330426    4.4464404 
C     0.2140938    1.2376812   -4.4950016 
C     0.4138660   -1.2391155    4.4807560 
N     0.0838562    0.1144472    3.9005841 
N    -0.0939622   -0.1147030   -3.9001585 
H     0.0208725   -2.4761170    0.1500995 
H     0.0181197    2.4760337   -0.1507050 
H     2.1678056    1.2408823   -0.0144913 
H    -2.1288417   -1.2374361    0.0013265 
H    -2.1246743    1.2408520    0.0956250 
H     2.1641506   -1.2446004   -0.0840891 
H    -0.8420643   -2.0831019   -2.1216795 
H     1.0195560    1.9921941    2.0577773 
H    -1.3241961    1.6717598   -2.2025715 
H     1.3224643   -1.7007931    2.1797278 
H     2.1180775    0.1744312   -2.2441982 
H    -2.0869389   -0.1340733    2.1970339 
H    -1.2246746   -1.6701160    2.2605015 
H     1.2234222    1.6992349   -2.2373597 
H    -0.7412630    2.0843337    2.1578095 
H     0.9215946   -1.9939574   -2.1017917 
H     2.2178970   -0.1767828    2.1448268 
H    -2.1847775    0.1369121   -2.0991132 
H    -1.7716611   -1.4424213   -3.8773427 
H     0.7930955    2.1097252    4.1726685 
H    -0.4248095    1.9918611   -4.0395711 
H     1.4538576   -1.4795930    4.2685742 
H     1.8908135   -0.8922916   -4.0426815 
H    -1.9822871   -0.2659759    4.2887014 
H     2.0760356    0.8841574    3.9538006 
H    -2.1741594    0.2732103   -4.1936251 
H    -1.5882788    1.4483596    3.9551348 
H     0.5943584   -2.1126284   -4.2042522 
H    -0.2479940   -1.9908718    4.0551266 
H     1.2635977    1.4743569   -4.3306402 
H    -1.3803148   -0.7085558   -5.4566242 
H     1.1697388    0.9632674    5.4907543 
H     0.9163730   -0.9671352   -5.5375594 
H    -1.1278338    0.7118978    5.5144487 
H     0.0066609    1.1704978   -5.5640103 
H     0.2558461   -1.1712602    5.5581532 

24_di.wfx

