%nprocs=4
%mem=4GB
#p pbepbe aug-cc-pvtz output=wfx scf=(conver=6) int=(grid=ultrafine)

title

4 1
N    -0.5300773    1.2266619    8.3848384 
N     2.8113063    4.6580682   -6.4918890 
C    -3.0388126   -4.6183471    7.9841542 
H    -2.4889930   -5.4566571    8.4154916 
H    -4.1059444   -4.7750375    8.1505415 
C    -2.5581099   -3.2877966    8.5212713 
C    -1.3277669   -3.1880725    9.1756698 
H    -0.7475076   -4.0816854    9.3903633 
C    -0.8419152   -1.9420770    9.5759358 
H     0.1101972   -1.8822359   10.0967593 
C    -1.5815426   -0.7834888    9.3256850 
C    -2.8381413   -0.8905688    8.7153090 
H    -3.4502881   -0.0057880    8.5605802 
C    -3.3217517   -2.1310797    8.3166632 
H    -4.3043237   -2.1964422    7.8563612 
C    -1.0115132    0.5794885    9.6534472 
H    -1.7552647    1.2503502   10.0868695 
H    -0.1590886    0.5145295   10.3318827 
C     0.6168984    0.7836887    7.8088341 
H     1.1900380    0.0641463    8.3810062 
C     0.9943915    1.2109230    6.5580443 
H     1.9036821    0.8059095    6.1312067 
C     0.1887698    2.1114420    5.8282203 
C    -0.9616785    2.5948031    6.4864467 
H    -1.5955537    3.3437004    6.0266552 
C    -1.2977237    2.1429911    7.7435581 
H    -2.1742949    2.4917146    8.2766920 
C     0.5180948    2.4951441    4.4553478 
C     1.8416396    2.4398905    3.9777476 
H     2.6563197    2.1890933    4.6499394 
C     2.1356217    2.7667490    2.6641118 
H     3.1716824    2.7634661    2.3425090 
C     1.1211320    3.1454147    1.7642279 
C    -0.1985656    3.2056878    2.2461743 
H    -1.0096775    3.4613643    1.5738229 
C    -0.4934423    2.8963497    3.5637304 
H    -1.5287385    2.9169464    3.8875214 
C     1.4312695    3.4687030    0.3591746 
C     2.5618415    2.9233340   -0.2747375 
H     3.1999752    2.2291635    0.2603183 
C     2.8540553    3.2204228   -1.5955919 
H     3.7133073    2.7491323   -2.0609819 
C     2.0176764    4.0650208   -2.3481824 
C     0.8869846    4.6163937   -1.7151104 
H     0.2485861    5.3156147   -2.2461821 
C     0.6066426    4.3305018   -0.3888767 
H    -0.2431558    4.8122756    0.0829352 
C     2.3032160    4.3285868   -3.7586540 
C     3.6062931    4.2293817   -4.2904536 
H     4.4588409    4.0418722   -3.6486443 
C     3.8324654    4.3921656   -5.6393453 
H     4.8194251    4.3212002   -6.0809981 
C     1.5527264    4.8207076   -6.0090127 
H     0.7870737    5.0459255   -6.7415737 
C     1.2811708    4.6716569   -4.6697780 
H     0.2557257    4.7846407   -4.3399872 
N     0.5349678   -1.2283249   -8.3774294 
N    -2.8217815   -4.6541996    6.4970477 
C     3.0286280    4.6226909   -7.9789592 
H     2.4768751    5.4597635   -8.4102254 
H     4.0953640    4.7818897   -8.1453806 
C     2.5512949    3.2908913   -8.5160148 
C     1.3177227    3.1864734   -9.1636187 
H     0.7321289    4.0777304   -9.3735736 
C     0.8355866    1.9389745   -9.5634100 
H    -0.1190175    1.8755943  -10.0792268 
C     1.5822539    0.7834379   -9.3197689 
C     2.8419348    0.8954423   -8.7167550 
H     3.4595731    0.0134983   -8.5678078 
C     3.3219466    2.1376272   -8.3185779 
H     4.3071530    2.2068716   -7.8645413 
C     1.0165572   -0.5816554   -9.6462072 
H     1.7629940   -1.2508516  -10.0775232 
H     0.1648457   -0.5204266  -10.3258790 
C    -0.6182495   -0.7935269   -7.8076999 
H    -1.1959373   -0.0818118   -8.3850403 
C    -0.9970443   -1.2195425   -6.5568852 
H    -1.9120546   -0.8211443   -6.1359543 
C    -0.1870254   -2.1107455   -5.8204986 
C     0.9700257   -2.5866122   -6.4727033 
H     1.6079485   -3.3293396   -6.0085867 
C     1.3075781   -2.1359688   -7.7297196 
H     2.1891912   -2.4791655   -8.2580847 
C    -0.5192054   -2.4940952   -4.4482246 
C    -1.8448345   -2.4453196   -3.9754769 
H    -2.6584499   -2.1989089   -4.6505384 
C    -2.1422807   -2.7732660   -2.6628937 
H    -3.1794391   -2.7747110   -2.3447786 
C    -1.1293305   -3.1475025   -1.7594325 
C     0.1923186   -3.2021853   -2.2365687 
H     1.0014581   -3.4551158   -1.5607789 
C     0.4907840   -2.8906502   -3.5527149 
H     1.5274007   -2.9063360   -3.8725399 
C    -1.4419678   -3.4714772   -0.3551919 
C    -2.5748619   -2.9286059    0.2767219 
H    -3.2146179   -2.2371392   -0.2600378 
C    -2.8676309   -3.2251036    1.5976522 
H    -3.7289642   -2.7559198    2.0613901 
C    -2.0296850   -4.0664947    2.3521609 
C    -0.8977793   -4.6168494    1.7203965 
H    -0.2587897   -5.3148561    2.2523271 
C    -0.6168370   -4.3316470    0.3942626 
H     0.2339392   -4.8123977   -0.0768338 
C    -2.3148726   -4.3280251    3.7630281 
C    -3.6179243   -4.2301114    4.2950917 
H    -4.4711316   -4.0447207    3.6535250 
C    -3.8435253   -4.3912821    5.6443059 
H    -4.8305553   -4.3214552    6.0860032 
C    -1.5628879   -4.8146841    6.0142286 
H    -0.7965814   -5.0376282    6.7468232 
C    -1.2919595   -4.6674746    4.6747059 
H    -0.2662918   -4.7785954    4.3448324 
C     0.2209985    0.4979406   -1.8366445 
C    -0.2016996   -0.4984491    1.8161441 
C    -0.3668889    0.3104765   -0.5251541 
C     0.3864253   -0.3109135    0.5046908 
C     1.5567624    0.0533679   -2.0739913 
C    -1.5374130   -0.0534574    2.0533932 
C     2.1427801    0.2318616   -3.3501846 
C    -2.1234798   -0.2313367    3.3295630 
C     0.4890780   -1.1095141    2.8907144 
C    -0.4702146    1.1084677   -2.9112050 
C    -1.6977720    0.7394490   -0.2393161 
C     1.7176021   -0.7391678    0.2188100 
C    -2.2599895    0.5658538    0.9937789 
C     2.2797657   -0.5655164   -1.0143922 
C     0.1226125    1.2715115   -4.1489056 
C    -0.1041293   -1.2724715    4.1283329 
C     1.4413190    0.8313047   -4.3757335 
C    -1.4223175   -0.8311973    4.3551464 
H    -2.2854624    1.2162336   -1.0153979 
H     2.3054016   -1.2158485    0.9949043 
H    -1.4865192    1.4595955   -2.7727709 
H     1.5053178   -1.4609912    2.7526464 
H    -3.2762105    0.9031410    1.1817818 
H     3.2963272   -0.9019402   -1.2020468 
H    -3.1421337    0.1164159    3.4849090 
H     3.1616758   -0.1151283   -3.5057387 
H     0.4542997   -1.7459377    4.9312657 
H    -0.4360594    1.7442550   -4.9520551 
H     1.8987453    0.9644534   -5.3526789 
H    -1.8809559   -0.9634158    5.3316653 

26_di.wfx

