%nprocs=4
%mem=4GB
#p pbepbe aug-cc-pvtz output=wfx scf=(conver=6) int=(grid=ultrafine)

title

4 1
N    -0.2399916    1.2711683    8.3288500 
N     2.5319546    5.0077295   -6.2941332 
C    -2.6120854   -4.8235857    7.7824162 
H    -2.0268476   -5.6238507    8.2390985 
H    -3.6601547   -4.9648054    8.0541173 
C    -2.1015677   -3.4590531    8.1989801 
C    -0.9175014   -3.3419040    8.9307704 
H    -0.3592849   -4.2301999    9.2143062 
C    -0.4586809   -2.0865849    9.3374285 
H     0.4491811   -2.0182344    9.9308669 
C    -1.1782933   -0.9328928    9.0174384 
C    -2.3697799   -1.0521348    8.2882273 
H    -2.9635257   -0.1714507    8.0571717 
C    -2.8261855   -2.3010224    7.8835535 
H    -3.7674434   -2.3712167    7.3443719 
C    -0.6940118    0.4251919    9.4835325 
H    -1.4843000    0.9871949    9.9852720 
H     0.1509921    0.3327714   10.1682689 
C     0.9422728    0.9925593    7.7218273 
H     1.5332593    0.2023274    8.1693206 
C     1.3355667    1.6675899    6.5898045 
H     2.2763968    1.3901722    6.1291982 
C     0.5083185    2.6556328    6.0118671 
C    -0.6832671    2.9560571    6.7053670 
H    -1.3410102    3.7495159    6.3702769 
C    -1.0309293    2.2613300    7.8435924 
H    -1.9351778    2.4698063    8.4031375 
C     0.8492265    3.2823128    4.7314149 
C     2.1844247    3.3859792    4.2942361 
H     3.0003843    3.1238459    4.9609784 
C     2.4813151    3.8599659    3.0254000 
H     3.5211248    3.9554636    2.7299399 
C     1.4587635    4.2303265    2.1304829 
C     0.1301355    4.1814233    2.5917896 
H    -0.6832750    4.4539247    1.9274248 
C    -0.1692932    3.7253465    3.8663555 
H    -1.2104205    3.6521951    4.1652079 
C     1.7494243    4.5807676    0.7250345 
C     2.8552273    4.0142063    0.0642302 
H     3.5293938    3.3573345    0.6040005 
C     3.0662470    4.2257337   -1.2896350 
H     3.9005466    3.7274383   -1.7736557 
C     2.1687412    5.0026118   -2.0466049 
C     1.0942832    5.6193128   -1.3758656 
H     0.4244262    6.2849896   -1.9117886 
C     0.8968582    5.4203681   -0.0178157 
H     0.0772035    5.9332635    0.4748875 
C     2.3134895    5.0872274   -3.5028063 
C     3.5599761    4.9381228   -4.1471742 
H     4.4793642    4.8667692   -3.5778436 
C     3.6430793    4.9017247   -5.5223429 
H     4.5838464    4.7935597   -6.0491338 
C     1.3220610    5.2104607   -5.7118900 
H     0.4785166    5.3027121   -6.3856226 
C     1.1926614    5.2647349   -4.3436274 
H     0.2014258    5.4031133   -3.9282178 
N     0.2401468   -1.2713963   -8.3289868 
N    -2.5315976   -5.0075202    6.2940795 
C     2.6125276    4.8234319   -7.7823583 
H     2.0275828    5.6237138   -8.2393984 
H     3.6606757    4.9642530   -8.0540082 
C     2.1016689    3.4589138   -8.1985852 
C     0.9194691    3.3420985   -8.9333919 
H     0.3625317    4.2305837   -9.2188402 
C     0.4606211    2.0867569   -9.3400415 
H    -0.4460025    2.0185459   -9.9353838 
C     1.1783732    0.9327847   -9.0170087 
C     2.3678498    1.0516585   -8.2844352 
H     2.9598324    0.1706045   -8.0502814 
C     2.8242648    2.3005259   -7.8797790 
H     3.7637665    2.3703591   -7.3374971 
C     0.6944050   -0.4253120   -9.4834183 
H     1.4849564   -0.9871556   -9.9849430 
H    -0.1503314   -0.3328739  -10.1684925 
C    -0.9415598   -0.9918032   -7.7212999 
H    -1.5318229   -0.2006509   -8.1681248 
C    -1.3350362   -1.6669317   -6.5894189 
H    -2.2752874   -1.3886700   -6.1281441 
C    -0.5084688   -2.6560036   -6.0122218 
C     0.6824771   -2.9573647   -6.7063762 
H     1.3397424   -3.7514119   -6.3717348 
C     1.0303189   -2.2625318   -7.8445028 
H     1.9341426   -2.4715985   -8.4045168 
C    -0.8495278   -3.2828397   -4.7318859 
C    -2.1846731   -3.3851290   -4.2942021 
H    -3.0005897   -3.1220935   -4.9606402 
C    -2.4815823   -3.8588831   -3.0252888 
H    -3.5213818   -3.9530611   -2.7293636 
C    -1.4590920   -4.2303420   -2.1307629 
C    -0.1305612   -4.1826052   -2.5924924 
H     0.6828253   -4.4555645   -1.9282886 
C     0.1688638   -3.7267941   -3.8671589 
H     1.2099658   -3.6545771   -4.1663356 
C    -1.7496742   -4.5805704   -0.7252459 
C    -2.8547872   -4.0129995   -0.0641665 
H    -3.5287044   -3.3558001   -0.6038529 
C    -3.0656090   -4.2242564    1.2897663 
H    -3.8992594   -3.7251243    1.7740381 
C    -2.1686038   -5.0019467    2.0465091 
C    -1.0950008   -5.6197913    1.3754665 
H    -0.4256964   -6.2861938    1.9111786 
C    -0.8977465   -5.4210410    0.0173589 
H    -0.0788996   -5.9349395   -0.4756390 
C    -2.3133158   -5.0867515    3.5027049 
C    -3.5596206   -4.9363481    4.1471663 
H    -4.4789601   -4.8641191    3.5778736 
C    -3.6426339   -4.9001530    5.5223281 
H    -4.5832970   -4.7912274    6.0491444 
C    -1.3219744   -5.2114856    5.7117456 
H    -0.4785094   -5.3050513    6.3853932 
C    -1.1926662   -5.2655715    4.3434494 
H    -0.2015957   -5.4050920    3.9280238 

26_m1.wfx

