&control
 title='crystal',
 prefix='crystal',
 pseudo_dir='.',
 calculation='vc-relax',
/
&system
 ibrav=0,
 celldm(1)=1.0,
 nat=    60,
 ntyp=  4,
 ecutwfc=60.0,
 ecutrho=600.0,
 xdm=.true.,
 xdm_a1=0.4073,
 xdm_a2=2.4150,
/
&electrons
 conv_thr = 1d-8,
/
&ions
/
&cell
/
ATOMIC_SPECIES
h      1.007940 h.UPF
c     12.010700 c.UPF
n     14.006700 n.UPF
o     15.999400 o.UPF

ATOMIC_POSITIONS crystal
o     0.32158782     0.90746481     0.10333562
o     0.82158783     0.59253517     0.89666437
o     0.17841354     0.09252861     0.60338223
o     0.67841355     0.40747136     0.39661776
o     0.23082198     0.74900806     0.90694262
o     0.73082199     0.75099191     0.09305737
o     0.26913997     0.25098102     0.40700856
o     0.76913998     0.24901895     0.59299143
o     0.93344107     0.82578676     0.33496934
o     0.43344108     0.67421322     0.66503064
o     0.56657995     0.17421979     0.83495180
o     0.06657995     0.32578018     0.16504819
n     0.22414919     0.64595724     0.14630454
n     0.72414920     0.85404273     0.85369545
n     0.27581084     0.35405681     0.64636518
n     0.77581085     0.14594316     0.35363481
c     0.25600448     0.76200574     0.04172003
c     0.75600448     0.73799424     0.95827996
c     0.24397076     0.23798796     0.54175425
c     0.74397077     0.26201202     0.45824574
c     0.26244690     0.70693282     0.29495101
c     0.76244691     0.79306715     0.70504898
c     0.23755953     0.29307340     0.79501097
c     0.73755953     0.20692657     0.20498902
c     0.35304098     0.87982569     0.26088295
c     0.85304099     0.62017428     0.73911704
c     0.14694170     0.12018600     0.76092093
c     0.64694171     0.37981397     0.23907906
c     0.07853321     0.71423693     0.39083451
c     0.57853322     0.78576305     0.60916548
c     0.42150863     0.28576926     0.89085597
c     0.92150864     0.21423071     0.10914402
h     0.15838513     0.53210899     0.12647649
h     0.65838514     0.96789099     0.87352350
h     0.34158654     0.46788961     0.62652304
h     0.84158655     0.03211036     0.37347695
h     0.36833892     0.62518988     0.35107679
h     0.86833893     0.87481009     0.64892320
h     0.13168766     0.37481781     0.85116354
h     0.63168767     0.12518216     0.14883645
h     0.28341036     0.98269282     0.32057500
h     0.78341036     0.51730716     0.67942499
h     0.21654075     0.01731942     0.82062238
h     0.71654076     0.48268055     0.17937761
h     0.51120247     0.88068167     0.27913034
h     0.01120248     0.61931830     0.72086965
h     0.98877782     0.11935715     0.77916020
h     0.48877783     0.38064282     0.22083979
h     0.01784741     0.58733956     0.40382211
h     0.51784741     0.91266042     0.59617788
h     0.48219713     0.41266844     0.90383827
h     0.98219714     0.08733153     0.09616172
h     0.12205145     0.76073144     0.49983746
h     0.62205146     0.73926853     0.50016253
h     0.37803157     0.23927692     0.99986451
h     0.87803158     0.26072306     0.00013548
h     0.87472371     0.78126938     0.24288932
h     0.37472372     0.71873059     0.75711067
h     0.62526862     0.21873270     0.74286035
h     0.12526863     0.28126727     0.25713964

K_POINTS automatic
2 2 2 1 1 1

CELL_PARAMETERS cubic
   12.902508000000     0.000000000000     0.000000000000
    0.000000000000    15.092431000000    -0.000438000000
    0.000000000000    -0.000479000000    17.131208000000
