&control
 title='crystal',
 prefix='crystal',
 pseudo_dir='../..',
 forc_conv_thr=1.0D-4,
 etot_conv_thr=1.0D-5,
/
&system
 ibrav=0,
 nat=    58,
 ntyp=  3,
 ecutwfc=80.0,
 ecutrho=800.0,
 vdw_corr='xdm',
 nosym=.true.,
/
&electrons
 conv_thr = 1d-10,
/
&ions
/
&cell
 press_conv_thr=0.01,
/
ATOMIC_SPECIES
C    12.010700 c.UPF
O    15.999400 o.UPF
H     1.007940 h.UPF

ATOMIC_POSITIONS crystal
C             0.9001726396        0.9377495621        0.6967318506
C             0.8795772751        0.8094808015        0.4983207071
C             0.7900333050        0.8244160056        0.3059293872
C             0.7645068002        0.6862695544        0.0964439192
C             0.7184574236        0.9685481436        0.3116694226
C             0.7332037501        0.0997954151        0.5012272414
C             0.6494301408        0.2524301558        0.5032376063
C             0.7364160242        0.4114420619        0.5152344738
C             0.5406192210        0.2262611041        0.2884475323
C             0.5797875225        0.2785905025        0.7059443633
C             0.8289914000        0.0819034458        0.6897466689
C             0.9475781491        0.2235097276        0.0653237132
C             0.9880489666        0.9315859326        0.9085247165
C             0.0989006725        0.0615596608        0.3039647839
C             0.1195007470        0.1898295704        0.5023702488
C             0.2090413027        0.1748894782        0.6947683242
C             0.2345530573        0.3130249192        0.9042652568
C             0.2806153371        0.0307552806        0.6890242543
C             0.2658701475        0.8995109613        0.4994658350
C             0.3496419350        0.7468719485        0.4974527696
C             0.2626545508        0.5878622198        0.4854566971
C             0.4584522677        0.7730444091        0.7122432755
C             0.4192843429        0.7207219316        0.2947476504
C             0.1700862712        0.9174081802        0.3109412979
C             0.0514871839        0.7757941154        0.9353778645
C             0.0110111090        0.0677157013        0.0921780376
O             0.8528980078        0.2148900154        0.8721778237
O             0.9688617281        0.3596883419        0.1961051707
O             0.1461874872        0.7844271215        0.1285017894
O             0.0301922937        0.6396082882        0.8046146475
H             0.9336694279        0.6977372414        0.4982114960
H             0.7596776090        0.7358500122        0.9429203236
H             0.6689162960        0.6177685621        0.0781720169
H             0.8399457645        0.5951515577        0.1021733926
H             0.6475614459        0.9762110377        0.1594999684
H             0.8151467261        0.4396738759        0.6665324889
H             0.7821451646        0.3983911642        0.3673721979
H             0.6759663160        0.5200554600        0.5184001162
H             0.5803017693        0.2118838373        0.1339567418
H             0.4726607478        0.1168790313        0.2727873701
H             0.4824268734        0.3366817813        0.2971218993
H             0.5211417486        0.1644444948        0.7044947950
H             0.6494242194        0.3150890242        0.8678660582
H             0.5117163800        0.3785438745        0.6937375290
H             0.0654129482        0.3015770144        0.5024785099
H             0.2393969873        0.2634245361        0.0577770314
H             0.3301288955        0.3815632906        0.9225471224
H             0.1590965676        0.4041212898        0.8985521198
H             0.3515125429        0.0230949279        0.8411961381
H             0.1839174807        0.5596389137        0.3341672198
H             0.2169339458        0.6009105319        0.6333286931
H             0.3231001636        0.4792448543        0.4822746565
H             0.4187651829        0.7874165954        0.8667285322
H             0.5264024444        0.8824340435        0.7279028695
H             0.5166554091        0.6626328180        0.7035788664
H             0.4779219700        0.8348785747        0.2962150560
H             0.3496457599        0.6842307765        0.1328269929
H             0.4873617341        0.6207737926        0.3069373385

K_POINTS automatic
3 3 4  1 1 1

CELL_PARAMETERS bohr
  19.599110769   0.011756368   0.047876630
  -0.422702119  15.412162831   0.013681164
  -2.297164490  -2.480299503  11.149648843
