## FHIaims input file generated by critic2.
lattice_vector 3.5099999937       0.0000000000       0.0000000000       
lattice_vector -1.7550000031      3.0397491655       0.0000000000       
lattice_vector 0.0000000000       0.0000000000       6.7030000000       
atom_frac  0.3333334300       0.6666667100       0.2313516300       Se
atom_frac  0.6666668500       0.3333334300       0.7686483700       Se
atom_frac  0.0000000000       0.0000000000       0.0000000000       Ta
