&control
 title='crystal',
 prefix='crystal',
 pseudo_dir='.',
 calculation='vc-relax',
/
&system
 ibrav=0,
 celldm(1)=1.0,
 nat=    32,
 ntyp=  3,
 ecutwfc=60.0,
 ecutrho=600.0,
 xdm=.true.,
 xdm_a1=0.4073,
 xdm_a2=2.4150,
/
&electrons
 conv_thr = 1d-8,
/
&ions
/
&cell
/
ATOMIC_SPECIES
h      1.007940 h.UPF
c     12.010700 c.UPF
o     15.999400 o.UPF

ATOMIC_POSITIONS crystal
h     0.17394897     0.10289221     0.51098345
h     0.82593779     0.89696137     0.01094548
h     0.32592713     0.60310428     0.01096345
h     0.67398292     0.39706751     0.51101326
o     0.11056222     0.92124589     0.27845186
o     0.88946196     0.07879646     0.77865081
o     0.38943901     0.42121974     0.77871456
o     0.61056140     0.57874463     0.27851862
h     0.04578090     0.25516778     0.08627235
h     0.95446973     0.74503477     0.58631624
h     0.45449421     0.75494045     0.58629924
h     0.54572936     0.24485804     0.08630590
h     0.17684223     0.43612882     0.49181021
h     0.82293749     0.56371321     0.99142769
h     0.32295156     0.93630831     0.99138280
h     0.67688014     0.06381661     0.49178404
h     0.10049727     0.57621546     0.26662495
h     0.89948835     0.42384284     0.76623426
h     0.39950972     0.07616830     0.76618849
h     0.60049052     0.92377842     0.26658622
c     0.12945477     0.08446585     0.35118290
c     0.87054546     0.91551806     0.85122729
c     0.37054344     0.58450873     0.85125347
c     0.62945250     0.41551348     0.35122459
c     0.09499745     0.26564237     0.24206207
c     0.90509617     0.73443365     0.74201007
c     0.40511453     0.76557298     0.74198989
c     0.59498786     0.23435157     0.24208375
c     0.12429638     0.43536864     0.33677906
c     0.87565279     0.56461982     0.83649695
c     0.37566446     0.93538858     0.83645122
c     0.62430097     0.06461129     0.33676465

K_POINTS automatic
2 2 2 1 1 1

CELL_PARAMETERS cubic
   13.278616000000    -0.000668000000     0.021102000000
   -0.000050000000    13.005568000000     0.000067000000
   -0.023906000000     0.000328000000    12.516108000000
