&control
 title='crystal',
 prefix='crystal',
 pseudo_dir='.',
 calculation='vc-relax',
/
&system
 ibrav=0,
 celldm(1)=1.0,
 nat=    16,
 ntyp=  3,
 ecutwfc=60.0,
 ecutrho=600.0,
 xdm=.true.,
 xdm_a1=0.4073,
 xdm_a2=2.4150,
/
&electrons
 conv_thr = 1d-8,
/
&ions
/
&cell
/
ATOMIC_SPECIES
h      1.007940 h.UPF
c     12.010700 c.UPF
o     15.999400 o.UPF

ATOMIC_POSITIONS crystal
c     0.66375409     0.00228651     0.13795856
c     0.33624595     0.99771367     0.86204151
c     0.69623951     0.93735208     0.28528503
c     0.30376054     0.06264810     0.71471504
c     0.84541040     0.08386331     0.27015297
c     0.15458965     0.91613687     0.72984710
o     0.88038424     0.02382345     0.39395530
o     0.11961581     0.97617673     0.60604477
h     0.55325983     0.89250188     0.14583636
h     0.44674022     0.10749829     0.85416371
h     0.74753858     0.16290698     0.00183854
h     0.25246147     0.83709320     0.99816153
h     0.61452661     0.77301140     0.41987496
h     0.38547344     0.22698878     0.58012510
h     0.92698090     0.25392078     0.13580131
h     0.07301915     0.74607939     0.86419875

K_POINTS automatic
2 2 2 1 1 1

CELL_PARAMETERS cubic
   23.578063000000    -1.798023000000     0.884487000000
   -5.727869000000     7.720758000000    -0.027655000000
    4.943385000000    -5.430271000000     6.833423000000
