&control
 title='crystal',
 prefix='crystal',
 pseudo_dir='.',
 calculation='vc-relax',
/
&system
 ibrav=0,
 celldm(1)=1.0,
 nat=    32,
 ntyp=  3,
 ecutwfc=60.0,
 ecutrho=600.0,
 xdm=.true.,
 xdm_a1=0.4073,
 xdm_a2=2.4150,
/
&electrons
 conv_thr = 1d-8,
/
&ions
/
&cell
/
ATOMIC_SPECIES
h      1.007940 h.UPF
c     12.010700 c.UPF
o     15.999400 o.UPF

ATOMIC_POSITIONS crystal
c     0.60103347     0.42159340     0.02596086
c     0.39896653     0.57840660     0.52596087
c     0.89894574     0.42163863     0.52598183
c     0.10105426     0.57836137     0.02598185
c     0.52600952     0.25738922     0.94895508
c     0.47399048     0.74261078     0.44895510
c     0.97401670     0.25735111     0.44892783
c     0.02598330     0.74264889     0.94892785
c     0.59204736     0.06533154     0.01806458
c     0.40795264     0.93466846     0.51806460
c     0.90793304     0.06536803     0.51808480
c     0.09206696     0.93463197     0.01808482
h     0.56045017     0.56921397     0.97952058
h     0.43954983     0.43078603     0.47952059
h     0.93954838     0.56920536     0.47952289
h     0.06045162     0.43079464     0.97952290
h     0.70913276     0.41001957     0.14067445
h     0.29086724     0.58998043     0.64067446
h     0.79087200     0.41002103     0.64066951
h     0.20912800     0.58997897     0.14066953
h     0.41778068     0.25956371     0.83411227
h     0.58221932     0.74043629     0.33411229
h     0.08221108     0.25956650     0.33412084
h     0.91778892     0.74043350     0.83412086
h     0.70111735     0.07137548     0.13563789
h     0.29888265     0.92862452     0.63563791
h     0.79888453     0.07137622     0.63563563
h     0.20111547     0.92862378     0.13563564
o     0.53494421     0.90686658     0.95400510
o     0.46505579     0.09313342     0.45400511
o     0.96506640     0.90683837     0.45399150
o     0.03493360     0.09316163     0.95399152

K_POINTS automatic
2 2 2 1 1 1

CELL_PARAMETERS cubic
   13.453704000000    -0.000262000000     0.000000000000
   -0.000255000000    12.846616000000     0.000000000000
    0.000000000000     0.000000000000    12.680548000000
