&control
 title='crystal',
 prefix='crystal',
 pseudo_dir='.',
 calculation='vc-relax',
/
&system
 ibrav=0,
 celldm(1)=1.0,
 nat=    32,
 ntyp=  3,
 ecutwfc=60.0,
 ecutrho=600.0,
 xdm=.true.,
 xdm_a1=0.4073,
 xdm_a2=2.4150,
/
&electrons
 conv_thr = 1d-8,
/
&ions
/
&cell
/
ATOMIC_SPECIES
h      1.007940 h.UPF
c     12.010700 c.UPF
o     15.999400 o.UPF

ATOMIC_POSITIONS crystal
o     0.25988856     0.60316455     0.88842916
o     0.75988856     0.39683542     0.88842916
o     0.74011902     0.39683582     0.38842517
o     0.24011901     0.60316415     0.38842517
c     0.43959210     0.33650333     0.03554105
c     0.93959209     0.66349664     0.03554105
c     0.56040822     0.66348717     0.53553474
c     0.06040822     0.33651280     0.53553474
c     0.47181423     0.14365171     0.16762008
c     0.97181422     0.85634826     0.16762008
c     0.52818498     0.85636295     0.66760780
c     0.02818497     0.14363703     0.66760780
c     0.29999494     0.41697287     0.00178675
c     0.79999494     0.58302710     0.00178675
c     0.70000758     0.58302562     0.50177893
c     0.20000758     0.41697435     0.50177893
h     0.51515307     0.43745281     0.95193167
h     0.01515307     0.56254716     0.95193167
h     0.48484447     0.56252214     0.45193349
h     0.98484447     0.43747783     0.45193349
h     0.39484112     0.04154463     0.24897494
h     0.89484111     0.95845534     0.24897494
h     0.60515441     0.95849242     0.74895966
h     0.10515440     0.04150755     0.74895966
h     0.57488649     0.08822605     0.20050188
h     0.07488648     0.91177392     0.20050188
h     0.42511243     0.91178190     0.70048626
h     0.92511242     0.08821807     0.70048626
h     0.22801143     0.29977986     0.08989684
h     0.72801143     0.70022011     0.08989684
h     0.77198667     0.70023153     0.58989157
h     0.27198667     0.29976844     0.58989157

K_POINTS automatic
2 2 2 1 1 1

CELL_PARAMETERS cubic
   18.939550000000     0.000000000000    -0.000127000000
    0.000000000000     7.021441000000     0.000000000000
    0.000179000000     0.000000000000    15.574196000000
