&control
 title='crystal',
 prefix='crystal',
 pseudo_dir='.',
 calculation='vc-relax',
/
&system
 ibrav=0,
 celldm(1)=1.0,
 nat=    16,
 ntyp=  3,
 ecutwfc=60.0,
 ecutrho=600.0,
 xdm=.true.,
 xdm_a1=0.4073,
 xdm_a2=2.4150,
/
&electrons
 conv_thr = 1d-8,
/
&ions
/
&cell
/
ATOMIC_SPECIES
h      1.007940 h.UPF
c     12.010700 c.UPF
o     15.999400 o.UPF

ATOMIC_POSITIONS crystal
o     0.41336796     0.70588669     0.73997948
o     0.58663210     0.29411332     0.26002057
c     0.99125019     0.16051490     0.75744825
c     0.00874987     0.83948511     0.24255180
c     0.73776202     0.08853951     0.76148623
c     0.26223804     0.91146049     0.23851382
c     0.63981865     0.80044177     0.73932466
c     0.36018141     0.19955824     0.26067539
h     0.60111052     0.23504314     0.77982313
h     0.39888955     0.76495687     0.22017692
h     0.07916268     0.36967499     0.77071545
h     0.92083738     0.63032501     0.22928460
h     0.12040808     0.00589687     0.74077646
h     0.87959198     0.99410314     0.25922359
h     0.78988376     0.66307875     0.71874261
h     0.21011630     0.33692126     0.28125744

K_POINTS automatic
2 2 2 1 1 1

CELL_PARAMETERS cubic
    9.825266000000     0.143459000000     0.989071000000
   -1.162312000000     9.639249000000    -0.996303000000
   -3.706806000000    -4.008898000000    11.145433000000
