&control
 title='crystal',
 prefix='crystal',
 pseudo_dir='.',
 calculation='vc-relax',
/
&system
 ibrav=0,
 celldm(1)=1.0,
 nat=    32,
 ntyp=  3,
 ecutwfc=60.0,
 ecutrho=600.0,
 xdm=.true.,
 xdm_a1=0.4073,
 xdm_a2=2.4150,
/
&electrons
 conv_thr = 1d-8,
/
&ions
/
&cell
/
ATOMIC_SPECIES
h      1.007940 h.UPF
c     12.010700 c.UPF
o     15.999400 o.UPF

ATOMIC_POSITIONS crystal
c     0.86651231     0.64623696     0.66565784
c     0.13348769     0.35376302     0.33434213
c     0.13348976     0.14623478     0.83434301
c     0.86651024     0.85376520     0.16565696
c     0.69309881     0.76471643     0.61564862
c     0.30690119     0.23528355     0.38435135
c     0.30690221     0.26471564     0.88435273
c     0.69309779     0.73528434     0.11564724
h     0.02570611     0.67786687     0.65129904
h     0.97429389     0.32213311     0.34870093
h     0.97429305     0.17786246     0.84870086
h     0.02570695     0.82213752     0.15129911
h     0.85153783     0.51516417     0.72325055
h     0.14846217     0.48483581     0.27674942
h     0.14846643     0.01516458     0.77674896
h     0.85153357     0.98483540     0.22325100
c     0.48121099     0.71709379     0.63403749
c     0.51878902     0.28290619     0.36596247
c     0.51878871     0.21709552     0.86596184
c     0.48121129     0.78290446     0.13403813
h     0.70321265     0.89777894     0.55955696
h     0.29678735     0.10222104     0.44044301
h     0.29678949     0.39777866     0.94044617
h     0.70321051     0.60222132     0.05955380
o     0.31393003     0.81704771     0.59231131
o     0.68606997     0.18295227     0.40768866
o     0.68606831     0.31705064     0.90768611
o     0.31393169     0.68294934     0.09231386
h     0.47786694     0.57991416     0.68998862
h     0.52213306     0.42008582     0.31001135
h     0.52213556     0.07991576     0.81000874
h     0.47786444     0.92008422     0.18999123

K_POINTS automatic
2 2 2 1 1 1

CELL_PARAMETERS cubic
   12.045016000000    -0.000008000000     0.038939000000
    0.000003000000    14.142239000000    -0.000004000000
   -5.899173000000    -0.000022000000    12.792939000000
