&control
 title='crystal',
 prefix='crystal',
 pseudo_dir='.',
 calculation='vc-relax',
/
&system
 ibrav=0,
 celldm(1)=1.0,
 nat=    32,
 ntyp=  3,
 ecutwfc=60.0,
 ecutrho=600.0,
 xdm=.true.,
 xdm_a1=0.4073,
 xdm_a2=2.4150,
/
&electrons
 conv_thr = 1d-8,
/
&ions
/
&cell
/
ATOMIC_SPECIES
h      1.007940 h.UPF
c     12.010700 c.UPF
o     15.999400 o.UPF

ATOMIC_POSITIONS crystal
h     0.04876111     0.93740251     0.08236743
h     0.54876111     0.06259751     0.08236743
h     0.45123889     0.93740251     0.58236745
h     0.95123890     0.06259751     0.58236745
c     0.09317723     0.08096546     0.13254795
c     0.59317723     0.91903456     0.13254795
c     0.40682277     0.08096546     0.63254797
c     0.90682277     0.91903456     0.63254797
c     0.02277940     0.24706622     0.05769679
c     0.52277940     0.75293380     0.05769679
c     0.47722060     0.24706622     0.55769681
c     0.97722061     0.75293380     0.55769681
h     0.20163136     0.08603392     0.24961667
h     0.70163136     0.91396609     0.24961667
h     0.29836864     0.08603392     0.74961669
h     0.79836865     0.91396609     0.74961669
h     0.91425829     0.25074072     0.94081012
h     0.41425829     0.74925930     0.94081012
h     0.58574171     0.25074072     0.44081014
h     0.08574172     0.74925930     0.44081014
c     0.09549877     0.43272981     0.13256999
c     0.59549877     0.56727021     0.13256999
c     0.40450123     0.43272981     0.63257001
c     0.90450124     0.56727021     0.63257001
o     0.04499981     0.59288797     0.07053763
o     0.54499981     0.40711205     0.07053763
o     0.45500019     0.59288797     0.57053766
o     0.95500020     0.40711205     0.57053766
h     0.20386377     0.42000044     0.25277350
h     0.70386377     0.57999958     0.25277350
h     0.29613623     0.42000044     0.75277353
h     0.79613624     0.57999958     0.75277353

K_POINTS automatic
2 2 2 1 1 1

CELL_PARAMETERS cubic
   13.271804000000     0.000000000000     0.000000000000
    0.000000000000    12.998516000000     0.000000000000
    0.000000000000     0.000000000000    12.597005000000
