&control
 title='crystal',
 prefix='crystal',
 pseudo_dir='.',
 calculation='vc-relax',
/
&system
 ibrav=0,
 celldm(1)=1.0,
 nat=    64,
 ntyp=  3,
 ecutwfc=60.0,
 ecutrho=600.0,
 xdm=.true.,
 xdm_a1=0.4073,
 xdm_a2=2.4150,
/
&electrons
 conv_thr = 1d-8,
/
&ions
/
&cell
/
ATOMIC_SPECIES
h      1.007940 h.UPF
c     12.010700 c.UPF
o     15.999400 o.UPF

ATOMIC_POSITIONS crystal
c     0.46110286     0.18587882     0.64128294
c     0.53889715     0.81412119     0.35871705
c     0.96110287     0.18587882     0.85871705
c     0.46110286     0.31412119     0.14128295
c     0.96110287     0.31412119     0.35871705
c     0.03889715     0.68587882     0.64128294
c     0.53889715     0.68587882     0.85871705
c     0.03889715     0.81412119     0.14128295
h     0.52623388     0.11077662     0.72329441
h     0.47376614     0.88922338     0.27670558
h     0.02623388     0.11077662     0.77670558
h     0.52623388     0.38922338     0.22329442
h     0.02623388     0.38922338     0.27670558
h     0.97376613     0.61077663     0.72329441
h     0.47376614     0.61077663     0.77670558
h     0.97376613     0.88922338     0.22329442
o     0.50533766     0.30205164     0.60861575
o     0.49466235     0.69794837     0.39138424
o     0.00533767     0.30205164     0.89138424
o     0.50533766     0.19794837     0.10861576
o     0.00533767     0.19794837     0.39138424
o     0.99466235     0.80205164     0.60861575
o     0.49466235     0.80205164     0.89138424
o     0.99466235     0.69794837     0.10861576
c     0.32425046     0.13598367     0.57877966
c     0.67574956     0.86401634     0.42122033
c     0.82425047     0.13598367     0.92122033
c     0.32425046     0.36401634     0.07877967
c     0.82425047     0.36401634     0.42122033
c     0.17574955     0.63598367     0.57877966
c     0.67574956     0.63598367     0.92122033
c     0.17574955     0.86401634     0.07877967
h     0.25597880     0.20553582     0.49776519
h     0.74402122     0.79446419     0.50223480
h     0.75597880     0.20553582     0.00223480
h     0.25597880     0.29446419     0.99776520
h     0.75597880     0.29446419     0.50223480
h     0.24402122     0.70553582     0.49776519
h     0.74402122     0.70553582     0.00223480
h     0.24402122     0.79446419     0.99776520
c     0.28508420     0.00723480     0.62096496
c     0.71491582     0.99276520     0.37903504
c     0.78508421     0.00723480     0.87903504
c     0.28508420     0.49276520     0.12096496
c     0.78508421     0.49276520     0.37903504
c     0.21491581     0.50723481     0.62096496
c     0.71491582     0.50723481     0.87903504
c     0.21491581     0.99276520     0.12096496
h     0.18358477     0.96644746     0.57701004
h     0.81641524     0.03355255     0.42298995
h     0.68358478     0.96644746     0.92298995
h     0.18358477     0.53355255     0.07701005
h     0.68358478     0.53355255     0.42298995
h     0.31641524     0.46644746     0.57701004
h     0.81641524     0.46644746     0.92298995
h     0.31641524     0.03355255     0.07701005
h     0.35456251     0.93876505     0.70245756
h     0.64543750     0.06123495     0.29754244
h     0.85456252     0.93876505     0.79754244
h     0.35456251     0.56123495     0.20245756
h     0.85456252     0.56123495     0.29754244
h     0.14543750     0.43876506     0.70245756
h     0.64543750     0.43876506     0.79754244
h     0.14543750     0.06123495     0.20245756

K_POINTS automatic
2 2 2 1 1 1

CELL_PARAMETERS cubic
   18.044370000000     0.000000000000     0.000000000000
    0.000000000000    18.458300000000     0.000000000000
    0.000000000000     0.000000000000    12.820132000000
