&control
 title='crystal',
 prefix='crystal',
 pseudo_dir='.',
 calculation='vc-relax',
/
&system
 ibrav=0,
 celldm(1)=1.0,
 nat=    32,
 ntyp=  3,
 ecutwfc=60.0,
 ecutrho=600.0,
 xdm=.true.,
 xdm_a1=0.4073,
 xdm_a2=2.4150,
/
&electrons
 conv_thr = 1d-8,
/
&ions
/
&cell
/
ATOMIC_SPECIES
h      1.007940 h.UPF
c     12.010700 c.UPF
o     15.999400 o.UPF

ATOMIC_POSITIONS crystal
c     0.02804535     0.14497937     0.14459216
c     0.52804534     0.85502058     0.14459216
c     0.47195661     0.14496930     0.64459232
c     0.97195660     0.85503067     0.64459232
c     0.06046184     0.33740301     0.01284914
c     0.56046183     0.66259695     0.01284914
c     0.43954012     0.33739294     0.51284930
c     0.93954011     0.66260703     0.51284930
c     0.19999285     0.41692883     0.97909262
c     0.69999284     0.58307112     0.97909262
c     0.30000911     0.41691876     0.47909278
c     0.80000910     0.58308121     0.47909278
o     0.24017559     0.60206579     0.86576939
o     0.74017558     0.39793417     0.86576939
o     0.25982638     0.60205572     0.36576955
o     0.75982637     0.39794425     0.36576955
h     0.10480782     0.04271244     0.22586000
h     0.60480781     0.95728752     0.22586000
h     0.39519414     0.04270237     0.72586016
h     0.89519413     0.95729761     0.72586016
h     0.92499688     0.09001746     0.17720477
h     0.42499687     0.90998250     0.17720477
h     0.57500508     0.09000739     0.67720493
h     0.07500507     0.90999259     0.67720493
h     0.98509365     0.43864578     0.92940047
h     0.48509364     0.56135418     0.92940047
h     0.51490831     0.43863570     0.42940063
h     0.01490830     0.56136427     0.42940063
h     0.27184280     0.29993885     0.06708364
h     0.77184279     0.70006110     0.06708364
h     0.22815916     0.29992878     0.56708380
h     0.72815915     0.70007119     0.56708380

K_POINTS automatic
2 2 2 1 1 1

CELL_PARAMETERS cubic
   18.957367000000     0.000000000000    -0.000024000000
    0.000000000000     7.019344000000     0.000000000000
   -0.000008000000     0.000000000000    15.621334000000
