&control
 title='crystal',
 prefix='crystal',
 pseudo_dir='.',
 calculation='vc-relax',
/
&system
 ibrav=0,
 celldm(1)=1.0,
 nat=    32,
 ntyp=  3,
 ecutwfc=60.0,
 ecutrho=600.0,
 xdm=.true.,
 xdm_a1=0.4073,
 xdm_a2=2.4150,
/
&electrons
 conv_thr = 1d-8,
/
&ions
/
&cell
/
ATOMIC_SPECIES
h      1.007940 h.UPF
c     12.010700 c.UPF
o     15.999400 o.UPF

ATOMIC_POSITIONS crystal
c     0.40359493     0.42210218     0.35995042
c     0.59640510     0.57789785     0.85995042
c     0.90359521     0.57791551     0.35994779
c     0.09640482     0.42208452     0.85994779
o     0.45396153     0.58364401     0.41896678
o     0.54603850     0.41635602     0.91896678
o     0.95395425     0.41634656     0.41897852
o     0.04604577     0.58365347     0.91897852
h     0.29694626     0.40738267     0.23814820
h     0.70305376     0.59261736     0.73814820
h     0.79694642     0.59261950     0.23814211
h     0.20305361     0.40738053     0.73814211
c     0.47503248     0.23824961     0.44180070
c     0.52496754     0.76175042     0.94180070
c     0.97502670     0.76174651     0.44178796
c     0.02497332     0.23825352     0.94178796
h     0.58239276     0.24705551     0.55969677
h     0.41760726     0.75294452     0.05969677
h     0.08239483     0.75294564     0.55969931
h     0.91760519     0.24705439     0.05969931
c     0.40473818     0.06909685     0.37354761
c     0.59526184     0.93090318     0.87354761
c     0.90474448     0.93091357     0.37355421
c     0.09525554     0.06908646     0.87355421
h     0.44883657     0.92715761     0.42966055
h     0.55116346     0.07284243     0.92966055
h     0.94883265     0.07283835     0.42965830
h     0.05116737     0.92716168     0.92965830
h     0.29639403     0.06976349     0.25609974
h     0.70360599     0.93023654     0.75609974
h     0.79638963     0.93023852     0.25609494
h     0.20361039     0.06976151     0.75609494

K_POINTS automatic
2 2 2 1 1 1

CELL_PARAMETERS cubic
   13.279739000000    -0.000051000000     0.000000000000
   -0.000013000000    12.975547000000     0.000000000000
    0.000000000000     0.000000000000    12.571475000000
