&control
 title='crystal',
 prefix='crystal',
 pseudo_dir='.',
 calculation='vc-relax',
/
&system
 ibrav=0,
 celldm(1)=1.0,
 nat=    64,
 ntyp=  3,
 ecutwfc=60.0,
 ecutrho=600.0,
 xdm=.true.,
 xdm_a1=0.4073,
 xdm_a2=2.4150,
/
&electrons
 conv_thr = 1d-8,
/
&ions
/
&cell
/
ATOMIC_SPECIES
h      1.007940 h.UPF
c     12.010700 c.UPF
o     15.999400 o.UPF

ATOMIC_POSITIONS crystal
c     0.54123285     0.69577508     0.12871630
c     0.45876716     0.30422493     0.87128368
c     0.04123284     0.69577508     0.37128369
c     0.54123285     0.80422493     0.62871629
c     0.04123284     0.80422493     0.87128368
c     0.95876716     0.19577508     0.12871630
c     0.45876716     0.19577508     0.37128369
c     0.95876716     0.30422493     0.62871629
h     0.69032077     0.93348634     0.05958813
h     0.30967923     0.06651367     0.94041186
h     0.19032077     0.93348634     0.44041186
h     0.69032077     0.56651367     0.55958812
h     0.19032077     0.56651367     0.94041186
h     0.80967923     0.43348634     0.05958813
h     0.30967923     0.43348634     0.44041186
h     0.80967923     0.06651367     0.55958812
o     0.55266376     0.76872144     0.95844186
o     0.44733625     0.23127856     0.04155813
o     0.05266375     0.76872144     0.54155814
o     0.55266376     0.73127856     0.45844185
o     0.05266375     0.73127856     0.04155813
o     0.94733625     0.26872144     0.95844186
o     0.44733625     0.26872144     0.54155814
o     0.94733625     0.23127856     0.45844185
c     0.59908720     0.80704610     0.04311989
c     0.40091281     0.19295391     0.95688010
c     0.09908719     0.80704610     0.45688010
c     0.59908720     0.69295391     0.54311988
c     0.09908719     0.69295391     0.95688010
c     0.90091281     0.30704610     0.04311989
c     0.40091281     0.30704610     0.45688010
c     0.90091281     0.19295391     0.54311988
h     0.45455206     0.56820523     0.11587217
h     0.54544795     0.43179478     0.88412782
h     0.95455205     0.56820523     0.38412783
h     0.45455206     0.93179478     0.61587216
h     0.95455205     0.93179478     0.88412782
h     0.04544795     0.06820523     0.11587217
h     0.54544795     0.06820523     0.38412783
h     0.04544795     0.43179478     0.61587216
c     0.59696409     0.75269027     0.21828296
c     0.40303591     0.24730974     0.78171702
c     0.09696409     0.75269027     0.28171703
c     0.59696409     0.74730974     0.71828296
c     0.09696409     0.74730974     0.78171702
c     0.90303591     0.25269027     0.21828296
c     0.40303591     0.25269027     0.28171703
c     0.90303591     0.24730974     0.71828296
h     0.55983919     0.67743034     0.28528037
h     0.44016082     0.32256967     0.71471962
h     0.05983918     0.67743034     0.21471962
h     0.55983919     0.82256967     0.78528036
h     0.05983918     0.82256967     0.71471962
h     0.94016082     0.17743034     0.28528037
h     0.44016082     0.17743034     0.21471962
h     0.94016082     0.32256967     0.78528036
h     0.68456449     0.88106143     0.22688495
h     0.31543551     0.11893857     0.77311503
h     0.18456449     0.88106143     0.27311504
h     0.68456449     0.61893857     0.72688494
h     0.18456449     0.61893857     0.77311503
h     0.81543551     0.38106143     0.22688495
h     0.31543551     0.38106143     0.27311504
h     0.81543551     0.11893857     0.72688494

K_POINTS automatic
2 2 2 1 1 1

CELL_PARAMETERS cubic
   12.771146000000     0.000000000000     0.000000000000
    0.000000000000    13.368689000000     0.000000000000
    0.000000000000     0.000000000000    25.804016000000
