&control
 title='crystal',
 prefix='crystal',
 pseudo_dir='.',
 calculation='vc-relax',
/
&system
 ibrav=0,
 celldm(1)=1.0,
 nat=    32,
 ntyp=  3,
 ecutwfc=60.0,
 ecutrho=600.0,
 xdm=.true.,
 xdm_a1=0.4073,
 xdm_a2=2.4150,
/
&electrons
 conv_thr = 1d-8,
/
&ions
/
&cell
/
ATOMIC_SPECIES
h      1.007940 h.UPF
c     12.010700 c.UPF
o     15.999400 o.UPF

ATOMIC_POSITIONS crystal
c     0.02800427     0.15574556     0.95950356
c     0.52800539     0.65574069     0.45950287
c     0.52800337     0.84425443     0.95949973
c     0.02800448     0.34424956     0.45949904
h     0.15727527     0.13958094     0.80559949
h     0.65727638     0.63957607     0.30559879
h     0.65727777     0.86041916     0.80559468
h     0.15727888     0.36041429     0.30559398
o     0.96559934     0.31773939     0.02942543
o     0.46560046     0.81773452     0.52942474
o     0.46560500     0.68225885     0.02942081
o     0.96560611     0.18225398     0.52942012
c     0.94570776     0.97193536     0.06277001
c     0.44570887     0.47193049     0.56276931
c     0.44570426     0.02806248     0.06276583
c     0.94570538     0.52805761     0.56276513
h     0.81804112     0.97632073     0.21415241
h     0.31804223     0.47631586     0.71415172
h     0.31804635     0.02367488     0.21415839
h     0.81804747     0.52367001     0.71415770
c     0.03102774     0.80581571     0.96770304
c     0.53102885     0.30581083     0.46770234
c     0.53102279     0.19418395     0.96770282
c     0.03102390     0.69417908     0.46770212
h     0.97892698     0.66269428     0.03322620
h     0.47892809     0.16268941     0.53322551
h     0.47892466     0.33730550     0.03323269
h     0.97892578     0.83730063     0.53323199
h     0.16052859     0.81023756     0.81735415
h     0.66052970     0.31023269     0.31735345
h     0.66052804     0.18976464     0.81735893
h     0.16052915     0.68975977     0.31735823

K_POINTS automatic
2 2 2 1 1 1

CELL_PARAMETERS cubic
   13.680816000000    -0.000031000000     0.049260000000
    0.000052000000    13.015001000000    -0.000041000000
    5.055087000000     0.000017000000    12.001574000000
