&control
 title='crystal',
 prefix='crystal',
 pseudo_dir='.',
 calculation='vc-relax',
/
&system
 ibrav=0,
 celldm(1)=1.0,
 nat=    32,
 ntyp=  3,
 ecutwfc=60.0,
 ecutrho=600.0,
 xdm=.true.,
 xdm_a1=0.4073,
 xdm_a2=2.4150,
/
&electrons
 conv_thr = 1d-8,
/
&ions
/
&cell
/
ATOMIC_SPECIES
h      1.007940 h.UPF
c     12.010700 c.UPF
o     15.999400 o.UPF

ATOMIC_POSITIONS crystal
c     0.36826250     0.64569802     0.83593368
c     0.63173747     0.35430200     0.16406629
c     0.63174235     0.14570403     0.66407434
c     0.36825761     0.85429600     0.33592563
c     0.19525872     0.76430016     0.88533570
c     0.80474124     0.23569986     0.11466426
c     0.80475141     0.26430556     0.61465700
c     0.19524855     0.73569447     0.38534296
c     0.98339779     0.71682983     0.86644090
c     0.01660217     0.28317020     0.13355907
c     0.01659623     0.21682188     0.63357082
c     0.98340373     0.78317814     0.36642914
o     0.81671146     0.81711290     0.90745066
o     0.18328851     0.18288713     0.09254931
o     0.18330712     0.31708984     0.59252930
o     0.81669284     0.68291018     0.40747066
h     0.52748132     0.67746377     0.85048764
h     0.47251865     0.32253626     0.14951233
h     0.47252893     0.17746177     0.64951305
h     0.52747104     0.82253826     0.35048692
h     0.35298677     0.51439787     0.77870180
h     0.64701319     0.48560216     0.22129816
h     0.64703570     0.01440256     0.72129612
h     0.35296427     0.98559747     0.27870384
h     0.20563293     0.89751913     0.94119375
h     0.79436704     0.10248089     0.05880622
h     0.79437098     0.39753190     0.55881025
h     0.20562899     0.60246813     0.44118971
h     0.97949940     0.57953979     0.81071467
h     0.02050057     0.42046024     0.18928530
h     0.02048244     0.07952878     0.68930568
h     0.97951752     0.92047125     0.31069428

K_POINTS automatic
2 2 2 1 1 1

CELL_PARAMETERS cubic
   12.008060000000    -0.000241000000     0.879443000000
    0.000118000000    14.133219000000     0.000129000000
    4.827589000000     0.000099000000    13.227519000000
