&control
 title='crystal',
 prefix='crystal',
 pseudo_dir='.',
 calculation='vc-relax',
/
&system
 ibrav=0,
 celldm(1)=1.0,
 nat=    16,
 ntyp=  3,
 ecutwfc=60.0,
 ecutrho=600.0,
 xdm=.true.,
 xdm_a1=0.4073,
 xdm_a2=2.4150,
/
&electrons
 conv_thr = 1d-8,
/
&ions
/
&cell
/
ATOMIC_SPECIES
h      1.007940 h.UPF
c     12.010700 c.UPF
o     15.999400 o.UPF

ATOMIC_POSITIONS crystal
h     0.86482823     0.57138335     0.76358718
h     0.86483011     0.42861828     0.26358607
c     0.85703948     0.40384679     0.71451074
c     0.85704855     0.59615431     0.21451739
c     0.09378141     0.25454204     0.81763124
c     0.09376689     0.74545672     0.31762417
h     0.65222305     0.35903014     0.57656375
h     0.65221890     0.64097164     0.07656110
h     0.30133986     0.29208997     0.95674975
h     0.30134110     0.70790935     0.45675217
c     0.07992940     0.03270552     0.74376815
c     0.07991286     0.96727931     0.24376121
o     0.29918536     0.88922830     0.82327034
o     0.29921063     0.11078058     0.32327467
h     0.85246258     0.99976461     0.60665002
h     0.85246122     0.00023903     0.10665153

K_POINTS automatic
2 2 2 1 1 1

CELL_PARAMETERS cubic
    7.107122000000     0.000025000000    -0.074817000000
    0.000057000000    11.659967000000     0.000030000000
   -3.626547000000     0.000024000000    12.781667000000
