&control
 title='crystal',
 prefix='crystal',
 pseudo_dir='.',
 calculation='vc-relax',
/
&system
 ibrav=0,
 celldm(1)=1.0,
 nat=    32,
 ntyp=  3,
 ecutwfc=60.0,
 ecutrho=600.0,
 xdm=.true.,
 xdm_a1=0.4073,
 xdm_a2=2.4150,
/
&electrons
 conv_thr = 1d-8,
/
&ions
/
&cell
/
ATOMIC_SPECIES
h      1.007940 h.UPF
c     12.010700 c.UPF
o     15.999400 o.UPF

ATOMIC_POSITIONS crystal
o     0.92799792     0.59550249     0.59245293
o     0.07199892     0.09550092     0.90754738
o     0.57200929     0.40448990     0.09244506
o     0.42798755     0.90448833     0.40755525
c     0.10651760     0.64637399     0.07299860
c     0.89347924     0.14637242     0.42700170
c     0.39349289     0.35363742     0.57299102
c     0.60650395     0.85363585     0.92700929
c     0.98393984     0.60427736     0.22270392
c     0.01605700     0.10427579     0.27729638
c     0.51606836     0.39573332     0.72269452
c     0.48392848     0.89573175     0.77730578
c     0.03005916     0.63162692     0.44405211
c     0.96993768     0.13162535     0.05594819
c     0.46994808     0.36837847     0.94404630
c     0.53004876     0.86837690     0.55595401
h     0.84904596     0.54954122     0.18504277
h     0.15095088     0.04953965     0.31495754
h     0.65097740     0.45043462     0.68503199
h     0.34901944     0.95043305     0.81496832
h     0.07576600     0.62867437     0.90612173
h     0.92423084     0.12867280     0.59387857
h     0.42424621     0.37132637     0.40611267
h     0.57575063     0.87132480     0.09388763
h     0.23978696     0.70173071     0.11631395
h     0.76020988     0.20172914     0.38368636
h     0.26022780     0.29827032     0.61630700
h     0.73976904     0.79826875     0.88369330
h     0.16813279     0.69010487     0.47340358
h     0.83186405     0.19010330     0.02659672
h     0.33187574     0.30989531     0.97339627
h     0.66812110     0.80989374     0.52660403

K_POINTS automatic
2 2 2 1 1 1

CELL_PARAMETERS cubic
   13.900145000000    -0.000010000000    -0.000006000000
   -0.000011000000    13.360702000000     0.000004000000
    0.000094000000     0.000002000000    11.993722000000
