&control
 title='crystal',
 prefix='crystal',
 pseudo_dir='.',
 calculation='vc-relax',
/
&system
 ibrav=0,
 celldm(1)=1.0,
 nat=    16,
 ntyp=  3,
 ecutwfc=60.0,
 ecutrho=600.0,
 xdm=.true.,
 xdm_a1=0.4073,
 xdm_a2=2.4150,
/
&electrons
 conv_thr = 1d-8,
/
&ions
/
&cell
/
ATOMIC_SPECIES
h      1.007940 h.UPF
c     12.010700 c.UPF
o     15.999400 o.UPF

ATOMIC_POSITIONS crystal
c     0.71946325     0.43457998     0.66197870
c     0.43458108     0.71945787     0.33802987
c     0.84071051     0.30890620     0.69518959
c     0.30890478     0.84071475     0.30480725
c     0.85677261     0.33317106     0.84524401
c     0.33317528     0.85676717     0.15475765
o     0.96693437     0.22292050     0.88074477
o     0.22292194     0.96693338     0.11925301
h     0.70731183     0.41847732     0.55080757
h     0.41847212     0.70731643     0.44919474
h     0.63015308     0.55713049     0.74597758
h     0.55713132     0.63015257     0.25402357
h     0.93405793     0.18628480     0.61337236
h     0.18628110     0.93406158     0.38662279
h     0.76366964     0.46111711     0.92686808
h     0.46111871     0.76366826     0.07312867

K_POINTS automatic
2 2 2 1 1 1

CELL_PARAMETERS cubic
    9.797563000000    -0.047381000000     0.901125000000
   -7.105994000000     6.745314000000    -0.901122000000
    4.024980000000    -1.617424000000    18.074224000000
