&control
 title='crystal',
 prefix='crystal',
 pseudo_dir='.',
 calculation='vc-relax',
/
&system
 ibrav=0,
 celldm(1)=1.0,
 nat=    64,
 ntyp=  3,
 ecutwfc=60.0,
 ecutrho=600.0,
 xdm=.true.,
 xdm_a1=0.4073,
 xdm_a2=2.4150,
/
&electrons
 conv_thr = 1d-8,
/
&ions
/
&cell
/
ATOMIC_SPECIES
h      1.007940 h.UPF
c     12.010700 c.UPF
o     15.999400 o.UPF

ATOMIC_POSITIONS crystal
c     0.59963087     0.27959813     0.97653114
c     0.40036911     0.72040186     0.02346887
c     0.09963088     0.27959813     0.52346887
c     0.59963087     0.22040187     0.47653114
c     0.09963088     0.22040187     0.02346887
c     0.90036909     0.77959812     0.97653114
c     0.40036911     0.77959812     0.52346887
c     0.90036909     0.72040186     0.47653114
h     0.48157248     0.21689227     0.00859907
h     0.51842750     0.78310772     0.99140094
h     0.98157249     0.21689227     0.49140095
h     0.48157248     0.28310773     0.50859906
h     0.98157249     0.28310773     0.99140094
h     0.01842748     0.71689227     0.00859907
h     0.51842750     0.71689227     0.49140095
h     0.01842748     0.78310772     0.50859906
o     0.68568417     0.38584033     0.03651777
o     0.31431581     0.61415966     0.96348223
o     0.18568418     0.38584033     0.46348224
o     0.68568417     0.11415967     0.53651777
o     0.18568418     0.11415967     0.96348223
o     0.81431580     0.88584033     0.03651777
o     0.31431581     0.88584033     0.46348224
o     0.81431580     0.61415966     0.53651777
c     0.63903463     0.22713638     0.85983879
c     0.36096535     0.77286361     0.14016122
c     0.13903464     0.22713638     0.64016123
c     0.63903463     0.27286362     0.35983878
c     0.13903464     0.27286362     0.14016122
c     0.86096533     0.72713637     0.85983879
c     0.36096535     0.72713637     0.64016123
c     0.86096533     0.77286361     0.35983878
h     0.75522840     0.28127565     0.82478416
h     0.24477158     0.71872434     0.17521584
h     0.25522840     0.28127565     0.67521585
h     0.75522840     0.21872435     0.32478416
h     0.25522840     0.21872435     0.17521584
h     0.74477157     0.78127565     0.82478416
h     0.24477158     0.78127565     0.67521585
h     0.74477157     0.71872434     0.32478416
c     0.53341364     0.11811545     0.79891342
c     0.46658634     0.88188454     0.20108658
c     0.03341365     0.11811545     0.70108659
c     0.53341364     0.38188455     0.29891342
c     0.03341365     0.38188455     0.20108658
c     0.96658633     0.61811544     0.79891342
c     0.46658634     0.61811544     0.70108659
c     0.96658633     0.88188454     0.29891342
h     0.56000555     0.07891790     0.71140387
h     0.43999443     0.92108209     0.28859614
h     0.06000556     0.07891790     0.78859615
h     0.56000555     0.42108210     0.21140386
h     0.06000556     0.42108210     0.28859614
h     0.93999442     0.57891789     0.71140387
h     0.43999443     0.57891789     0.78859615
h     0.93999442     0.92108209     0.21140386
h     0.41802956     0.06688987     0.83665138
h     0.58197042     0.93311012     0.16334863
h     0.91802957     0.06688987     0.66334863
h     0.41802956     0.43311013     0.33665138
h     0.91802957     0.43311013     0.16334863
h     0.08197041     0.56688986     0.83665138
h     0.58197042     0.56688986     0.66334863
h     0.08197041     0.93311012     0.33665138

K_POINTS automatic
2 2 2 1 1 1

CELL_PARAMETERS cubic
   15.263901000000     0.000000000000     0.000000000000
    0.000000000000    12.899719000000     0.000000000000
    0.000000000000     0.000000000000    22.338982000000
