%nprocs=4
%mem=4GB
#p pbepbe aug-cc-pvtz output=wfx scf=(conver=6) int=(grid=ultrafine)

title

0 1
c -3.051970226629037 0.810829013494022 -0.439709749376511
c -3.271081676308706 -0.486971910083427 0.014196625772409
c -2.183608027577835 -1.363307755905683 0.187109503721398
c -0.867861852485995 -0.960386262943550 -0.109837370425295
c -0.659670764036038 0.393919669423335 -0.488689797571294
c -1.748451556310322 1.256972194439602 -0.687451307014531
c -1.536910517759764 2.672019972838712 -1.196859207522151
c 0.785341080705253 0.858654111776642 -0.722151850751859
c -0.133322954642564 2.833360380893570 -1.785567199676135
n 0.854930170733590 2.335290687524131 -0.812921851565172
c 1.710698114569986 0.183107754083184 0.299760729989365
c 0.300002384679991 -1.869174590083183 -0.061379361556085
c 1.581565150206426 -1.311168953820644 0.128686414446112
c 1.316183656536656 -4.076233841776619 -0.236529052846902
c 2.594346029426154 -3.514473783188055 -0.013908816632156
c 2.708915957111957 -2.136739837753136 0.158900845964647
c 0.189261901140097 -3.261534904181816 -0.266970583181812
o -4.546788350908817 -0.898174971178335 0.293222764443990
o -2.522278599562707 -2.637324003515390 0.653366131915681
c -2.113560518395408 -2.865292645039796 2.022284481934839
o 1.318678391834781 -5.445101579300504 -0.419532964581104
c 0.059215038725186 -6.081236804361800 -0.652629411442871
o 3.719556943752196 -4.292536100950708 0.020364227900741
c 1.337222641966195 3.148040481835290 0.187981009437677
o 2.045475070157240 2.818786131616204 1.125082971883429
o 0.946808663321456 4.453736859258043 -0.021473544829517
c 1.496934823776438 5.420580291301285 0.911437989293478
c 0.939977412817973 6.781993752643302 0.529004295525861
h -3.903701152840116 1.470112291807718 -0.593761961086956
h -2.297841783561123 2.908144862146411 -1.953925674909373
h -1.658814976104126 3.396063975170688 -0.378341021937492
h 1.100093669587885 0.496864155207536 -1.716766749085304
h -0.029500216428781 2.217874868568110 -2.689916177619691
h 0.082977637995769 3.869768016948488 -2.045010276258105
h 1.415818901678637 0.479277984037552 1.313022924527643
h 2.744659508650236 0.505988056776481 0.154392555711858
h 3.698272193292631 -1.710117939625817 0.308821448130868
h -0.787081757362885 -3.692309326684075 -0.448343742629473
h -4.484831759488913 -1.841041997603123 0.527430832020835
h -2.566112581406129 -2.113711946299928 2.685644781300414
h -1.020086598956376 -2.826594597724723 2.107271766254529
h -2.472966207722763 -3.865364561634297 2.287468090716316
h 0.276462911151753 -7.147384330257728 -0.761220666629142
h -0.623613238563132 -5.920059806968256 0.195365584934260
h -0.409930318162880 -5.696940413032561 -1.570721738505477
h 3.450458281313059 -5.212036962672755 -0.135297644458729
h 1.211939331216035 5.135605704276611 1.931776333208454
h 2.592316471940100 5.395357097072227 0.847831676335094
h -0.154990952374327 6.788895266067464 0.595862407093240
h 1.334988287199252 7.541909982590709 1.215977562156349
h 1.231875962101919 7.052066264788688 -0.493346232526376

i16e.wfx

