%nprocs=4
%mem=4GB
#p pbepbe aug-cc-pvtz output=wfx scf=(conver=6) int=(grid=ultrafine)

title

0 1
c -0.383589235727782 0.186341993788366 -0.192100090983934
c -1.141395204175337 -0.331260898158348 1.063061127654469
c -0.283508182744653 -0.210644358466068 2.304035057310398
c 1.004394612874938 0.146910643159963 2.322063939431029
c 1.823469961194174 0.367566618259411 1.082485162851981
c 1.124920740182716 -0.190092705250850 -0.167028107726984
c 1.875346701400106 0.274856853806324 -1.442354237002528
c 3.395687015118608 0.447046071331593 -1.204485843004427
c 3.899059898429607 -0.549064598931410 -0.149315973820184
c 3.231914243708906 -0.278837535173599 1.223224975669691
c -2.506574306555866 0.396704169594841 1.297790139786791
c -3.334197580775350 -0.311224531680856 2.387642134448618
c -3.371205187388235 0.511374029881815 0.030100368260596
c -0.960527853225467 -0.404892299924548 -1.470904683896615
o -1.206407544294669 -1.581088223650447 -1.644061638915341
o -1.109366586006621 0.541673588483016 -2.441391753789711
c -1.587623673993773 0.052641207468791 -3.718271494919078
h -0.457361165319881 1.281030073578177 -0.235819992151597
h -1.371712795138778 -1.395250797576104 0.891243401442927
h -0.778418079509391 -0.405789772442563 3.253416784696643
h 1.520818027996206 0.244868126188173 3.278989990282203
h 1.445572356641702 1.223726856082903 -1.789655866684926
h 1.704800642451895 -0.458997698746192 -2.241644040504189
h 3.939238163985516 0.322268703695814 -2.149868974618309
h 3.601090375373959 1.468792259529692 -0.853791055190205
h 4.991650801342407 -0.500314119924008 -0.055104344763354
h 3.654399759274915 -1.567525455602633 -0.483079916299932
h 3.135787788546347 -1.222390580014236 1.778035039958798
h 3.861826722385648 0.386712863196062 1.829625664870197
h -2.271601137191705 1.416128242199191 1.642697599191392
h -2.830388058623855 -0.336713566981129 3.360038796723654
h -3.545424147913815 -1.346428750647660 2.083142773553897
h -4.294402047932596 0.203257240004446 2.524411002607050
h -3.559748543933673 -0.481468618026832 -0.400151847837520
h -2.903651814373836 1.139272669163746 -0.735405424933327
h -4.340275968122778 0.960901172698079 0.284147594293921
h -1.629555415936734 0.931025956878631 -4.367152106506464
h -2.581204296896416 -0.396945995971181 -3.604026079583567
h -0.898872837733616 -0.699273914604237 -4.121286813203962
h 1.171375199297889 -1.286919315463490 -0.103617782170608
h 1.965658653309350 1.452024398247378 0.934366515472510

i2e.wfx

