%nprocs=4
%mem=4GB
#p pbepbe aug-cc-pvtz output=wfx scf=(conver=6) int=(grid=ultrafine)

title

0 1
c -2.757567236581115 1.357573012460800 -0.555034636959139
c -4.251620450145238 1.260015057419313 -0.214004800218971
c -4.797371647025581 -0.120950976542336 -0.584743238388575
c -4.027794522966766 -1.197401563659072 0.196211572839416
c -2.530613987023554 -1.110312358892622 0.023131680297885
c -1.875434038006066 0.270997086317576 0.116725041925135
c -0.479963438885701 0.265611074470945 -0.602124008072829
c 0.336196682394044 -0.994497290898833 -0.318621227044727
c -0.307260635324556 -2.151089976710494 -0.054665446601823
c -1.758411981919840 -2.217054147518420 -0.004076150029490
c 0.289689074541728 1.600061074045356 -0.379983775015252
c 1.797364413417783 -0.915664179993325 -0.634322821198880
c 1.781912773648325 1.562351607844662 -0.764626064167686
c 2.481913372086765 0.368759533154300 -0.106725134604139
c -1.745909135868280 0.561117948517219 1.637548636399317
c 2.750035317461276 -2.054285455523941 -0.228982363856861
c 3.936178484214913 0.119016684144681 -0.575393776594039
c 2.399154820117302 0.456561724067125 1.430678173384486
c 4.164486098590926 -1.393397146179776 -0.273757292802690
o -6.214888399472282 -0.227569666547324 -0.372447161390233
c 5.002697340031140 1.040315108868972 0.016707551657058
h -2.375468540199227 2.347730286139420 -0.277849538236223
h -2.647680461528570 1.263411445710048 -1.646023224110784
h -4.409270458164839 1.422230689419995 0.864188802971486
h -4.815128085523895 2.034076817548133 -0.750275831400062
h -4.665003139958585 -0.285033116333585 -1.662561384091324
h -4.278154404833870 -1.043852618474384 1.263116373403365
h -4.387055224014145 -2.196901119510242 -0.078166115849438
h -0.702812707637494 0.207092092240433 -1.685955291055379
h 0.260502845601564 -3.074640248832509 0.046950429376503
h -2.232104438915407 -3.199039592135842 0.029902694382313
h -0.215760890667983 2.393301285748944 -0.942966171738265
h 0.230891151745312 1.881127802724645 0.675505574729166
h 1.856802343434147 -0.824964676071916 -1.736491081568236
h 1.894066739647623 1.469279630512133 -1.856170696781704
h 2.254079013566470 2.509335248495709 -0.464883411257309
h -2.705078457123371 0.389577608754078 2.138871392177717
h -1.001195965831692 -0.109167707233403 2.082679098379304
h -1.454301628570905 1.600743319146376 1.829972647567286
h 2.666981270923562 -2.918750526657568 -0.897660554031272
h 2.511305955920341 -2.398057387114662 0.785153010731972
h 3.932813968105406 0.252748346135960 -1.668635274871843
h 1.366734583825986 0.333719437240726 1.775025555321654
h 3.003677248759914 -0.325709217405884 1.903884846435736
h 2.768050720127791 1.429587585126020 1.779263917439115
h 4.811405151149454 -1.851581922562544 -1.031405449908830
h 4.672368318053327 -1.507186066619377 0.692876088341000
h -6.367495937089465 -0.102023059926979 0.575750070094337
h 5.069448221011618 0.910475525635920 1.104645533069232
h 4.774638983658889 2.095020061145786 -0.190147342027293
h 5.989950921242873 0.817292928309762 -0.410089427050219

i7e.wfx

