%nprocs=4
%mem=4GB
#p pbepbe aug-cc-pvtz output=wfx scf=(conver=6) int=(grid=ultrafine)

title

0 1
c -2.956004764037546 -0.589972969293671 -0.548312876837732
c -1.820074752451946 0.344712601139649 -1.032490616368103
c -0.471059548666452 -0.407691604928222 -0.901561061808690
c -0.254596389692397 -0.464167440915906 0.664934735021516
c -1.502876828076206 0.273618261528482 1.212438387806992
c -2.739582181834694 -0.635178926596491 1.006271828695579
c -1.735329725792111 1.356937104157095 0.134077037009856
c 0.689566632919447 0.298151283060542 -1.614599062004971
c 2.051482735265947 -0.309994648838504 -1.234474957361740
c 2.258345003632422 -0.438891119594545 0.311552630660613
c 1.076371924145540 0.170844666023051 1.085611268463671
c 3.590643159606236 0.178478077396933 0.756626206997295
h -2.887115220238721 -1.582798618770318 -1.010501109535118
h -3.938608458826026 -0.169500445892237 -0.796585618300911
h -1.985892497162852 0.767680256534871 -2.030314413119597
h -0.561518657957689 -1.424438397948246 -1.308859821652002
h -0.254149008690390 -1.508615345764116 1.007088666419124
h -1.379437684508874 0.632139662366303 2.241144020960211
h -2.560377405420649 -1.652710964738200 1.375875109545998
h -3.611519922173750 -0.231520419638900 1.536090545663906
h -0.900935463834059 2.061451654283129 0.039505654341304
h -2.665467637105194 1.920789456225854 0.283369340972973
h 0.544361556705355 0.243443455379166 -2.702252130369063
h 0.680538128382243 1.364428620524512 -1.349573918839060
h 2.852680308839193 0.306536588339319 -1.666355697289618
h 2.139451810441752 -1.303217355169047 -1.696759773921011
h 2.280056327992438 -1.510079885378559 0.562970429840888
h 1.229505763088514 0.028964940293723 2.164679038509755
h 1.046937710549487 1.256499790147491 0.910248020895064
h 3.599787704321492 1.256448853827537 0.537886507588061
h 4.436259202452145 -0.280453234267477 0.225998486461162
h 3.748558178127281 0.048106106506763 1.836273141553581

i9p.wfx

