&control
 title='crystal',
 prefix='crystal',
 pseudo_dir='.',
 calculation='vc-relax',
/
&system
 ibrav=0,
 celldm(1)=1.0,
 nat=    88,
 ntyp=  4,
 ecutwfc=60.0,
 ecutrho=600.0,
 xdm=.true.,
 xdm_a1=0.4073,
 xdm_a2=2.4150,
/
&electrons
 conv_thr = 1d-8,
/
&ions
/
&cell
/
ATOMIC_SPECIES
h      1.007940 h.UPF
c     12.010700 c.UPF
o     15.999400 o.UPF
br    79.904000 br.UPF

ATOMIC_POSITIONS crystal
br    0.40171243     0.13870431     0.84461240
br    0.90171245     0.36129567     0.15538759
br    0.09827604     0.86130655     0.34460034
br    0.59827605     0.63869344     0.65539966
o     0.35732883     0.96034345     0.97219534
o     0.85732885     0.53965653     0.02780465
o     0.14268409     0.03964349     0.47218846
o     0.64268411     0.46035649     0.52781154
h     0.44395143     0.99915299     0.00437703
h     0.94395144     0.50084699     0.99562297
h     0.05606878     0.00084747     0.50437175
h     0.55606880     0.49915251     0.49562825
o     0.03650336     0.04664574     0.01612700
o     0.53650338     0.45335424     0.98387300
o     0.46351370     0.95335970     0.51611999
o     0.96351372     0.54664029     0.48388000
o     0.10629771     0.48697839     0.94972922
o     0.60629772     0.01302159     0.05027077
o     0.39372606     0.51301313     0.44973452
o     0.89372607     0.98698686     0.55026547
h     0.27018474     0.47548548     0.96311272
h     0.77018476     0.02451450     0.03688727
h     0.22983649     0.52450833     0.46311824
h     0.72983651     0.97549165     0.53688176
c     0.12780791     0.97236984     0.97799121
c     0.62780793     0.52763014     0.02200879
c     0.37221160     0.02761678     0.47798540
c     0.87221161     0.47238320     0.52201459
c     0.99225029     0.88547115     0.93418899
c     0.49225030     0.61452883     0.06581101
c     0.50775581     0.11451921     0.43418035
c     0.00775583     0.38548077     0.56581965
h     0.80808905     0.85962976     0.94426119
h     0.30808907     0.64037023     0.05573881
h     0.69192331     0.14034080     0.44425009
h     0.19192333     0.35965918     0.55574991
h     0.99582041     0.02097127     0.90608415
h     0.49582043     0.47902871     0.09391584
h     0.50415875     0.97903688     0.40607166
h     0.00415877     0.52096310     0.59392833
c     0.09827540     0.66399525     0.91266658
c     0.59827542     0.83600473     0.08733342
c     0.40173590     0.33601552     0.41266829
c     0.90173592     0.16398446     0.58733171
h     0.27885894     0.69928383     0.90084304
h     0.77885896     0.80071615     0.09915695
h     0.22114859     0.30073951     0.40084499
h     0.72114861     0.19926047     0.59915500
c     0.95588411     0.58477660     0.86897296
c     0.45588413     0.91522338     0.13102704
c     0.54411804     0.41524090     0.36897470
c     0.04411806     0.08475908     0.63102530
c     0.77327754     0.42817307     0.87547096
c     0.27327756     0.07182691     0.12452904
c     0.72673314     0.57183934     0.37546561
c     0.22673316     0.92816065     0.62453439
h     0.73436281     0.35992329     0.91172057
h     0.23436283     0.14007669     0.08827943
h     0.76566763     0.64009302     0.41171498
h     0.26566765     0.85990696     0.58828502
c     0.64133537     0.36275687     0.83487743
c     0.14133539     0.13724311     0.16512257
c     0.85865425     0.63724966     0.33487060
c     0.35865427     0.86275032     0.66512940
c     0.67965160     0.45143392     0.78807452
c     0.17965162     0.04856606     0.21192547
c     0.82032332     0.54855977     0.28806626
c     0.32032334     0.95144022     0.71193374
h     0.57220232     0.39910430     0.75700009
h     0.07220234     0.10089568     0.24299991
h     0.92776152     0.60088344     0.25699065
h     0.42776153     0.89911654     0.74300934
c     0.86215213     0.60853507     0.78212574
c     0.36215215     0.89146491     0.21787425
c     0.63782227     0.39145707     0.28212800
c     0.13782229     0.10854291     0.71787200
h     0.89743642     0.67956802     0.74586911
h     0.39743644     0.82043197     0.25413088
h     0.60252525     0.32040897     0.24586976
h     0.10252527     0.17959101     0.75413024
c     0.00031080     0.67261705     0.82207505
c     0.50031081     0.82738293     0.17792495
c     0.49968027     0.32738867     0.32207578
c     0.99968029     0.17261131     0.67792422
h     0.14541585     0.79079589     0.81631798
h     0.64541587     0.70920409     0.18368202
h     0.35456671     0.20921131     0.31632283
h     0.85456673     0.29078867     0.68367716

K_POINTS automatic
2 2 2 1 1 1

CELL_PARAMETERS cubic
   10.777830000000     0.000000000000     0.000000000000
    0.000000000000    11.029157000000     0.000015000000
    0.000000000000     0.000058000000    51.406327000000
