&control
 title='crystal',
 prefix='crystal',
 pseudo_dir='.',
 calculation='vc-relax',
/
&system
 ibrav=0,
 celldm(1)=1.0,
 nat=   108,
 ntyp=  3,
 ecutwfc=60.0,
 ecutrho=600.0,
 xdm=.true.,
 xdm_a1=0.4073,
 xdm_a2=2.4150,
/
&electrons
 conv_thr = 1d-8,
/
&ions
/
&cell
/
ATOMIC_SPECIES
h      1.007940 h.UPF
c     12.010700 c.UPF
o     15.999400 o.UPF

ATOMIC_POSITIONS crystal
o     0.11860611     0.67157731     0.45845674
o     0.88139391     0.32842268     0.54154327
o     0.61860612     0.82842267     0.95845674
o     0.38139389     0.17157731     0.04154327
o     0.13774967     0.81312678     0.58151272
o     0.86225035     0.18687321     0.41848729
o     0.63774968     0.68687320     0.08151272
o     0.36225033     0.31312678     0.91848729
o     0.13120694     0.55436217     0.31547535
o     0.86879309     0.44563782     0.68452466
o     0.63120695     0.94563781     0.81547536
o     0.36879307     0.05436217     0.18452466
c     0.79296445     0.78611905     0.49098891
c     0.20703558     0.21388094     0.50901111
c     0.29296446     0.71388093     0.99098891
c     0.70703556     0.28611905     0.00901110
c     0.02400566     0.76316322     0.51580455
c     0.97599437     0.23683677     0.48419546
c     0.52400567     0.73683676     0.01580456
c     0.47599435     0.26316323     0.98419546
c     0.02318623     0.62170386     0.36526345
c     0.97681380     0.37829613     0.63473657
c     0.52318624     0.87829612     0.86526345
c     0.47681378     0.12170386     0.13473656
c     0.79763034     0.65424987     0.34264691
c     0.20236969     0.34575012     0.65735311
c     0.29763035     0.84575011     0.84264691
c     0.70236967     0.15424988     0.15735310
c     0.66503960     0.58970643     0.42727330
c     0.33496043     0.41029357     0.57272672
c     0.16503961     0.91029356     0.92727330
c     0.83496041     0.08970643     0.07272671
c     0.67017632     0.67297174     0.52537661
c     0.32982371     0.32702825     0.47462340
c     0.17017632     0.82702825     0.02537661
c     0.82982369     0.17297174     0.97462340
c     0.76010226     0.78688025     0.36575800
c     0.23989777     0.21311975     0.63424201
c     0.26010227     0.71311974     0.86575801
c     0.73989775     0.28688025     0.13424200
c     0.91100035     0.86900266     0.30796281
c     0.08899968     0.13099734     0.69203720
c     0.41100036     0.63099733     0.80796281
c     0.58899966     0.36900266     0.19203720
c     0.53262895     0.82023801     0.33305096
c     0.46737107     0.17976198     0.66694906
c     0.03262896     0.67976197     0.83305096
c     0.96737106     0.32023801     0.16694905
c     0.72233264     0.89727069     0.54827332
c     0.27766738     0.10272930     0.45172669
c     0.22233265     0.60272929     0.04827333
c     0.77766737     0.39727070     0.95172668
h     0.75593181     0.62912761     0.25994323
h     0.24406822     0.37087238     0.74005679
h     0.25593182     0.87087237     0.75994323
h     0.74406820     0.12912762     0.24005678
h     0.72701641     0.50161935     0.44626477
h     0.27298361     0.49838064     0.55373525
h     0.22701642     0.99838063     0.94626477
h     0.77298359     0.00161936     0.05373524
h     0.50415866     0.57803315     0.39405133
h     0.49584136     0.42196684     0.60594868
h     0.00415867     0.92196683     0.89405134
h     0.99584135     0.07803316     0.10594868
h     0.51077697     0.70022907     0.54607669
h     0.48922306     0.29977092     0.45392333
h     0.01077698     0.79977091     0.04607669
h     0.98922304     0.20022907     0.95392332
h     0.74256633     0.63144181     0.59697671
h     0.25743369     0.36855818     0.40302331
h     0.24256634     0.86855817     0.09697671
h     0.75743368     0.13144182     0.90302330
h     0.87945314     0.86394170     0.22110497
h     0.12054689     0.13605829     0.77889504
h     0.37945314     0.63605828     0.72110498
h     0.62054687     0.36394171     0.27889504
h     0.07821892     0.84729759     0.32289308
h     0.92178110     0.15270240     0.67710693
h     0.57821893     0.65270239     0.82289308
h     0.42178109     0.34729760     0.17710693
h     0.88847858     0.96094020     0.33280442
h     0.11152144     0.03905979     0.66719560
h     0.38847859     0.53905978     0.83280442
h     0.61152142     0.46094020     0.16719559
h     0.41659884     0.77277609     0.37957103
h     0.58340118     0.22722390     0.62042898
h     0.91659885     0.72722389     0.87957103
h     0.08340117     0.27277609     0.12042898
h     0.50318467     0.79912372     0.24810982
h     0.49681535     0.20087627     0.75189020
h     0.00318468     0.70087626     0.74810982
h     0.99681534     0.29912372     0.25189019
h     0.50635634     0.91513394     0.34256384
h     0.49364368     0.08486605     0.65743617
h     0.00635635     0.58486604     0.84256384
h     0.99364367     0.41513394     0.15743617
h     0.55098483     0.90673288     0.53812737
h     0.44901519     0.09326711     0.46187264
h     0.05098484     0.59326710     0.03812738
h     0.94901518     0.40673289     0.96187264
h     0.79766641     0.97655355     0.51666088
h     0.20233361     0.02344644     0.48333913
h     0.29766642     0.52344643     0.01666089
h     0.70233360     0.47655355     0.98333913
h     0.76085504     0.89262914     0.63438363
h     0.23914498     0.10737086     0.36561638
h     0.26085505     0.60737085     0.13438363
h     0.73914497     0.39262914     0.86561638

K_POINTS automatic
2 2 2 1 1 1

CELL_PARAMETERS cubic
   11.975951000000     0.000000000000    -0.003346000000
    0.000000000000    21.388129000000     0.000000000000
   -0.811366000000     0.000000000000    23.553373000000
