## FHIaims input file generated by critic2.
lattice_vector 3.1531999972       0.0000000000       0.0000000000       
lattice_vector -1.5766000014      2.7307513024       0.0000000000       
lattice_vector 0.0000000000       0.0000000000       11.5230000000      
atom_frac  0.6666663500       0.3333331700       0.1136483600       S 
atom_frac  0.6666663500       0.3333331700       0.3863516400       S 
atom_frac  0.3333331700       0.6666665900       0.6136483600       S 
atom_frac  0.3333331700       0.6666665900       0.8863516400       S 
atom_frac  0.3333331700       0.6666665900       0.2500000000       W 
atom_frac  0.6666663500       0.3333331700       0.7500000000       W 
