&control
 title='crystal',
 prefix='crystal',
 pseudo_dir='../..',
 forc_conv_thr=1.0D-4,
 etot_conv_thr=1.0D-5,
/
&system
 ibrav=0,
 nat=    16,
 ntyp=  3,
 ecutwfc=80.0,
 ecutrho=800.0,
 vdw_corr='xdm',
 nosym=.true.,
/
&electrons
 conv_thr = 1d-10,
/
&ions
/
&cell
 press_conv_thr=0.01,
/
ATOMIC_SPECIES
C    12.010700 c.UPF
H     1.007940 h.UPF
O    15.999400 o.UPF

ATOMIC_POSITIONS crystal
C             0.1452178835        0.0024872185        0.9983039391
C             0.8547823445        0.5024923579        0.5017044913
C             0.8547822464        0.9975132285        0.0016941845
C             0.1452190975        0.4975154246        0.4983088718
H             0.5260742073        0.9024182419        0.1952104804
H             0.4739264344        0.4024183524        0.3047889533
H             0.4739259329        0.0975819663        0.8047887322
H             0.5260747610        0.5975816950        0.6952100978
O             0.1813475156        0.1014503160        0.8153828371
O             0.8186546336        0.6014467423        0.6846099674
O             0.8186525208        0.8985493992        0.1846176983
O             0.1813486005        0.3985484493        0.3153796439
O             0.3357271307        0.8960790245        0.2056012475
O             0.6642720847        0.3960782108        0.2943967097
O             0.6642734235        0.1039212434        0.7943985776
O             0.3357245531        0.6039204195        0.7055998384

K_POINTS automatic
6 4 5  1 1 1

CELL_PARAMETERS bohr
   9.950737690   0.000011572   0.012059827
   0.000013363  11.412335844  -0.000011577
  -4.359106220  -0.000014230   9.161454794
