&control
 title='crystal',
 prefix='crystal',
 pseudo_dir='.',
 calculation='vc-relax',
/
&system
 ibrav=0,
 celldm(1)=1.0,
 nat=    80,
 ntyp=  3,
 ecutwfc=60.0,
 ecutrho=600.0,
 xdm=.true.,
 xdm_a1=0.4073,
 xdm_a2=2.4150,
/
&electrons
 conv_thr = 1d-8,
/
&ions
/
&cell
/
ATOMIC_SPECIES
h      1.007940 h.UPF
c     12.010700 c.UPF
o     15.999400 o.UPF

ATOMIC_POSITIONS crystal
o     0.66693774     0.04866056     0.70197985
o     0.96763677     0.64771437     0.85614388
o     0.29545321     0.12204227     0.87494878
o     0.30277407     0.43592935     0.33304164
o     0.85791069     0.44752855     0.50870882
o     0.68715654     0.09662762     0.07941894
o     0.77632246     0.87262862     0.31387316
o     0.17950222     0.61848841     0.11565959
o     0.34488150     0.73172321     0.70475876
o     0.36945244     0.24932182     0.25325298
o     0.17435052     0.75332033     0.46364982
o     0.68234298     0.53735934     0.94229163
c     0.72282039     0.52414855     0.56222135
c     0.79279391     0.01945570     0.02306922
c     0.49631023     0.62669440     0.54827485
h     0.40150402     0.68154685     0.59378263
c     0.43257785     0.37677715     0.27424852
c     0.84625816     0.80817899     0.94707862
c     0.77595588     0.00031148     0.63854883
c     0.77738175     0.98386688     0.76422370
h     0.66408121     0.02868363     0.80965863
c     0.81385300     0.65217574     0.91830514
c     0.10442560     0.80189694     0.83923916
h     0.32899959     0.76973831     0.83335525
c     0.02982656     0.89382015     0.90229872
c     0.38307195     0.65970121     0.47779161
c     0.99106848     0.60914126     0.17096599
c     0.20470761     0.48290328     0.07343061
h     0.36604606     0.51143997     0.03302721
h     0.00466514     0.46552856     0.04749749
h     0.26977583     0.37359747     0.10681084
c     0.47946228     0.01461584     0.12336871
h     0.42356600     0.09379894     0.16516820
h     0.56687793     0.89894736     0.14722905
h     0.29537343     0.99436814     0.09148339
c     0.53317491     0.57308770     0.42329000
c     0.10690247     0.04569345     0.91914709
c     0.13363919     0.82649259     0.70298250
c     0.04860272     0.38204763     0.65011478
h     0.14679536     0.31717582     0.60766546
c     0.38274221     0.27582645     0.89359575
h     0.54626869     0.31159176     0.85502174
h     0.47047030     0.26540616     0.94734650
h     0.20744344     0.36549495     0.88963241
c     0.00337383     0.89571388     0.63794181
h     0.08421574     0.86260385     0.58652343
c     0.98498046     0.10776042     0.97945996
h     0.03068525     0.22681438     0.99376029
c     0.76040702     0.47619247     0.44144824
h     0.88838563     0.41146190     0.40398283
c     0.99826172     0.87635494     0.76849704
c     0.72181941     0.86562107     0.00818337
h     0.57784286     0.79374201     0.04123530
c     0.96018262     0.00305406     0.29791096
h     0.91483236     0.08740598     0.33817249
h     0.91811470     0.06351279     0.24477470
h     0.18111749     0.96109382     0.30174115
c     0.64009043     0.49108019     0.24607241
c     0.80104994     0.74856483     0.27179669
c     0.61628735     0.07380598     0.57857720
h     0.46191087     0.16652143     0.59223358
c     0.63055665     0.61825244     0.28882383
c     0.81704098     0.48062578     0.18668770
h     0.81694235     0.37713403     0.15552644
c     0.83499147     0.48788878     0.63292591
h     0.72996732     0.55576642     0.67344656
c     0.42278961     0.58887100     0.34838579
h     0.24752518     0.67892758     0.34709487
c     0.63513579     0.03239314     0.51094077
h     0.78713137     0.93778613     0.49711396
c     0.98159764     0.74175598     0.21278379
h     0.11985566     0.83865863     0.19760324
c     0.16223177     0.34825123     0.72326683
h     0.16527146     0.21925153     0.74031380
h     0.04265597     0.41498972     0.76218629
h     0.38156580     0.38308120     0.72437144
c     0.44819587     0.10505045     0.45311484
h     0.56736238     0.15244887     0.40612885
h     0.30947678     0.20213576     0.47103004
h     0.31958689     0.01127041     0.43452142

K_POINTS automatic
2 2 2 1 1 1

CELL_PARAMETERS cubic
    9.013987000000     0.021834000000    -0.004170000000
    0.678979000000    15.788202000000     0.123634000000
    0.534270000000     2.742562000000    35.388350000000
