&control
 title='crystal',
 prefix='crystal',
 pseudo_dir='.',
 calculation='vc-relax',
/
&system
 ibrav=0,
 celldm(1)=1.0,
 nat=    56,
 ntyp=  5,
 ecutwfc=60.0,
 ecutrho=600.0,
 xdm=.true.,
 xdm_a1=0.4073,
 xdm_a2=2.4150,
/
&electrons
 conv_thr = 1d-8,
/
&ions
/
&cell
/
ATOMIC_SPECIES
h      1.007940 h.UPF
c     12.010700 c.UPF
n     14.006700 n.UPF
o     15.999400 o.UPF
s     32.065000 s.UPF

ATOMIC_POSITIONS crystal
s     0.40871934     0.02502815     0.61089277
s     0.90871933     0.47497185     0.38910730
s     0.59128206     0.52502800     0.88910588
s     0.09128206     0.97497200     0.11089418
c     0.43343835     0.88401653     0.74054129
c     0.93343834     0.61598347     0.25945878
c     0.56656148     0.38401684     0.75946065
c     0.06656147     0.11598315     0.24053942
c     0.59033610     0.82329997     0.66365325
c     0.09033610     0.67670002     0.33634682
c     0.40966414     0.32329988     0.83635039
c     0.90966414     0.17670012     0.16364968
c     0.60787178     0.81989831     0.38151343
c     0.10787177     0.68010168     0.61848663
c     0.39212287     0.31990144     0.11848985
c     0.89212286     0.18009856     0.88151022
n     0.73637338     0.87494724     0.78233947
n     0.23637337     0.62505276     0.21766060
n     0.26362580     0.37494782     0.71766572
n     0.76362580     0.12505217     0.28233435
o     0.51057922     0.75756281     0.26484311
o     0.01057921     0.74243719     0.73515696
o     0.48942374     0.25756031     0.23516691
o     0.98942373     0.24243969     0.76483316
o     0.71868543     0.88120677     0.28600726
o     0.21868542     0.61879322     0.71399281
o     0.28131736     0.38120550     0.21399427
o     0.78131736     0.11879450     0.78600580
h     0.33718098     0.99246924     0.39600614
h     0.83718097     0.50753076     0.60399393
h     0.66282068     0.49246898     0.10399372
h     0.16282067     0.00753101     0.89600635
h     0.43059454     0.89290016     0.94161399
h     0.93059454     0.60709984     0.05838608
h     0.56940344     0.39290089     0.55838756
h     0.06940344     0.10709911     0.44161251
h     0.32783025     0.83275084     0.68892767
h     0.82783024     0.66724916     0.31107240
h     0.67216968     0.33275083     0.81107236
h     0.17216967     0.16724917     0.18892770
h     0.58214852     0.73647637     0.73239660
h     0.08214851     0.76352363     0.26760346
h     0.41785126     0.23647680     0.76760980
h     0.91785125     0.26352319     0.23239026
h     0.84328710     0.83238986     0.73008804
h     0.34328710     0.66761013     0.26991202
h     0.15671285     0.33239010     0.76991438
h     0.65671285     0.16760989     0.23008569
h     0.74882421     0.95983151     0.74154577
h     0.24882420     0.54016848     0.25845430
h     0.25117524     0.45983139     0.75845552
h     0.75117524     0.04016861     0.24154455
h     0.72730037     0.86978488     0.97779073
h     0.22730036     0.63021512     0.02220934
h     0.27269975     0.36978535     0.52221141
h     0.77269975     0.13021465     0.47778866

K_POINTS automatic
2 2 2 1 1 1

CELL_PARAMETERS cubic
   15.436462000000     0.000000000000     0.000000000000
    0.000000000000    22.423158000000     0.000044000000
    0.000000000000     0.000021000000    10.249469000000
