%nprocs=4
%mem=4GB
#p pbepbe aug-cc-pvtz output=wfx scf=(conver=6) int=(grid=ultrafine)

title

0 1
c 0.703014946917916 1.815644863184856 0.000000000000000
h 0.188714985623571 2.202082833900156 0.879663933874695
h 0.188714985623571 2.202082833900156 -0.879663933874695
h 1.714335871014832 2.218926832851154 0.000000000000000
c 0.703014946917916 0.292667977848973 0.000000000000000
h 1.243417906494175 -0.076943994407257 -0.874425934130846
h 1.243417906494175 -0.076943994407257 0.874425934130846
c -0.703014946917916 -0.292667977848973 0.000000000000000
h -1.243417906494175 0.076943994407257 -0.874425934130846
h -1.243417906494175 0.076943994407257 0.874425934130846
c -0.703014946917916 -1.815644863184856 0.000000000000000
h -0.188714985623571 -2.202082833900156 0.879663933874695
h -1.714335871014832 -2.218926832851154 0.000000000000000
h -0.188714985623571 -2.202082833900156 -0.879663933874695

B_T.wfx

