%nprocs=4
%mem=4GB
#p pbepbe aug-cc-pvtz output=wfx scf=(conver=6) int=(grid=ultrafine)

title

0 1
c 0.000000000000000 2.532995809128531 0.301658977405922
c 0.000000000000000 1.271827904147126 -0.551881958463439
c 0.000000000000000 0.000000000000000 0.285279978639187
c 0.000000000000000 -1.271827904147126 -0.551881958463439
c 0.000000000000000 -2.532995809128531 0.301658977405922
h 0.000000000000000 3.433870741413241 -0.309889976640286
h 0.874442933948672 -1.269243904320366 -1.206536908972537
h -0.874442933948672 -1.269243904320366 -1.206536908972537
h 0.879626933804271 2.565140806725215 0.944371928697631
h -0.879626933804271 2.565140806725215 0.944371928697631
h -0.875132933931902 0.000000000000000 0.941802928928026
h 0.875132933931902 0.000000000000000 0.941802928928026
h -0.874442933948672 1.269243904320366 -1.206536908972537
h 0.874442933948672 1.269243904320366 -1.206536908972537
h 0.000000000000000 -3.433870741413241 -0.309889976640286
h 0.879626933804271 -2.565140806725215 0.944371928697631
h -0.879626933804271 -2.565140806725215 0.944371928697631

P_TT.wfx

