%nprocs=4
%mem=2GB
#p pbepbe aug-cc-pvtz output=wfx scf=(conver=6) int=(grid=ultrafine)

title

1 1
N -1.9200876000 0.5755763000 0.2216713000
N -0.0404223000 2.0190055000 0.0469341000
N 1.2314340000 -1.2892472000 -0.2388850000
N 1.9786530000 0.7648254000 0.2274167000
N -1.7413501000 -1.7012226000 0.1441804000
C 2.2342587000 -0.6061983000 0.1546202000
C 0.7084826000 0.9601446000 -0.1238782000
C -1.2047586000 -0.5134152000 -0.0027285000
C -1.3549977000 1.7773022000 0.1112302000
C 0.1762965000 -0.3561533000 -0.5611947000
H 2.6098058000 1.4698384000 0.5828808000
H -2.7055713000 -1.7733443000 0.4339437000
H -1.2034311000 -2.5426309000 0.0086118000
H -2.0085235000 2.6386463000 0.2156212000
H 3.1945852000 -1.0127537000 0.4340747000
H 0.0456264000 -0.4103731000 -1.6544986000

Ap.wfx

