%nprocs=4
%mem=2GB
#p pbepbe aug-cc-pvtz output=wfx scf=(conver=6) int=(grid=ultrafine)

title

1 1
C 1.1951448000 0.2854299000 -0.1938315000
C 0.0634603000 -0.4590361000 0.1754255000
C 0.1067101000 -1.8382108000 0.1952998000
C 1.2764356000 -2.4841536000 -0.1752222000
C 2.4023150000 -1.7663114000 -0.5619647000
C 2.3660749000 -0.3894783000 -0.5664024000
C 1.1989276000 1.7302814000 -0.1693315000
O -1.0527751000 0.2290730000 0.5679736000
O 0.2665806000 2.4502406000 0.3157742000
O 2.2105110000 2.3299392000 -0.6565585000
C -2.2851831000 -0.0433421000 0.0010165000
H 2.1729903000 3.3001865000 -0.5875750000
O -2.3999469000 -0.8163376000 -0.8935840000
C -3.3451560000 0.7609279000 0.6664835000
H -0.7522390000 -2.4157216000 0.5089908000
H 1.3076938000 -3.5661430000 -0.1539661000
H 3.3089408000 -2.2831901000 -0.8460358000
H 3.2520962000 0.1647441000 -0.8456808000
H -3.4054623000 0.4989095000 1.7241207000
H -4.3046820000 0.5717552000 0.1934910000
H -3.1226601000 1.8276043000 0.6053172000
H -0.4597765000 1.9128330000 0.6962596000

assp.wfx

