%nprocs=4
%mem=2GB
#p pbepbe aug-cc-pvtz output=wfx scf=(conver=6) int=(grid=ultrafine)

title

0 1
C 0.0000000000 0.0000000000 0.5987244000
H 0.0000000000 0.0000000000 1.6617470000
C 0.0000000000 0.0000000000 -0.5987244000
H 0.0000000000 0.0000000000 -1.6617470000

c2h2.wfx

