%nprocs=4
%mem=2GB
#p pbepbe aug-cc-pvtz output=wfx scf=(conver=6) int=(grid=ultrafine)

title

0 1
S 0.0000000000 0.0000000000 1.4943318000
C 0.0000000000 0.0000000000 -0.1100613000
H -0.9184864000 0.0000000000 -0.6921352000
H 0.9184864000 0.0000000000 -0.6921352000

ch2s.wfx

