%nprocs=4
%mem=2GB
#p pbepbe aug-cc-pvtz output=wfx scf=(conver=6) int=(grid=ultrafine)

title

0 1
C 0.2801641000 0.2363799000 0.4721175000
H 0.7322594000 0.4313174000 1.4529444000
C 1.1862123000 -0.8044421000 -0.1870296000
O 2.0175999000 -0.2970596000 -1.0662146000
H 1.7891604000 0.6651618000 -1.1179362000
O 1.1742371000 -1.9793194000 0.0795559000
N 0.3513133000 1.4590235000 -0.3023605000
H -0.3899933000 1.4955662000 -0.9949159000
H 0.2708290000 2.2802078000 0.2813820000
C -1.1204881000 -0.3106043000 0.7260714000
H -1.0910377000 -1.2105235000 1.3385829000
H -1.7002518000 0.4341965000 1.2725335000
S -2.0592556000 -0.6341794000 -0.7983633000
H -1.4407491000 -1.7657248000 -1.1563674000

cys.wfx

