%nprocs=4
%mem=2GB
#p pbepbe aug-cc-pvtz output=wfx scf=(conver=6) int=(grid=ultrafine)

title

0 1
C -0.8087379000 -0.4301667000 0.0668882000
C 0.6620495000 -0.0616330000 0.0702366000
O 0.8876679000 1.3276708000 0.1632794000
H -0.9283904000 -1.5148275000 0.0379352000
H -1.3132460000 -0.0605657000 0.9613737000
H -1.3213008000 -0.0203607000 -0.8067545000
H 1.1479469000 -0.4875769000 -0.8171308000
H 1.1502148000 -0.5108198000 0.9386281000
H 0.5237959000 1.7582796000 -0.6144559000

ethanol.wfx

