%nprocs=4
%mem=2GB
#p pbepbe aug-cc-pvtz output=wfx scf=(conver=6) int=(grid=ultrafine)

title

1 1
O 0.0000000000 0.0000000000 0.1966639000
H -0.4720676000 0.8176451000 -0.0655546000
H -0.4720676000 -0.8176451000 -0.0655546000
H 0.9441353000 0.0000000000 -0.0655546000

h2op.wfx

