%nprocs=4
%mem=2GB
#p pbepbe aug-cc-pvtz output=wfx scf=(conver=6) int=(grid=ultrafine)

title

0 1
S 0.0000000000 0.0000000000 -0.6181504000
H -0.9755323000 0.0000000000 0.3090752000
H 0.9755323000 0.0000000000 0.3090752000

h2s.wfx

