%nprocs=4
%mem=2GB
#p pbepbe aug-cc-pvtz output=wfx scf=(conver=6) int=(grid=ultrafine)

title

1 1
Cl 0.0000000000 0.0000000000 -0.5924005000
H -0.9709660000 0.0000000000 0.2962002000
H 0.9709660000 0.0000000000 0.2962002000

hclp.wfx

