%nprocs=4
%mem=2GB
#p pbepbe aug-cc-pvtz output=wfx scf=(conver=6) int=(grid=ultrafine)

title

0 1
N 0.0000000000 0.0000000000 0.2812366000
H -0.4708398000 0.8155184000 -0.0937455000
H -0.4708398000 -0.8155184000 -0.0937455000
H 0.9416795000 0.0000000000 -0.0937455000

nh3.wfx

