%nprocs=4
%mem=2GB
#p pbepbe aug-cc-pvtz output=wfx scf=(conver=6) int=(grid=ultrafine)

title

0 1
H 0.0000000000 0.0000000000 -0.3716075000
H 0.0000000000 0.0000000000 0.3716075000

h2.wfx

