%nprocs=4
%mem=2GB
#p pbepbe aug-cc-pvtz output=wfx scf=(conver=6) int=(grid=ultrafine)

title

1 1
C -4.4907170000 -0.2846965000 0.0000000000
C -3.3409980000 0.4221291000 0.0000000000
C -2.0728169000 -0.2209986000 0.0000000000
C -0.8613216000 0.4399317000 0.0000000000
C 0.3442238000 -0.2574434000 0.0000000000
C 1.6153368000 0.3435008000 0.0000000000
C 2.7546432000 -0.4079159000 0.0000000000
C 4.1280936000 0.1239324000 0.0000000000
H -4.4912404000 -1.3692606000 0.0000000000
H -5.4559838000 0.2058217000 0.0000000000
H -3.3689544000 1.5067433000 0.0000000000
H -2.0671613000 -1.3088235000 0.0000000000
H -0.8453043000 1.5251322000 0.0000000000
H 0.3021542000 -1.3445582000 0.0000000000
H 1.6841721000 1.4268192000 0.0000000000
H 2.6515138000 -1.4915014000 0.0000000000
H 4.1658618000 1.2119197000 0.0000000000
H 4.6742492000 -0.2603660000 0.8704726000
H 4.6742492000 -0.2603660000 -0.8704726000

p8p.wfx

