%nprocs=4
%mem=2GB
#p pbepbe aug-cc-pvtz output=wfx scf=(conver=6) int=(grid=ultrafine)

title

0 1
O 0.0000000000 0.0000000000 -0.3903289000
H -0.7621473000 0.0000000000 0.1951645000
H 0.7621473000 0.0000000000 0.1951645000

h2o.wfx

