%nprocs=4
%mem=2GB
#p pbepbe aug-cc-pvtz output=wfx scf=(conver=6) int=(grid=ultrafine)

title

0 1
C 0.0000000000 0.0000000000 -0.7697291000
C 0.0000000000 0.0000000000 0.7697291000
F 1.0788739000 0.6228881000 -1.2232131000
F -0.0000000000 -1.2457763000 -1.2232131000
F -1.0788739000 0.6228881000 -1.2232131000
F 1.0788739000 -0.6228881000 1.2232131000
F -0.0000000000 1.2457763000 1.2232131000
F -1.0788739000 -0.6228881000 1.2232131000

c2f6.wfx

