%nprocs=4
%mem=2GB
#p pbepbe aug-cc-pvtz output=wfx scf=(conver=6) int=(grid=ultrafine)

title

0 1
P 0.0000000000 0.0000000000 0.5756497000
H -0.5982048000 1.0361212000 -0.1918832000
H -0.5982048000 -1.0361212000 -0.1918832000
H 1.1964097000 0.0000000000 -0.1918832000

ph3.wfx

