%nprocs=4
%mem=2GB
#p pbepbe aug-cc-pvtz output=wfx scf=(conver=6) int=(grid=ultrafine)

title

0 1
O 2.5979861000 1.3770422000 0.0000000000
N 0.3324981000 1.3062133000 0.0000000000
N -1.9381527000 1.1791133000 0.0000000000
N 1.6145203000 -0.6535054000 0.0000000000
C -0.7582834000 0.5606028000 0.0000000000
C -0.7160116000 -0.8705119000 0.0000000000
C 1.5550293000 0.7346668000 0.0000000000
C 0.5114982000 -1.4286075000 0.0000000000
H -1.6117751000 -1.4745325000 0.0000000000
H 0.6727631000 -2.4980199000 0.0000000000
H -2.8042131000 0.6683521000 0.0000000000
H -1.9835316000 2.1847070000 0.0000000000
H 2.5276724000 -1.0855203000 0.0000000000

C.wfx

