%nprocs=4
%mem=2GB
#p pbepbe aug-cc-pvtz output=wfx scf=(conver=6) int=(grid=ultrafine)

title

0 1
C 0.0448451000 -1.1318212000 0.0000000000
C 1.2587199000 -0.4475670000 0.0000000000
C 1.2676616000 0.9385633000 0.0000000000
C 0.0783101000 1.6579315000 0.0000000000
C -1.1270998000 0.9694567000 0.0000000000
C -1.1509464000 -0.4186228000 0.0000000000
O 0.0894230000 -2.4781674000 0.0000000000
H 2.1893713000 -1.0038289000 0.0000000000
H 2.2169752000 1.4613565000 0.0000000000
H 0.0918620000 2.7408200000 0.0000000000
H -2.0639475000 1.5140924000 0.0000000000
H -2.1009529000 -0.9440328000 0.0000000000
H -0.7942217000 -2.8581803000 0.0000000000

phenol.wfx

