%nprocs=4
%mem=2GB
#p pbepbe aug-cc-pvtz output=wfx scf=(conver=6) int=(grid=ultrafine)

title

1 1
Si -0.0057029000 1.5911610000 -0.0004416000
Si 0.0057029000 -1.5911610000 -0.0004416000
H 1.4272938000 1.8456341000 -0.0575775000
H -0.6735230000 1.8434090000 1.2683683000
H -0.7720257000 1.8326085000 -1.2146930000
H 0.6735230000 -1.8434090000 1.2683683000
H 0.7720257000 -1.8326085000 -1.2146930000
H -1.4272938000 -1.8456341000 -0.0575775000
H 0.0000000000 0.0000000000 0.0086873000

si2h6p.wfx

