%nprocs=4
%mem=4GB
#p pbepbe aug-cc-pvtz output=wfx scf=(conver=6) int=(grid=ultrafine)

title

0 1
Cl 1.732530000000000 0.148740000000000 -0.000000000000000
C -0.008350000000000 0.588920000000000 0.000000000000000
H -0.175650000000000 1.198740000000000 0.884400000000000
H -0.175650000000000 1.198740000000000 -0.884400000000000
C -0.894180000000000 -0.642730000000000 0.000000000000000
H -0.662070000000000 -1.248640000000000 0.876670000000000
H -0.662070000000000 -1.248640000000000 -0.876670000000000
C -2.370640000000000 -0.252300000000000 -0.000000000000000
H -2.621540000000000 0.339310000000000 0.881940000000000
H -2.621540000000000 0.339310000000000 -0.881940000000000
H -3.006350000000000 -1.137050000000000 -0.000000000000000

1-Chloropropane.wfx

