%nprocs=4
%mem=4GB
#p pbepbe aug-cc-pvtz output=wfx scf=(conver=6) int=(grid=ultrafine)

title

1 2
C 51.084629999999997 31.057710000000000 0.008390000000000
C 49.896009999999997 30.241000000000000 0.046300000000000
C 49.328600000000002 29.851430000000001 -1.221600000000000
C 49.344799999999999 29.861979999999999 1.204950000000000
N 52.036690000000000 31.711910000000000 -0.014740000000000
N 48.868929999999999 29.535799999999998 -2.233530000000000
H 48.456760000000003 29.248819999999998 1.215050000000000
H 49.780980000000000 30.164549999999998 2.144570000000000

1_1-Dicyanoethylene+.wfx

