%nprocs=4
%mem=4GB
#p pbepbe aug-cc-pvtz output=wfx scf=(conver=6) int=(grid=ultrafine)

title

1 2
C 3.174120000000000 1.922870000000000 0.278510000000000
C 1.685260000000000 2.044370000000000 0.363280000000000
N 1.009550000000000 0.914790000000000 0.003970000000000
O 1.120930000000000 3.064590000000000 0.700350000000000
C 3.952400000000000 2.947060000000000 0.619450000000000
H 3.596640000000000 0.986940000000000 -0.064460000000000
H 0.016510000000000 0.903360000000000 0.142170000000000
H 1.486460000000000 0.043260000000000 -0.113390000000000
H 3.503320000000000 3.871230000000000 0.955560000000000
H 5.029520000000000 2.882050000000000 0.568040000000000

2-Propenamide+.wfx

