%nprocs=4
%mem=4GB
#p pbepbe aug-cc-pvtz output=wfx scf=(conver=6) int=(grid=ultrafine)

title

1 2
B 0.000000000000000 -0.000030000000000 0.000000000000000
Cl 0.000000000000000 1.744420000000000 0.000000000000000
Cl 1.510730000000000 -0.872250000000000 0.000000000000000
Cl -1.510730000000000 -0.872250000000000 0.000000000000000

BCl3+.wfx

