%nprocs=4
%mem=4GB
#p pbepbe aug-cc-pvtz output=wfx scf=(conver=6) int=(grid=ultrafine)

title

1 2
C 0.903830000000000 -0.048840000000000 -0.152370000000000
C 2.393980000000000 0.182740000000000 -0.223340000000000
O 3.054380000000000 -0.150740000000000 -1.182280000000000
C 3.011240000000000 0.851570000000000 0.966320000000000
C 4.318950000000000 1.104750000000000 1.013750000000000
H 0.386990000000000 0.903600000000000 -0.020840000000000
H 0.666380000000000 -0.667040000000000 0.715410000000000
H 0.558490000000000 -0.535570000000000 -1.059550000000000
H 2.357970000000000 1.121830000000000 1.786220000000000
H 4.951880000000000 0.825530000000000 0.182410000000000
H 4.773820000000000 1.586450000000000 1.867390000000000

Butenone+.wfx

