%nprocs=4
%mem=4GB
#p pbepbe aug-cc-pvtz output=wfx scf=(conver=6) int=(grid=ultrafine)

title

1 2
C 1.040140000000000 0.054700000000000 0.069500000000000
C 2.243410000000000 0.054700000000000 0.069500000000000
H -0.021880000000000 0.054700000000000 0.069500000000000
H 3.305430000000000 0.054700000000000 0.069500000000000

C2H2+.wfx

