%nprocs=4
%mem=4GB
#p pbepbe aug-cc-pvtz output=wfx scf=(conver=6) int=(grid=ultrafine)

title

0 1
C 0.984930000000000 0.000000000000000 0.000000000000000
N -0.170640000000000 0.000000000000000 0.000000000000000
C 2.376670000000000 0.000000000000000 0.000000000000000
N 3.532240000000000 0.000000000000000 0.000000000000000

C2N2.wfx

