%nprocs=4
%mem=4GB
#p pbepbe aug-cc-pvtz output=wfx scf=(conver=6) int=(grid=ultrafine)

title

1 2
C 0.000000000000000 -0.000020000000000 -0.809770000000000
Br 0.000000000000000 -0.000010000000000 1.120010000000000
F -0.000000000000000 1.238510000000000 -1.266590000000000
F 1.072600000000000 -0.619290000000000 -1.266570000000000
F -1.072600000000000 -0.619290000000000 -1.266570000000000

CBrF3+.wfx

