%nprocs=4
%mem=4GB
#p pbepbe aug-cc-pvtz output=wfx scf=(conver=6) int=(grid=ultrafine)

title

0 1
Cl 2.452600000000000 0.027480000000000 0.052030000000000
C 1.235920000000000 0.621670000000000 1.172880000000000
F 1.376890000000000 0.041170000000000 2.349500000000000
F 1.356520000000000 1.926550000000000 1.327900000000000
F 0.026470000000000 0.360220000000000 0.714480000000000

CClF3.wfx

