%nprocs=4
%mem=4GB
#p pbepbe aug-cc-pvtz output=wfx scf=(conver=6) int=(grid=ultrafine)

title

0 1
C 0.000000000000000 0.000000000000000 1.381110000000000
C 0.000000000000000 0.000000000000000 0.062760000000000
H 0.000000000000000 0.935840000000000 1.910990000000000
H 0.000000000000000 -0.935840000000000 1.910990000000000
F 0.000000000000000 1.075450000000000 -0.693130000000000
F 0.000000000000000 -1.075450000000000 -0.693130000000000

CH2CF2.wfx

