%nprocs=4
%mem=4GB
#p pbepbe aug-cc-pvtz output=wfx scf=(conver=6) int=(grid=ultrafine)

title

0 1
C 0.000000000000000 0.000000000000000 0.767530000000000
H -0.894040000000000 0.000000000000000 1.376150000000000
H 0.894040000000000 0.000000000000000 1.376150000000000
Cl -0.000000000000000 1.474510000000000 -0.216270000000000
Cl -0.000000000000000 -1.474510000000000 -0.216270000000000

CH2Cl2.wfx

