%nprocs=4
%mem=4GB
#p pbepbe aug-cc-pvtz output=wfx scf=(conver=6) int=(grid=ultrafine)

title

1 2
C -0.000030000000000 0.593930000000000 0.000060000000000
C -1.266880000000000 -0.256970000000000 0.000020000000000
C 1.266850000000000 -0.256900000000000 -0.000020000000000
H -0.000040000000000 1.248470000000000 0.874650000000000
H -0.000060000000000 1.248590000000000 -0.874430000000000
H -2.165830000000000 0.360120000000000 0.000030000000000
H 2.165770000000000 0.360230000000000 -0.000030000000000
H -1.302250000000000 -0.900880000000000 0.880870000000000
H -1.302220000000000 -0.900830000000000 -0.880860000000000
H 1.302210000000000 -0.900750000000000 -0.880910000000000
H 1.302270000000000 -0.900820000000000 0.880820000000000

CH3CH2CH3+.wfx

