%nprocs=4
%mem=4GB
#p pbepbe aug-cc-pvtz output=wfx scf=(conver=6) int=(grid=ultrafine)

title

1 2
C 2.115580000000000 0.691030000000000 0.949200000000000
C 1.088330000000000 0.531330000000000 2.048060000000000
C 1.473290000000000 1.072870000000000 3.407030000000000
O 0.019110000000000 0.001930000000000 1.850910000000000
H 3.048250000000000 0.201720000000000 1.234130000000000
H 2.339500000000000 1.748450000000000 0.798910000000000
H 1.739730000000000 0.259850000000000 0.026060000000000
H 2.395420000000000 0.602240000000000 3.751370000000000
H 0.674970000000000 0.886220000000000 4.119230000000000
H 1.664620000000000 2.145160000000000 3.339700000000000

CH3COCH3+.wfx

