%nprocs=4
%mem=4GB
#p pbepbe aug-cc-pvtz output=wfx scf=(conver=6) int=(grid=ultrafine)

title

1 2
C 1.606500000000000 2.537160000000000 0.787850000000000
C 1.894150000000000 1.055400000000000 0.902010000000000
N 1.804240000000000 0.536400000000000 2.159030000000000
O 2.189190000000000 0.379170000000000 -0.060950000000000
H 2.426820000000000 3.007400000000000 0.250720000000000
H 0.702540000000000 2.668440000000000 0.195330000000000
H 1.476610000000000 3.027400000000000 1.750880000000000
H 1.918780000000000 -0.453210000000000 2.270810000000000
H 1.478560000000000 1.081190000000000 2.930880000000000

CH3CONH2+.wfx

