%nprocs=4
%mem=4GB
#p pbepbe aug-cc-pvtz output=wfx scf=(conver=6) int=(grid=ultrafine)

title

0 1
F -0.022200000000000 1.620500000000000 0.356400000000000
C 1.146490000000000 1.042650000000000 0.798700000000000
H 0.955820000000000 0.001860000000000 1.054670000000000
H 1.500160000000000 1.579370000000000 1.677320000000000
H 1.893230000000000 1.096910000000000 0.008410000000000

CH3F.wfx

