%nprocs=4
%mem=4GB
#p pbepbe aug-cc-pvtz output=wfx scf=(conver=6) int=(grid=ultrafine)

title

0 1
O 0.000000000000000 0.000000000000000 0.596160000000000
C 0.000000000000000 1.160430000000000 -0.197360000000000
C 0.000000000000000 -1.160430000000000 -0.197360000000000
H -0.000000000000000 2.017620000000000 0.471430000000000
H -0.000000000000000 -2.017620000000000 0.471430000000000
H 0.888550000000000 1.207750000000000 -0.837020000000000
H -0.888550000000000 1.207750000000000 -0.837020000000000
H -0.888550000000000 -1.207750000000000 -0.837020000000000
H 0.888550000000000 -1.207750000000000 -0.837020000000000

CH3OCH3.wfx

