%nprocs=4
%mem=4GB
#p pbepbe aug-cc-pvtz output=wfx scf=(conver=6) int=(grid=ultrafine)

title

1 2
C 0.000000000000000 0.000030000000000 -1.244990000000000
Si 0.000000000000000 0.000040000000000 0.636260000000000
H -0.000000000000000 -1.018860000000000 -1.633170000000000
H -0.882380000000000 0.509470000000000 -1.633180000000000
H 0.882380000000000 0.509470000000000 -1.633180000000000
H -0.000000000000000 1.389800000000000 1.158690000000000
H -1.203550000000000 -0.694870000000000 1.158690000000000
H 1.203550000000000 -0.694870000000000 1.158690000000000

CH3SiH3+.wfx

