%nprocs=4
%mem=4GB
#p pbepbe aug-cc-pvtz output=wfx scf=(conver=6) int=(grid=ultrafine)

title

0 1
S 0.000000000000000 0.130780000000000 0.441560000000000
O -0.000000000000000 1.390510000000000 -0.361100000000000
C 1.344010000000000 -0.884930000000000 -0.215180000000000
C -1.344010000000000 -0.884930000000000 -0.215180000000000
H 2.273730000000000 -0.382760000000000 0.040670000000000
H -2.273730000000000 -0.382760000000000 0.040670000000000
H 1.318870000000000 -1.876510000000000 0.234430000000000
H 1.237360000000000 -0.937340000000000 -1.297400000000000
H -1.318870000000000 -1.876510000000000 0.234430000000000
H -1.237360000000000 -0.937340000000000 -1.297400000000000

CH3SOCH3.wfx

