%nprocs=4
%mem=4GB
#p pbepbe aug-cc-pvtz output=wfx scf=(conver=6) int=(grid=ultrafine)

title

0 1
N 0.936560000000000 0.945520000000000 -0.051730000000000
C 2.066320000000000 1.742490000000000 0.032840000000000
N 3.249200000000000 1.036020000000000 -0.110020000000000
O 2.024100000000000 2.937900000000000 0.213610000000000
H 0.099370000000000 1.485000000000000 -0.185580000000000
H 1.004810000000000 0.146350000000000 -0.657200000000000
H 3.242570000000000 0.090980000000000 0.231740000000000
H 4.048520000000000 1.568310000000000 0.185940000000000

CH4N2O.wfx

