%nprocs=4
%mem=4GB
#p pbepbe aug-cc-pvtz output=wfx scf=(conver=6) int=(grid=ultrafine)

title

1 2
C -0.003570000000000 0.427320000000000 0.000000000000000
C -0.708350000000000 -0.691020000000000 0.000000000000000
F 1.303650000000000 0.496820000000000 0.000000000000000
F -0.558300000000000 1.618430000000000 0.000000000000000
F -0.099970000000000 -1.879560000000000 0.000000000000000
H -1.783250000000000 -0.700800000000000 0.000000000000000

CHFCF2+.wfx

