%nprocs=4
%mem=4GB
#p pbepbe aug-cc-pvtz output=wfx scf=(conver=6) int=(grid=ultrafine)

title

0 1
Cl 1.092540000000000 0.026200000000000 0.057900000000000
Cl 3.101960000000000 0.026200000000000 0.057900000000000

Cl2.wfx

