%nprocs=4
%mem=4GB
#p pbepbe aug-cc-pvtz output=wfx scf=(conver=6) int=(grid=ultrafine)

title

0 1
Cl 1.011870000000000 0.071100000000000 -0.061800000000000
F 2.644930000000000 0.071100000000000 -0.061800000000000

ClF.wfx

