%nprocs=4
%mem=4GB
#p pbepbe aug-cc-pvtz output=wfx scf=(conver=6) int=(grid=ultrafine)

title

0 1
O 0.000000000000000 0.000000000000000 -0.010920000000000
Cl 0.000000000000000 0.000000000000000 1.580520000000000

ClO.wfx

