%nprocs=4
%mem=4GB
#p pbepbe aug-cc-pvtz output=wfx scf=(conver=6) int=(grid=ultrafine)

title

0 1
C 1.032880000000000 -0.063100000000000 0.065700000000000
O 2.161620000000000 -0.063100000000000 0.065700000000000

CO.wfx

