%nprocs=4
%mem=4GB
#p pbepbe aug-cc-pvtz output=wfx scf=(conver=6) int=(grid=ultrafine)

title

0 1
C 1.046800000000000 -0.024200000000000 0.085900000000000
O -0.112400000000000 -0.024200000000000 0.085900000000000
O 2.206000000000000 -0.024200000000000 0.085900000000000

CO2.wfx

