%nprocs=4
%mem=4GB
#p pbepbe aug-cc-pvtz output=wfx scf=(conver=6) int=(grid=ultrafine)

title

1 2
C 0.000000000000000 0.000000000000000 0.000000000000000
S 0.000000000000000 0.000000000000000 1.557020000000000
S 0.000000000000000 0.000000000000000 -1.557020000000000

CS2+.wfx

