%nprocs=4
%mem=4GB
#p pbepbe aug-cc-pvtz output=wfx scf=(conver=6) int=(grid=ultrafine)

title

1 2
C 0.000000000000000 0.869160000000000 -0.000000000000000
C 0.752700000000000 -0.434550000000000 0.000000000000000
C -0.752700000000000 -0.434550000000000 0.000000000000000
H 0.000000000000000 1.451600000000000 0.909170000000000
H 1.257110000000000 -0.725770000000000 0.909170000000000
H -1.257110000000000 -0.725770000000000 0.909170000000000
H 0.000000000000000 1.451600000000000 -0.909170000000000
H 1.257110000000000 -0.725770000000000 -0.909170000000000
H -1.257110000000000 -0.725770000000000 -0.909170000000000

Cyclopropane+.wfx

