%nprocs=4
%mem=4GB
#p pbepbe aug-cc-pvtz output=wfx scf=(conver=6) int=(grid=ultrafine)

title

1 2
C 0.000000000000000 0.669890000000000 0.819240000000000
C -0.000000000000000 -0.669890000000000 0.819240000000000
C 0.000000000000000 0.783650000000000 -0.695310000000000
C -0.000000000000000 -0.783650000000000 -0.695310000000000
H 0.000000000000000 1.413500000000000 1.603580000000000
H -0.000000000000000 -1.413500000000000 1.603580000000000
H 0.887650000000000 1.238670000000000 -1.134760000000000
H -0.887650000000000 -1.238670000000000 -1.134760000000000
H -0.887650000000000 1.238670000000000 -1.134760000000000
H 0.887650000000000 -1.238670000000000 -1.134760000000000

Cyclobutene+.wfx

