%nprocs=4
%mem=4GB
#p pbepbe aug-cc-pvtz output=wfx scf=(conver=6) int=(grid=ultrafine)

title

0 1
C -0.000000000000000 0.000000000000000 0.861530000000000
C 0.000000000000000 0.647000000000000 -0.500980000000000
C -0.000000000000000 -0.647000000000000 -0.500980000000000
H 0.000000000000000 1.575740000000000 -1.038420000000000
H -0.000000000000000 -1.575740000000000 -1.038420000000000
H 0.911240000000000 0.000000000000000 1.452230000000000
H -0.911240000000000 -0.000000000000000 1.452230000000000

Cyclopropene.wfx

