%nprocs=4
%mem=4GB
#p pbepbe aug-cc-pvtz output=wfx scf=(conver=6) int=(grid=ultrafine)

title

0 1
O 0.000000000000000 0.000000000000000 0.599350000000000
F 0.000000000000000 1.090010000000000 -0.265970000000000
F 0.000000000000000 -1.090010000000000 -0.265970000000000

F2O.wfx

