%nprocs=4
%mem=4GB
#p pbepbe aug-cc-pvtz output=wfx scf=(conver=6) int=(grid=ultrafine)

title

1 2
F 0.967690000000000 -0.091000000000000 -0.034200000000000
C 2.233230000000000 -0.091000000000000 -0.034200000000000
N 3.387790000000000 -0.091000000000000 -0.034200000000000

FCN+.wfx

