%nprocs=4
%mem=4GB
#p pbepbe aug-cc-pvtz output=wfx scf=(conver=6) int=(grid=ultrafine)

title

0 1
C 2.161990000000000 1.967690000000000 0.091620000000000
C 0.997360000000000 1.342010000000000 0.050440000000000
F 0.904330000000000 0.005890000000000 0.066150000000000
H 3.091600000000000 1.421890000000000 0.140700000000000
H 2.179730000000000 3.045750000000000 0.076650000000000
H 0.030380000000000 1.820270000000000 0.001240000000000

Fluoroethene.wfx

