%nprocs=4
%mem=4GB
#p pbepbe aug-cc-pvtz output=wfx scf=(conver=6) int=(grid=ultrafine)

title

1 2
C 0.000000000000000 0.000000000000000 0.780370000000000
C 0.000000000000000 -0.000000000000000 2.119100000000000
C 0.000000000000000 1.178020000000000 -0.107360000000000
C 0.000000000000000 -1.178020000000000 -0.107360000000000
C 0.000000000000000 0.739930000000000 -1.382120000000000
C 0.000000000000000 -0.739930000000000 -1.382120000000000
H 0.000000000000000 0.924690000000000 2.680310000000000
H 0.000000000000000 -0.924690000000000 2.680310000000000
H 0.000000000000000 2.200040000000000 0.235510000000000
H 0.000000000000000 -2.200040000000000 0.235510000000000
H 0.000000000000000 1.351680000000000 -2.270640000000000
H 0.000000000000000 -1.351680000000000 -2.270640000000000

Fulvene+.wfx

