%nprocs=4
%mem=4GB
#p pbepbe aug-cc-pvtz output=wfx scf=(conver=6) int=(grid=ultrafine)

title

0 1
C 1.863280000000000 2.622790000000000 0.030820000000000
C 1.091790000000000 1.510660000000000 0.058420000000000
O 1.858280000000000 0.389150000000000 0.093400000000000
C 3.151750000000000 0.805610000000000 0.088030000000000
C 3.224350000000000 2.156940000000000 0.050470000000000
H 1.516830000000000 3.640030000000000 0.000510000000000
H 0.029330000000000 1.353690000000000 0.057780000000000
H 3.894880000000000 0.030640000000000 0.113500000000000
H 4.122010000000000 2.748370000000000 0.038270000000000

Furan.wfx

