%nprocs=4
%mem=4GB
#p pbepbe aug-cc-pvtz output=wfx scf=(conver=6) int=(grid=ultrafine)

title

0 1
H -0.025320000000000 0.000000000000000 0.000000000000000
H 0.717320000000000 0.000000000000000 0.000000000000000

H2.wfx

