%nprocs=4
%mem=4GB
#p pbepbe aug-cc-pvtz output=wfx scf=(conver=6) int=(grid=ultrafine)

title

0 1
C 0.965670000000000 0.546750000000000 0.517280000000000
C 1.199150000000000 1.741090000000000 1.044340000000000
Cl 2.740590000000000 2.519560000000000 0.949280000000000
Cl -0.013180000000000 2.646120000000000 1.882340000000000
H 1.752020000000000 0.017750000000000 0.002960000000000
H -0.011650000000000 0.098830000000000 0.600500000000000

H2CCCl2.wfx

