%nprocs=4
%mem=4GB
#p pbepbe aug-cc-pvtz output=wfx scf=(conver=6) int=(grid=ultrafine)

title

0 1
O 0.942830000000000 0.053150000000000 0.050010000000000
H 1.898810000000000 0.079340000000000 0.088540000000000
H 0.668060000000000 0.568720000000000 0.808150000000000

H2O.wfx

