%nprocs=4
%mem=4GB
#p pbepbe aug-cc-pvtz output=wfx scf=(conver=6) int=(grid=ultrafine)

title

0 1
S 1.032220000000000 -0.029930000000000 0.094440000000000
H 2.356350000000000 0.116020000000000 -0.037680000000000
H 0.776530000000000 0.944210000000000 -0.787460000000000

H2S.wfx

