%nprocs=4
%mem=4GB
#p pbepbe aug-cc-pvtz output=wfx scf=(conver=6) int=(grid=ultrafine)

title

1 2
Cl 1.059590000000000 0.072300000000000 -0.061100000000000
H 2.335110000000000 0.072300000000000 -0.061100000000000

HCl+.wfx

