%nprocs=4
%mem=4GB
#p pbepbe aug-cc-pvtz output=wfx scf=(conver=6) int=(grid=ultrafine)

title

1 2
C 0.963190000000000 -0.080000000000000 -0.005300000000000
N 2.116000000000000 -0.080000000000000 -0.005300000000000
H -0.101690000000000 -0.080000000000000 -0.005300000000000

HCN+.wfx

