%nprocs=4
%mem=4GB
#p pbepbe aug-cc-pvtz output=wfx scf=(conver=6) int=(grid=ultrafine)

title

0 2
C -0.003700000000000 0.036030000000000 0.000000000000000
H 1.112190000000000 -0.030470000000000 0.000000000000000
O -0.618390000000000 1.037140000000000 0.000000000000000

HCO.wfx

