%nprocs=4
%mem=4GB
#p pbepbe aug-cc-pvtz output=wfx scf=(conver=6) int=(grid=ultrafine)

title

1 2
F 0.947060000000000 0.033500000000000 -0.087300000000000
H 1.862240000000000 0.033500000000000 -0.087300000000000

HF+.wfx

