%nprocs=4
%mem=4GB
#p pbepbe aug-cc-pvtz output=wfx scf=(conver=6) int=(grid=ultrafine)

title

1 2
Cl 0.021640000000000 -0.059310000000000 0.000000000000000
O 1.711340000000000 0.080870000000000 0.000000000000000
H 1.998130000000000 -0.837370000000000 0.000000000000000

HOCl+.wfx

