%nprocs=4
%mem=4GB
#p pbepbe aug-cc-pvtz output=wfx scf=(conver=6) int=(grid=ultrafine)

title

1 2
C 1.785170000000000 2.193300000000000 1.413070000000000
C 3.249180000000000 2.139380000000000 1.540380000000000
C 3.939230000000000 0.817960000000000 1.338740000000000
C 3.931750000000000 3.254690000000000 1.829910000000000
C 0.995950000000000 1.152330000000000 1.128770000000000
H 1.335800000000000 3.167890000000000 1.567180000000000
H 3.741270000000000 0.423630000000000 0.340310000000000
H 3.581140000000000 0.078090000000000 2.056900000000000
H 5.015680000000000 0.922560000000000 1.460260000000000
H 5.008430000000000 3.248820000000000 1.930090000000000
H 3.424450000000000 4.199660000000000 1.973020000000000
H 1.392430000000000 0.159660000000000 0.965970000000000
H -0.075300000000000 1.271710000000000 1.052000000000000

Isoprene+.wfx

