%nprocs=4
%mem=4GB
#p pbepbe aug-cc-pvtz output=wfx scf=(conver=6) int=(grid=ultrafine)

title

1 2
N 1.849490000000000 0.969300000000000 0.029450000000000
N 0.481380000000000 0.930360000000000 0.464560000000000
H 2.392060000000000 1.310110000000000 0.809370000000000
H 2.191490000000000 0.040410000000000 -0.184110000000000
H -0.088750000000000 1.021630000000000 -0.363360000000000
H 0.255720000000000 0.035190000000000 0.880690000000000

N2H4+.wfx

