%nprocs=4
%mem=4GB
#p pbepbe aug-cc-pvtz output=wfx scf=(conver=6) int=(grid=ultrafine)

title

1 2
Na 0.000000000000000 0.000000000000000 -0.020930000000000
Cl 0.000000000000000 0.000000000000000 2.381730000000000

NaCl+.wfx

