%nprocs=4
%mem=4GB
#p pbepbe aug-cc-pvtz output=wfx scf=(conver=6) int=(grid=ultrafine)

title

0 1
N 0.000000000000000 0.000000000000000 -0.000370000000000
H 0.000000000000000 0.000000000000000 1.036570000000000

NH.wfx

