%nprocs=4
%mem=4GB
#p pbepbe aug-cc-pvtz output=wfx scf=(conver=6) int=(grid=ultrafine)

title

1 2
N 0.000000000000000 0.000000000000000 -0.004290000000000
H 0.000000000000000 0.799130000000000 0.636850000000000
H 0.000000000000000 -0.799130000000000 0.636850000000000

NH2+.wfx

