%nprocs=4
%mem=4GB
#p pbepbe aug-cc-pvtz output=wfx scf=(conver=6) int=(grid=ultrafine)

title

0 1
N -0.084350000000000 0.265280000000000 0.000000000000000
N 0.873300000000000 -0.315510000000000 0.000000000000000
O 1.886050000000000 -0.929870000000000 0.000000000000000

NNO.wfx

