%nprocs=4
%mem=4GB
#p pbepbe aug-cc-pvtz output=wfx scf=(conver=6) int=(grid=ultrafine)

title

0 1
O 0.000000000000000 0.000000000000000 0.002010000000000
N 0.000000000000000 0.000000000000000 1.148790000000000

NO.wfx

