%nprocs=4
%mem=4GB
#p pbepbe aug-cc-pvtz output=wfx scf=(conver=6) int=(grid=ultrafine)

title

1 2
N 0.000000000000000 0.000000000000000 0.007230000000000
O 0.000000000000000 1.095770000000000 0.461690000000000
O 0.000000000000000 -1.095770000000000 0.461690000000000

NO2.wfx

