%nprocs=4
%mem=4GB
#p pbepbe aug-cc-pvtz output=wfx scf=(conver=6) int=(grid=ultrafine)

title

1 2
F 0.875310000000000 0.001780000000000 -0.004890000000000
S 2.519510000000000 -0.050710000000000 -0.076860000000000
N 3.071880000000000 -0.839570000000000 -1.159650000000000

NSF+.wfx

