%nprocs=4
%mem=4GB
#p pbepbe aug-cc-pvtz output=wfx scf=(conver=6) int=(grid=ultrafine)

title

1 2
S 0.910780000000000 0.711920000000000 -0.088380000000000
F 0.787830000000000 -0.529790000000000 0.841330000000000
N -0.214100000000000 1.366530000000000 -0.650060000000000
F 1.922900000000000 1.429100000000000 0.851090000000000
F 2.031480000000000 0.066850000000000 -0.953970000000000

NSF3+.wfx

