%nprocs=4
%mem=4GB
#p pbepbe aug-cc-pvtz output=wfx scf=(conver=6) int=(grid=ultrafine)

title

0 1
O 0.000000000000000 0.000000000000000 0.014700000000000
O 0.000000000000000 1.069060000000000 0.662350000000000
O 0.000000000000000 -1.069060000000000 0.662350000000000

O3.wfx

