%nprocs=4
%mem=4GB
#p pbepbe aug-cc-pvtz output=wfx scf=(conver=6) int=(grid=ultrafine)

title

0 1
C 0.010890000000000 0.759620000000000 0.000000000000000
C -0.010890000000000 -0.759620000000000 0.000000000000000
H 1.015030000000000 1.210320000000000 0.000000000000000
H -1.015030000000000 -1.210320000000000 0.000000000000000
O -1.007190000000000 1.401470000000000 0.000000000000000
O 1.007190000000000 -1.401470000000000 0.000000000000000

OCHCHO.wfx

