%nprocs=4
%mem=4GB
#p pbepbe aug-cc-pvtz output=wfx scf=(conver=6) int=(grid=ultrafine)

title

0 1
C 17.022120000000001 9.013059999999999 0.000000000000000
O 18.015460000000001 9.597350000000000 0.000000000000000
S 15.668120000000000 8.216490000000000 0.000000000000000

OCS.wfx

