%nprocs=4
%mem=4GB
#p pbepbe aug-cc-pvtz output=wfx scf=(conver=6) int=(grid=ultrafine)

title

1 1
O 0.000000000000000 0.000000000000000 0.000400000000000
H 0.000000000000000 0.000000000000000 0.969300000000000

OH+.wfx

