%nprocs=4
%mem=4GB
#p pbepbe aug-cc-pvtz output=wfx scf=(conver=6) int=(grid=ultrafine)

title

0 1
P 0.000000000000000 0.000000000000000 0.508430000000000
F -0.000000000000000 1.363000000000000 -0.271780000000000
F 1.180390000000000 -0.681500000000000 -0.271780000000000
F -1.180390000000000 -0.681500000000000 -0.271780000000000

PF3.wfx

