%nprocs=4
%mem=4GB
#p pbepbe aug-cc-pvtz output=wfx scf=(conver=6) int=(grid=ultrafine)

title

0 1
P 1.010430000000000 -0.059440000000000 0.253290000000000
H 2.390240000000000 0.040130000000000 -0.051140000000000
H 0.701630000000000 -0.756490000000000 -0.940530000000000
H 0.701600000000000 1.208900000000000 -0.296620000000000

PH3.wfx

