%nprocs=4
%mem=4GB
#p pbepbe aug-cc-pvtz output=wfx scf=(conver=6) int=(grid=ultrafine)

title

0 1
C 0.990550000000000 1.045600000000000 1.823440000000000
C 0.967170000000000 0.330630000000000 0.629190000000000
N 2.128820000000000 1.435340000000000 2.397670000000000
N 2.081510000000000 -0.010680000000000 -0.018150000000000
C 3.243180000000000 1.094010000000000 1.750340000000000
C 3.219790000000000 0.379050000000000 0.556100000000000
H 0.069620000000000 1.308640000000000 2.326200000000000
H 0.027740000000000 0.027660000000000 0.186760000000000
H 4.182600000000000 1.397020000000000 2.192750000000000
H 4.140710000000000 0.116040000000000 0.053310000000000

Pyrazine.wfx

