%nprocs=4
%mem=4GB
#p pbepbe aug-cc-pvtz output=wfx scf=(conver=6) int=(grid=ultrafine)

title

0 1
C 3.118370000000000 3.376550000000000 0.188210000000000
C 3.828790000000000 2.182520000000000 0.161690000000000
C 1.731000000000000 3.321950000000000 0.130430000000000
C 3.117760000000000 0.989060000000000 0.078790000000000
C 1.118840000000000 2.074800000000000 0.048820000000000
N 1.785770000000000 0.918590000000000 0.022320000000000
H 3.632650000000000 4.325150000000000 0.252160000000000
H 4.907970000000000 2.169450000000000 0.204040000000000
H 1.131870000000000 4.220480000000000 0.147660000000000
H 3.643790000000000 0.043150000000000 0.056560000000000
H 0.039790000000000 2.000690000000000 0.002830000000000

Pyridine.wfx

