%nprocs=4
%mem=4GB
#p pbepbe aug-cc-pvtz output=wfx scf=(conver=6) int=(grid=ultrafine)

title

0 1
C 0.985530000000000 1.837520000000000 0.183010000000000
C 2.174200000000000 1.120830000000000 0.173130000000000
C 1.094960000000000 3.219930000000000 0.122700000000000
N 3.366830000000000 1.715360000000000 0.109350000000000
N 2.273690000000000 3.841530000000000 0.058290000000000
C 3.344230000000000 3.047160000000000 0.055460000000000
H 0.026510000000000 1.345690000000000 0.234910000000000
H 2.176030000000000 0.039270000000000 0.217450000000000
H 0.215940000000000 3.851630000000000 0.125900000000000
H 4.305580000000000 3.540180000000000 0.003500000000000

Pyrimidine.wfx

