%nprocs=4
%mem=4GB
#p pbepbe aug-cc-pvtz output=wfx scf=(conver=6) int=(grid=ultrafine)

title

1 2
S 0.000000000000000 0.000000000000000 -0.006600000000000
S 0.000000000000000 0.000000000000000 1.895800000000000

S2+.wfx

