%nprocs=4
%mem=4GB
#p pbepbe aug-cc-pvtz output=wfx scf=(conver=6) int=(grid=ultrafine)

title

0 1
S 0.000000000000000 -0.000000000000000 -0.000000000000000
F 0.000000000000000 0.000000000000000 1.562810000000000
F 0.000000000000000 1.562810000000000 0.000000000000000
F 1.562810000000000 -0.000000000000000 -0.000000000000000
F 0.000000000000000 -1.562810000000000 0.000000000000000
F -1.562810000000000 -0.000000000000000 -0.000000000000000
F 0.000000000000000 0.000000000000000 -1.562810000000000

SF6.wfx

