%nprocs=4
%mem=4GB
#p pbepbe aug-cc-pvtz output=wfx scf=(conver=6) int=(grid=ultrafine)

title

1 2
Si 0.000000000000000 0.000000000000000 0.578330000000000
F 0.000000000000000 1.232530000000000 -0.447610000000000
F 0.000000000000000 -1.232530000000000 -0.447610000000000

SiF2+.wfx

