%nprocs=4
%mem=4GB
#p pbepbe aug-cc-pvtz output=wfx scf=(conver=6) int=(grid=ultrafine)

title

0 1
Si 1.280300000000000 1.369860000000000 1.028880000000000
F 0.011770000000000 1.420280000000000 1.945310000000000
F 1.306720000000000 0.012770000000000 0.248390000000000
F 2.567490000000000 1.488960000000000 1.912350000000000
F 1.235210000000000 2.557430000000000 0.009470000000000

SiF4.wfx

