%nprocs=4
%mem=4GB
#p pbepbe aug-cc-pvtz output=wfx scf=(conver=6) int=(grid=ultrafine)

title

1 2
Si 0.000000000000000 0.000020000000000 0.072450000000000
H 0.000000000000000 1.412390000000000 -0.378840000000000
H 1.223080000000000 -0.706200000000000 -0.378850000000000
H -1.223080000000000 -0.706200000000000 -0.378850000000000

SiH3+.wfx

