%nprocs=4
%mem=4GB
#p pbepbe aug-cc-pvtz output=wfx scf=(conver=6) int=(grid=ultrafine)

title

0 1
Si 0.918260000000000 0.011840000000000 -0.056300000000000
H 0.424400000000000 -1.383760000000000 -0.114540000000000
H 0.424420000000000 0.659180000000000 1.181460000000000
H 0.424420000000000 0.760070000000000 -1.235810000000000
H 2.399800000000000 0.011860000000000 -0.056300000000000

SiH4.wfx

