%nprocs=4
%mem=4GB
#p pbepbe aug-cc-pvtz output=wfx scf=(conver=6) int=(grid=ultrafine)

title

1 2
O 1.083230000000000 -0.025920000000000 -0.080920000000000
S 2.517940000000000 -0.129990000000000 -0.031740000000000
O 3.104730000000000 -1.317990000000000 0.530360000000000

SO2+.wfx

