%nprocs=4
%mem=4GB
#p pbepbe aug-cc-pvtz output=wfx scf=(conver=6) int=(grid=ultrafine)

title

1 2
C 2.990180000000000 0.138970000000000 0.905340000000000
C 1.560510000000000 0.129100000000000 0.922850000000000
C 3.524650000000000 0.315960000000000 2.146170000000000
C 1.054200000000000 0.298830000000000 2.176440000000000
S 2.302850000000000 0.472980000000000 3.352070000000000
H 3.584620000000000 0.020050000000000 0.013040000000000
H 0.946080000000000 0.001910000000000 0.045350000000000
H 4.564660000000000 0.362750000000000 2.418990000000000
H 0.020640000000000 0.331270000000000 2.474640000000000

Thiophene+.wfx

