&control
 title='crystal',
 prefix='crystal',
 pseudo_dir='.',
 calculation='vc-relax',
/
&system
 ibrav=0,
 celldm(1)=1.0,
 nat=   180,
 ntyp=  4,
 ecutwfc=60.0,
 ecutrho=600.0,
 xdm=.true.,
 xdm_a1=0.4073,
 xdm_a2=2.4150,
/
&electrons
 conv_thr = 1d-8,
/
&ions
/
&cell
/
ATOMIC_SPECIES
h      1.007940 h.UPF
c     12.010700 c.UPF
n     14.006700 n.UPF
o     15.999400 o.UPF

ATOMIC_POSITIONS crystal
o     0.56431266     0.18569208     0.16268087
o     0.43568735     0.81430792     0.83731913
o     0.93568386     0.68568837     0.33731916
o     0.06431615     0.31431163     0.66268084
o     0.67266935     0.91448445     0.15277918
o     0.32733066     0.08551556     0.84722083
o     0.82733053     0.41448031     0.34722234
o     0.17266948     0.58551970     0.65277766
o     0.12736379     0.69170876     0.24567988
o     0.87263622     0.30829124     0.75432012
o     0.37263635     0.19170752     0.25432006
o     0.62736366     0.80829248     0.74567994
h     0.14039304     0.61839230     0.28484538
h     0.85960697     0.38160770     0.71515462
h     0.35960733     0.11839269     0.21515516
h     0.64039268     0.88160731     0.78484485
o     0.26580650     0.96428364     0.15965078
o     0.73419351     0.03571637     0.84034922
o     0.23419381     0.46426222     0.34034942
o     0.76580620     0.53573779     0.65965058
n     0.66503470     0.09663938     0.16143527
n     0.33496531     0.90336063     0.83856474
n     0.83497148     0.59665300     0.33856467
n     0.16502853     0.40334701     0.66143534
c     0.78195074     0.21206773     0.17109750
c     0.21804927     0.78793228     0.82890251
c     0.71804259     0.71205110     0.32890408
c     0.28195742     0.28794891     0.67109592
c     0.77724170     0.41316520     0.18658869
c     0.22275831     0.58683481     0.81341131
c     0.72276333     0.91317808     0.31341079
c     0.27723668     0.08682193     0.68658922
h     0.68735208     0.48278903     0.19091978
h     0.31264793     0.51721098     0.80908022
h     0.81264575     0.98278749     0.30908088
h     0.18735426     0.01721252     0.69091913
c     0.88911091     0.52032158     0.19565502
c     0.11088910     0.47967843     0.80434498
c     0.61088452     0.02031384     0.30434606
c     0.38911550     0.97968617     0.69565394
h     0.88806522     0.67645307     0.20855853
h     0.11193479     0.32354694     0.79144147
h     0.61193520     0.17645603     0.29144172
h     0.38806481     0.82354398     0.70855828
c     0.00412069     0.42905340     0.18914819
c     0.99587932     0.57094661     0.81085181
c     0.49588367     0.92906495     0.31085124
c     0.50411634     0.07093506     0.68914876
c     0.00618714     0.22661433     0.17386293
c     0.99381287     0.77338568     0.82613708
c     0.49381141     0.72660397     0.32613795
c     0.50618861     0.27339603     0.67386205
h     0.09517016     0.15267389     0.16968035
h     0.90482985     0.84732612     0.83031965
h     0.40483131     0.65267533     0.33031939
h     0.59516870     0.34732468     0.66968061
c     0.89513508     0.11732097     0.16463858
c     0.10486493     0.88267903     0.83536142
c     0.60486993     0.61733475     0.33536040
c     0.39513008     0.38266525     0.66463961
h     0.89467329     0.96045737     0.15269307
h     0.10532672     0.03954264     0.84730693
h     0.60532695     0.46045322     0.34730715
h     0.39467307     0.53954679     0.65269285
c     0.12549790     0.54719294     0.19811252
c     0.87450211     0.45280707     0.80188748
c     0.37450129     0.04719095     0.30188788
c     0.62549872     0.95280906     0.69811212
h     0.20402818     0.44154697     0.20921682
h     0.79597183     0.55845304     0.79078319
h     0.29597205     0.94154750     0.29078345
h     0.70402796     0.05845251     0.70921655
c     0.14425226     0.66636818     0.13973261
c     0.85574775     0.33363183     0.86026740
c     0.35574795     0.16636837     0.36026806
c     0.64425206     0.83363164     0.63973194
h     0.06703643     0.77520614     0.13228226
h     0.93296358     0.22479386     0.86771775
h     0.43296365     0.27520661     0.36771823
h     0.56703636     0.72479340     0.63228177
c     0.26635541     0.78200629     0.15379013
c     0.73364460     0.21799371     0.84620987
c     0.23364453     0.28202916     0.34620810
c     0.76635548     0.71797084     0.65379191
c     0.38498272     0.66241617     0.15570221
c     0.61501729     0.33758384     0.84429779
c     0.11501715     0.16241521     0.34429844
c     0.88498286     0.83758480     0.65570157
h     0.39005556     0.55216475     0.19299458
h     0.60994445     0.44783526     0.80700542
h     0.10994499     0.05216581     0.30700604
h     0.89005503     0.94783420     0.69299396
h     0.46702389     0.76083775     0.16444471
h     0.53297612     0.23916226     0.83555529
h     0.03297645     0.26083811     0.33555571
h     0.96702356     0.73916190     0.66444430
c     0.38194830     0.55148691     0.09400029
c     0.61805171     0.44851310     0.90599971
c     0.11805134     0.05148655     0.40600039
c     0.88194867     0.94851346     0.59399961
h     0.38324977     0.66254837     0.05736171
h     0.61675024     0.33745163     0.94263829
h     0.11675025     0.16254892     0.44263877
h     0.88324976     0.83745109     0.55736124
h     0.46907248     0.46499756     0.09611495
h     0.53092753     0.53500245     0.90388505
h     0.03092754     0.96499782     0.40388531
h     0.96907247     0.03500219     0.59611469
c     0.26559012     0.41651109     0.08018983
c     0.73440989     0.58348892     0.91981017
c     0.23441002     0.91651105     0.41981027
c     0.76558999     0.08348896     0.58018973
h     0.27088397     0.30562648     0.11727739
h     0.72911604     0.69437353     0.88272261
h     0.22911596     0.80562681     0.38272260
h     0.77088405     0.19437320     0.61727740
c     0.14542382     0.54108582     0.08116557
c     0.85457619     0.45891419     0.91883444
c     0.35457633     0.04108548     0.41883503
c     0.64542368     0.95891453     0.58116497
h     0.06097297     0.44677907     0.07503382
h     0.93902705     0.55322094     0.92496618
h     0.43902730     0.94677893     0.42496635
h     0.56097271     0.05322108     0.57503365
h     0.13533937     0.64522467     0.04224079
h     0.86466064     0.35477534     0.95775921
h     0.36466084     0.14522504     0.45775964
h     0.63533917     0.85477496     0.54224036
c     0.26281972     0.29291358     0.01979400
c     0.73718029     0.70708642     0.98020600
c     0.23718007     0.79291357     0.48020603
c     0.76281994     0.20708644     0.51979397
c     0.38195607     0.16289664     0.02365780
c     0.61804394     0.83710337     0.97634221
c     0.11804396     0.66289656     0.47634188
c     0.88195605     0.33710345     0.52365812
h     0.46749422     0.25277991     0.02372178
h     0.53250580     0.74722010     0.97627822
h     0.03250560     0.75277997     0.47627808
h     0.96749441     0.24722004     0.52372192
h     0.37574070     0.06408313     0.98365544
h     0.62425931     0.93591687     0.01634456
h     0.12425908     0.56408299     0.51634419
h     0.87574093     0.43591702     0.48365581
h     0.39416469     0.07139164     0.06532121
h     0.60583532     0.92860837     0.93467880
h     0.10583521     0.57139171     0.43467842
h     0.89416480     0.42860830     0.56532158
c     0.25643640     0.42596822     0.96270271
c     0.74356361     0.57403179     0.03729729
c     0.24356377     0.92596802     0.53729743
c     0.75643624     0.07403199     0.46270257
h     0.17006073     0.51593354     0.95534067
h     0.82993928     0.48406646     0.04465934
h     0.32993920     0.01593317     0.54465954
h     0.67006081     0.98406684     0.45534046
h     0.25797492     0.33318542     0.92186473
h     0.74202509     0.66681459     0.07813527
h     0.24202506     0.83318509     0.57813527
h     0.75797495     0.16681492     0.42186473
h     0.33742723     0.52738570     0.96534972
h     0.66257278     0.47261431     0.03465028
h     0.16257264     0.02738556     0.53465052
h     0.83742737     0.97261444     0.46534948
c     0.14783209     0.15262649     0.01217517
c     0.85216792     0.84737352     0.98782484
c     0.35216799     0.65262644     0.48782455
c     0.64783202     0.34737357     0.51217545
h     0.14541570     0.06198002     0.05345068
h     0.85458431     0.93801998     0.94654933
h     0.35458402     0.56197994     0.44654898
h     0.64541599     0.43802006     0.55345103
h     0.15211797     0.05120554     0.97338068
h     0.84788204     0.94879447     0.02661932
h     0.34788204     0.55120546     0.52661900
h     0.65211797     0.44879455     0.47338100
h     0.05837100     0.23387256     0.00299849
h     0.94162901     0.76612745     0.99700151
h     0.44162882     0.73387235     0.49700130
h     0.55837119     0.26612766     0.50299870

K_POINTS automatic
2 2 2 1 1 1

CELL_PARAMETERS cubic
   20.238826000000    -0.000027000000    -0.021167000000
   -0.000017000000    12.689896000000    -0.000018000000
   -5.778604000000    -0.000051000000    41.214075000000
