&control
 title='crystal',
 prefix='crystal',
 pseudo_dir='.',
 calculation='vc-relax',
/
&system
 ibrav=0,
 celldm(1)=1.0,
 nat=    98,
 ntyp=  3,
 ecutwfc=60.0,
 ecutrho=600.0,
 xdm=.true.,
 xdm_a1=0.4073,
 xdm_a2=2.4150,
/
&electrons
 conv_thr = 1d-8,
/
&ions
/
&cell
/
ATOMIC_SPECIES
h      1.007940 h.UPF
c     12.010700 c.UPF
o     15.999400 o.UPF

ATOMIC_POSITIONS crystal
c     0.72124302     0.28580043     0.93034903
c     0.27875704     0.71419955     0.06965094
c     0.73958784     0.21951304     0.85268747
c     0.26041221     0.78048694     0.14731249
c     0.74838762     0.07736117     0.90777173
c     0.25161244     0.92263881     0.09222823
c     0.73836548     0.00505632     0.03995830
c     0.26163457     0.99494366     0.96004167
c     0.71657894     0.07219938     0.11800516
c     0.28342112     0.92780060     0.88199481
c     0.70283195     0.98643820     0.26012888
c     0.29716811     0.01356178     0.73987108
c     0.61909037     0.06893672     0.33535586
c     0.38090969     0.93106326     0.66464411
c     0.72505476     0.19651222     0.28376778
c     0.27494530     0.80348777     0.71623219
c     0.67658532     0.29184364     0.14662584
c     0.32341474     0.70815634     0.85337412
c     0.70765562     0.21487743     0.06407174
c     0.29234443     0.78512255     0.93592823
c     0.79771439     0.41373881     0.09050216
c     0.20228567     0.58626117     0.90949780
c     0.75963053     0.49146171     0.17244977
c     0.24036953     0.50853827     0.82755020
c     0.78896625     0.40130639     0.31245420
c     0.21103380     0.59869359     0.68754576
c     0.68448325     0.26669700     0.37450494
c     0.31551681     0.73330298     0.62549502
c     0.79297842     0.17779335     0.49514182
c     0.20702163     0.82220664     0.50485814
c     0.00940899     0.21308414     0.45820077
c     0.99059106     0.78691584     0.54179919
c     0.00481200     0.34479465     0.33672197
c     0.99518806     0.65520533     0.66327800
c     0.71407923     0.48307590     0.39329502
c     0.28592082     0.51692408     0.60670494
c     0.81523903     0.60994336     0.35434421
c     0.18476103     0.39005662     0.64565575
c     0.77750758     0.87207197     0.88431954
c     0.22249248     0.12792801     0.11568043
o     0.76593454     0.01782146     0.82639827
o     0.23406551     0.98217852     0.17360170
o     0.47644372     0.28617318     0.41522087
o     0.52355633     0.71382680     0.58477910
o     0.15465513     0.39618987     0.26881281
o     0.84534493     0.60381011     0.73118715
h     0.71922598     0.39598445     0.88448159
h     0.28077407     0.60401553     0.11551837
h     0.74818431     0.27659668     0.74935155
h     0.25181574     0.72340331     0.25064842
h     0.74464988     0.89471595     0.08522056
h     0.25535018     0.10528403     0.91477940
h     0.85468863     0.93710811     0.28505640
h     0.14531143     0.06289187     0.71494357
h     0.61122891     0.90399844     0.28672411
h     0.38877115     0.09600155     0.71327585
h     0.63410475     0.00488952     0.43654023
h     0.36589531     0.99511046     0.56345974
h     0.45738419     0.09959515     0.32807112
h     0.54261586     0.90040483     0.67192885
h     0.88822552     0.16394193     0.27751182
h     0.11177454     0.83605805     0.72248814
h     0.51555031     0.33179159     0.15187852
h     0.48444974     0.66820839     0.84812144
h     0.76252210     0.48446416     0.99363652
h     0.23747795     0.51553582     0.00636344
h     0.60528972     0.54322318     0.16773378
h     0.39471033     0.45677680     0.83226618
h     0.85946235     0.57168559     0.13332941
h     0.14053770     0.42831439     0.86667056
h     0.39344930     0.32716896     0.34376684
h     0.60655075     0.67283102     0.65623313
h     0.78453579     0.06931915     0.52747253
h     0.21546426     0.93068083     0.47252744
h     0.71766158     0.20244806     0.57332626
h     0.28233847     0.79755192     0.42667370
h     0.06973372     0.22709604     0.53083465
h     0.93026634     0.77290394     0.46916532
h     0.11733951     0.13621366     0.43866846
h     0.88266055     0.86378632     0.56133150
h     0.55234144     0.51034253     0.38627437
h     0.44765861     0.48965745     0.61372559
h     0.72813211     0.41566209     0.49445776
h     0.27186794     0.58433789     0.50554221
h     0.74553875     0.65998718     0.41577365
h     0.25446130     0.34001280     0.58422632
h     0.97659122     0.58544694     0.36367329
h     0.02340883     0.41455304     0.63632667
h     0.79835294     0.68371511     0.25539088
h     0.20164711     0.31628487     0.74460909
h     0.91289901     0.82592521     0.93353989
h     0.08710104     0.17407477     0.06646008
h     0.78508297     0.84364156     0.80615981
h     0.21491708     0.15635842     0.19384016
h     0.64351842     0.83646865     0.95086268
h     0.35648164     0.16353133     0.04913728
h     0.95816968     0.37681137     0.08166751
h     0.04183037     0.62318861     0.91833246

K_POINTS automatic
2 2 2 1 1 1

CELL_PARAMETERS cubic
   12.892036000000     0.052415000000     0.020667000000
    3.786048000000    20.590784000000    -0.046942000000
    3.982315000000     9.582283000000    19.792850000000
