&control
 title='crystal',
 prefix='crystal',
 pseudo_dir='..',
/
&system
 ibrav=0,
 celldm(1)=1.0,
 nat=8,
 ntyp=1,
 ecutwfc=80.0,
 ecutrho=800.0,
 xdm=.true.,
 xdm_a1=0.6754,
 xdm_a2=1.4651,
 input_dft='b86bpbex',
 exx_fraction=0.25,
/
&electrons
 conv_thr = 1d-8,
/
ATOMIC_SPECIES
br    79.904000 br.UPF

ATOMIC_POSITIONS crystal
br       0.000000000   0.000000000   0.000000000
br       0.500000000   0.500000000  -0.000000000
br       0.000000000   0.000000000   0.500000000
br       0.500000000   0.500000000   0.500000000
br       0.000000000   0.664579010   0.249997675
br       0.500000000   0.164578721   0.249997432
br       0.000000000   0.335420990   0.750002325
br       0.500000000   0.835421279   0.750002568

K_POINTS automatic
4 4 4 1 1 1

CELL_PARAMETERS 
  12.732280540   0.000000000   0.000000000
   0.000000000   8.751881660  -0.000015471
   0.000000000  -0.000025381  15.472349580
