&control
 title='crystal',
 prefix='crystal',
 pseudo_dir='..',
 calculation='vc-relax',
 etot_conv_thr=1d-5,
/
&system
 ibrav=0,
 celldm(1)=1.0,
 nat=   328,
 ntyp=  3,
 ecutwfc=80.0,
 ecutrho=800.0,
 xdm=.true.,
 xdm_a1=0.6512,
 xdm_a2=1.4633,
/
&electrons
 conv_thr = 1d-8,
/
&ions
/
&cell
/
ATOMIC_SPECIES
h      1.007940 h.UPF
c     12.010700 c.UPF
n     14.006700 n.UPF

ATOMIC_POSITIONS crystal
c        0.292345676   0.538940068   0.347604579
c        0.207654324   0.461059932   0.847604579
c        0.707654324   0.038940068   0.152395421
c        0.792345676   0.961059932   0.652395421
c        0.707654324   0.461059932   0.652395421
c        0.792345676   0.538940068   0.152395421
c        0.292345676   0.961059932   0.847604579
c        0.207654324   0.038940068   0.347604579
c        0.313396136   0.477990753   0.301478828
c        0.186603864   0.522009247   0.801478828
c        0.686603864   0.977990753   0.198521172
c        0.813396136   0.022009247   0.698521172
c        0.686603864   0.522009247   0.698521172
c        0.813396136   0.477990753   0.198521172
c        0.313396136   0.022009247   0.801478828
c        0.186603864   0.977990753   0.301478828
c        0.346237507   0.470971070   0.173084667
c        0.153762493   0.529028930   0.673084667
c        0.653762493   0.970971070   0.326915333
c        0.846237507   0.029028930   0.826915333
c        0.653762493   0.529028930   0.826915333
c        0.846237507   0.470971070   0.326915333
c        0.346237507   0.029028930   0.673084667
c        0.153762493   0.970971070   0.173084667
c        0.327239790   0.584424251   0.127999974
c        0.172760210   0.415575749   0.627999974
c        0.672760210   0.084424251   0.372000026
c        0.827239790   0.915575749   0.872000026
c        0.672760210   0.415575749   0.872000026
c        0.827239790   0.584424251   0.372000026
c        0.327239790   0.915575749   0.627999974
c        0.172760210   0.084424251   0.127999974
c        0.355784064   0.523474823   0.085705602
c        0.144215936   0.476525177   0.585705602
c        0.644215936   0.023474823   0.414294398
c        0.855784064   0.976525177   0.914294398
c        0.644215936   0.476525177   0.914294398
c        0.855784064   0.523474823   0.414294398
c        0.355784064   0.976525177   0.585705602
c        0.144215936   0.023474823   0.085705602
c        0.398073661   0.516669813   0.959310976
c        0.101926339   0.483330187   0.459310976
c        0.601926339   0.016669813   0.540689024
c        0.898073661   0.983330187   0.040689024
c        0.601926339   0.483330187   0.040689024
c        0.898073661   0.516669813   0.540689024
c        0.398073661   0.983330187   0.459310976
c        0.101926339   0.016669813   0.959310976
c        0.419595986   0.568769336   0.886062282
c        0.080404014   0.431230664   0.386062282
c        0.580404014   0.068769336   0.613937718
c        0.919595986   0.931230664   0.113937718
c        0.580404014   0.431230664   0.113937718
c        0.919595986   0.568769336   0.613937718
c        0.419595986   0.931230664   0.386062282
c        0.080404014   0.068769336   0.886062282
c        0.337320162   0.637938633   0.037996257
c        0.162679838   0.362061367   0.537996257
c        0.662679838   0.137938633   0.462003743
c        0.837320162   0.862061367   0.962003743
c        0.662679838   0.362061367   0.962003743
c        0.837320162   0.637938633   0.462003743
c        0.337320162   0.862061367   0.537996257
c        0.162679838   0.137938633   0.037996257
c        0.393603650   0.630492037   0.926953472
c        0.106396350   0.369507963   0.426953472
c        0.606396350   0.130492037   0.573046528
c        0.893603650   0.869507963   0.073046528
c        0.606396350   0.369507963   0.073046528
c        0.893603650   0.630492037   0.573046528
c        0.393603650   0.869507963   0.426953472
c        0.106396350   0.130492037   0.926953472
c        0.427959501   0.684535896   0.861315064
c        0.072040499   0.315464104   0.361315064
c        0.572040499   0.184535896   0.638684936
c        0.927959501   0.815464104   0.138684936
c        0.572040499   0.315464104   0.138684936
c        0.927959501   0.684535896   0.638684936
c        0.427959501   0.815464104   0.361315064
c        0.072040499   0.184535896   0.861315064
c        0.409873850   0.743810292   0.907646788
c        0.090126150   0.256189708   0.407646788
c        0.590126150   0.243810292   0.592353212
c        0.909873850   0.756189708   0.092353212
c        0.590126150   0.256189708   0.092353212
c        0.909873850   0.743810292   0.592353212
c        0.409873850   0.756189708   0.407646788
c        0.090126150   0.243810292   0.907646788
c        0.302836335   0.699967430   0.063600780
c        0.197163665   0.300032570   0.563600780
c        0.697163665   0.199967430   0.436399220
c        0.802836335   0.800032570   0.936399220
c        0.697163665   0.300032570   0.936399220
c        0.802836335   0.699967430   0.436399220
c        0.302836335   0.800032570   0.563600780
c        0.197163665   0.199967430   0.063600780
c        0.347237957   0.752897777   0.009033148
c        0.152762043   0.247102223   0.509033148
c        0.652762043   0.252897777   0.490966852
c        0.847237957   0.747102223   0.990966852
c        0.652762043   0.247102223   0.990966852
c        0.847237957   0.752897777   0.490966852
c        0.347237957   0.747102223   0.509033148
c        0.152762043   0.252897777   0.009033148
c        0.330061632   0.814658358   0.058110571
c        0.169938368   0.185341642   0.558110571
c        0.669938368   0.314658358   0.441889429
c        0.830061632   0.685341642   0.941889429
c        0.669938368   0.185341642   0.941889429
c        0.830061632   0.814658358   0.441889429
c        0.330061632   0.685341642   0.558110571
c        0.169938368   0.314658358   0.058110571
c        0.271842308   0.824160839   0.158306189
c        0.228157692   0.175839161   0.658306189
c        0.728157692   0.324160839   0.341693811
c        0.771842308   0.675839161   0.841693811
c        0.728157692   0.175839161   0.841693811
c        0.771842308   0.824160839   0.341693811
c        0.271842308   0.675839161   0.658306189
c        0.228157692   0.324160839   0.158306189
c        0.228240528   0.712988882   0.142910860
c        0.271759472   0.287011118   0.642910860
c        0.771759472   0.212988882   0.357089140
c        0.728240528   0.787011118   0.857089140
c        0.771759472   0.287011118   0.857089140
c        0.728240528   0.712988882   0.357089140
c        0.228240528   0.787011118   0.642910860
c        0.271759472   0.212988882   0.142910860
c        0.218515274   0.773891597   0.201126500
c        0.281484726   0.226108403   0.701126500
c        0.781484726   0.273891597   0.298873500
c        0.718515274   0.726108403   0.798873500
c        0.781484726   0.226108403   0.798873500
c        0.718515274   0.773891597   0.298873500
c        0.218515274   0.726108403   0.701126500
c        0.281484726   0.273891597   0.201126500
c        0.155324814   0.784688958   0.301920771
c        0.344675186   0.215311042   0.801920771
c        0.844675186   0.284688958   0.198079229
c        0.655324814   0.715311042   0.698079229
c        0.844675186   0.215311042   0.698079229
c        0.655324814   0.784688958   0.198079229
c        0.155324814   0.715311042   0.801920771
c        0.344675186   0.284688958   0.301920771
c        0.098790454   0.738693669   0.336754257
c        0.401209546   0.261306331   0.836754257
c        0.901209546   0.238693669   0.163245743
c        0.598790454   0.761306331   0.663245743
c        0.901209546   0.261306331   0.663245743
c        0.598790454   0.738693669   0.163245743
c        0.098790454   0.761306331   0.836754257
c        0.401209546   0.238693669   0.336754257
c        0.096385345   0.681183555   0.261822486
c        0.403614655   0.318816445   0.761822486
c        0.903614655   0.181183555   0.238177514
c        0.596385345   0.818816445   0.738177514
c        0.903614655   0.318816445   0.738177514
c        0.596385345   0.681183555   0.238177514
c        0.096385345   0.818816445   0.761822486
c        0.403614655   0.181183555   0.261822486
c        0.158678513   0.669078677   0.160335514
c        0.341321487   0.330921323   0.660335514
c        0.841321487   0.169078677   0.339664486
c        0.658678513   0.830921323   0.839664486
c        0.841321487   0.330921323   0.839664486
c        0.658678513   0.669078677   0.339664486
c        0.158678513   0.830921323   0.660335514
c        0.341321487   0.169078677   0.160335514
c        0.087884578   0.578576290   0.093485281
c        0.412115422   0.421423710   0.593485281
c        0.912115422   0.078576290   0.406514719
c        0.587884578   0.921423710   0.906514719
c        0.912115422   0.421423710   0.906514719
c        0.587884578   0.578576290   0.406514719
c        0.087884578   0.921423710   0.593485281
c        0.412115422   0.078576290   0.093485281
c        0.026845879   0.584310839   0.196223674
c        0.473154121   0.415689161   0.696223674
c        0.973154121   0.084310839   0.303776326
c        0.526845879   0.915689161   0.803776326
c        0.973154121   0.415689161   0.803776326
c        0.526845879   0.584310839   0.303776326
c        0.026845879   0.915689161   0.696223674
c        0.473154121   0.084310839   0.196223674
c        0.031377101   0.636239678   0.280088241
c        0.468622899   0.363760322   0.780088241
c        0.968622899   0.136239678   0.219911759
c        0.531377101   0.863760322   0.719911759
c        0.968622899   0.363760322   0.719911759
c        0.531377101   0.636239678   0.219911759
c        0.031377101   0.863760322   0.780088241
c        0.468622899   0.136239678   0.280088241
c        0.299142149   0.590495472   0.263012889
c        0.200857851   0.409504528   0.763012889
c        0.700857851   0.090495472   0.236987111
c        0.799142149   0.909504528   0.736987111
c        0.700857851   0.409504528   0.736987111
c        0.799142149   0.590495472   0.236987111
c        0.299142149   0.909504528   0.763012889
c        0.200857851   0.090495472   0.263012889
h        0.271407951   0.545508994   0.451319760
h        0.228592049   0.454491006   0.951319760
h        0.728592049   0.045508994   0.048680240
h        0.771407951   0.954491006   0.548680240
h        0.728592049   0.454491006   0.548680240
h        0.771407951   0.545508994   0.048680240
h        0.271407951   0.954491006   0.951319760
h        0.228592049   0.045508994   0.451319760
h        0.305604180   0.437634881   0.368747108
h        0.194395820   0.562365119   0.868747108
h        0.694395820   0.937634881   0.131252892
h        0.805604180   0.062365119   0.631252892
h        0.694395820   0.562365119   0.631252892
h        0.805604180   0.437634881   0.131252892
h        0.305604180   0.062365119   0.868747108
h        0.194395820   0.937634881   0.368747108
h        0.367318804   0.424850369   0.137369665
h        0.132681196   0.575149631   0.637369665
h        0.632681196   0.924850369   0.362630335
h        0.867318804   0.075149631   0.862630335
h        0.632681196   0.575149631   0.862630335
h        0.867318804   0.424850369   0.362630335
h        0.367318804   0.075149631   0.637369665
h        0.132681196   0.924850369   0.137369665
h        0.416846063   0.469724368   0.926300741
h        0.083153937   0.530275632   0.426300741
h        0.583153937   0.969724368   0.573699259
h        0.916846063   0.030275632   0.073699259
h        0.583153937   0.530275632   0.073699259
h        0.916846063   0.469724368   0.573699259
h        0.416846063   0.030275632   0.426300741
h        0.083153937   0.969724368   0.926300741
h        0.458284261   0.564389158   0.795356375
h        0.041715739   0.435610842   0.295356375
h        0.541715739   0.064389158   0.704643625
h        0.958284261   0.935610842   0.204643625
h        0.541715739   0.435610842   0.204643625
h        0.958284261   0.564389158   0.704643625
h        0.458284261   0.935610842   0.295356375
h        0.041715739   0.064389158   0.795356375
h        0.472588753   0.677687042   0.778761856
h        0.027411247   0.322312958   0.278761856
h        0.527411247   0.177687042   0.721238144
h        0.972588753   0.822312958   0.221238144
h        0.527411247   0.322312958   0.221238144
h        0.972588753   0.677687042   0.721238144
h        0.472588753   0.822312958   0.278761856
h        0.027411247   0.177687042   0.778761856
h        0.441241941   0.785143147   0.865557935
h        0.058758059   0.214856853   0.365557935
h        0.558758059   0.285143147   0.634442065
h        0.941241941   0.714856853   0.134442065
h        0.558758059   0.214856853   0.134442065
h        0.941241941   0.785143147   0.634442065
h        0.441241941   0.714856853   0.365557935
h        0.058758059   0.285143147   0.865557935
h        0.367334449   0.853816315   0.018454301
h        0.132665551   0.146183685   0.518454301
h        0.632665551   0.353816315   0.481545699
h        0.867334449   0.646183685   0.981545699
h        0.632665551   0.146183685   0.981545699
h        0.867334449   0.853816315   0.481545699
h        0.367334449   0.646183685   0.518454301
h        0.132665551   0.353816315   0.018454301
h        0.263946189   0.870489944   0.203899938
h        0.236053811   0.129510056   0.703899938
h        0.736053811   0.370489944   0.296100062
h        0.763946189   0.629510056   0.796100062
h        0.736053811   0.129510056   0.796100062
h        0.763946189   0.870489944   0.296100062
h        0.263946189   0.629510056   0.703899938
h        0.236053811   0.370489944   0.203899938
h        0.154932963   0.830082686   0.353868922
h        0.345067037   0.169917314   0.853868922
h        0.845067037   0.330082686   0.146131078
h        0.654932963   0.669917314   0.646131078
h        0.845067037   0.169917314   0.646131078
h        0.654932963   0.830082686   0.146131078
h        0.154932963   0.669917314   0.853868922
h        0.345067037   0.330082686   0.353868922
h        0.052647463   0.746039473   0.417161014
h        0.447352537   0.253960527   0.917161014
h        0.947352537   0.246039473   0.082838986
h        0.552647463   0.753960527   0.582838986
h        0.947352537   0.253960527   0.582838986
h        0.552647463   0.746039473   0.082838986
h        0.052647463   0.753960527   0.917161014
h        0.447352537   0.246039473   0.417161014
h        0.084035501   0.539655444   0.021237308
h        0.415964499   0.460344556   0.521237308
h        0.915964499   0.039655444   0.478762692
h        0.584035501   0.960344556   0.978762692
h        0.915964499   0.460344556   0.978762692
h        0.584035501   0.539655444   0.478762692
h        0.084035501   0.960344556   0.521237308
h        0.415964499   0.039655444   0.021237308
h        0.976667333   0.549410346   0.207042981
h        0.523332667   0.450589654   0.707042981
h        0.023332667   0.049410346   0.292957019
h        0.476667333   0.950589654   0.792957019
h        0.023332667   0.450589654   0.792957019
h        0.476667333   0.549410346   0.292957019
h        0.976667333   0.950589654   0.707042981
h        0.523332667   0.049410346   0.207042981
h        0.984260445   0.644067820   0.358576362
h        0.515739555   0.355932180   0.858576362
h        0.015739555   0.144067820   0.141423638
h        0.484260445   0.855932180   0.641423638
h        0.015739555   0.355932180   0.641423638
h        0.484260445   0.644067820   0.141423638
h        0.984260445   0.855932180   0.858576362
h        0.515739555   0.144067820   0.358576362
h        0.284163957   0.636987252   0.302521657
h        0.215836043   0.363012748   0.802521657
h        0.715836043   0.136987252   0.197478343
h        0.784163957   0.863012748   0.697478343
h        0.715836043   0.363012748   0.697478343
h        0.784163957   0.636987252   0.197478343
h        0.284163957   0.863012748   0.802521657
h        0.215836043   0.136987252   0.302521657
n        0.151707262   0.618666019   0.075933026
n        0.348292738   0.381333981   0.575933026
n        0.848292738   0.118666019   0.424066974
n        0.651707262   0.881333981   0.924066974
n        0.848292738   0.381333981   0.924066974
n        0.651707262   0.618666019   0.424066974
n        0.151707262   0.881333981   0.575933026
n        0.348292738   0.118666019   0.075933026

K_POINTS automatic
4 4 4 1 1 1

CELL_PARAMETERS cubic
  29.801301285   0.000000000   0.000000000
   0.000000000  40.016226808   0.000000000
   0.000000000   0.000000000  18.727246399
