&control
 title='crystal',
 prefix='crystal',
 pseudo_dir='.',
 calculation='vc-relax',
/
&system
 ibrav=0,
 celldm(1)=1.0,
 nat=    92,
 ntyp=  3,
 ecutwfc=60.0,
 ecutrho=600.0,
 xdm=.true.,
 xdm_a1=0.4073,
 xdm_a2=2.4150,
/
&electrons
 conv_thr = 1d-8,
/
&ions
/
&cell
/
ATOMIC_SPECIES
h      1.007940 h.UPF
c     12.010700 c.UPF
o     15.999400 o.UPF

ATOMIC_POSITIONS crystal
c     0.25449093     0.66321085     0.38057244
c     0.75449024     0.83678944     0.61942806
c     0.74550892     0.16321038     0.11942702
c     0.24550852     0.33678964     0.88057216
c     0.23030074     0.80936031     0.53542523
c     0.73030005     0.69063998     0.46457528
c     0.76969910     0.30935984     0.96457423
c     0.26969870     0.19064018     0.03542495
c     0.12465435     0.85304927     0.52681514
c     0.62465366     0.64695102     0.47318537
c     0.87534549     0.35304880     0.97318432
c     0.37534510     0.14695122     0.02681485
c     0.06617054     0.68061139     0.55477323
c     0.56616985     0.81938889     0.44522728
c     0.93382931     0.18061093     0.94522623
c     0.43382891     0.31938910     0.05477295
c     0.09567428     0.54281278     0.39431394
c     0.59567359     0.95718751     0.60568657
c     0.90432557     0.04281231     0.10568552
c     0.40432517     0.45718771     0.89431365
c     0.04650872     0.36370601     0.41342450
c     0.54650803     0.13629428     0.58657601
c     0.95349112     0.86370554     0.08657496
c     0.45349073     0.63629448     0.91342421
h     0.32710403     0.61399894     0.39982098
h     0.82710334     0.88600135     0.60017952
h     0.67289582     0.11399847     0.10017848
h     0.17289542     0.38600155     0.89982070
h     0.27186067     0.06471514     0.58262255
h     0.77185998     0.43528514     0.41737795
h     0.72813917     0.56471468     0.91737690
h     0.22813878     0.93528535     0.08262227
h     0.13989418     0.98875374     0.78888266
h     0.63989349     0.51124655     0.21111784
h     0.86010567     0.48875327     0.71111679
h     0.36010527     0.01124675     0.28888238
h     0.01699979     0.56001677     0.79423923
h     0.51699909     0.93998351     0.20576128
h     0.98300006     0.06001631     0.70576023
h     0.48299966     0.43998371     0.29423894
h     0.24695237     0.75368210     0.68538350
h     0.74695168     0.74631819     0.31461701
h     0.75304748     0.25368163     0.81461596
h     0.25304708     0.24631839     0.18538322
h     0.10856729     0.90775484     0.37642496
h     0.60856660     0.59224545     0.62357554
h     0.89143256     0.40775437     0.12357449
h     0.39143216     0.09224565     0.87642468
h     0.99118406     0.71474601     0.52885194
h     0.49118337     0.78525427     0.47114856
h     0.00881578     0.21474554     0.97114751
h     0.50881538     0.28525448     0.02885166
h     0.08379615     0.60099242     0.24377928
h     0.58379545     0.89900787     0.75622122
h     0.91620370     0.10099195     0.25622017
h     0.41620330     0.39900807     0.74377900
h     0.06903813     0.27308697     0.29208386
h     0.56903744     0.22691332     0.70791664
h     0.93096171     0.77308650     0.20791560
h     0.43096132     0.72691352     0.79208358
h     0.96970462     0.38137982     0.40569691
h     0.46970393     0.11862046     0.59430359
h     0.03029523     0.88137935     0.09430255
h     0.53029483     0.61862067     0.90569663
h     0.06287921     0.29956154     0.55762571
h     0.56287852     0.20043874     0.44237479
h     0.93712063     0.79956108     0.94237374
h     0.43712024     0.70043894     0.05762543
h     0.26707610     0.64053162     0.08541340
h     0.76707540     0.85946867     0.91458710
h     0.73292375     0.14053115     0.41458606
h     0.23292335     0.35946887     0.58541312
o     0.24061688     0.72907935     0.18391449
o     0.74061619     0.77092093     0.81608601
o     0.75938296     0.22907889     0.31608496
o     0.25938257     0.27092113     0.68391421
o     0.28941274     0.96122733     0.49508457
o     0.78941205     0.53877296     0.50491594
o     0.71058710     0.46122686     0.00491489
o     0.21058671     0.03877316     0.99508428
o     0.09836599     0.98887039     0.66804642
o     0.59836530     0.51112990     0.33195408
o     0.90163385     0.48886992     0.83195304
o     0.40163346     0.01113010     0.16804614
o     0.07847811     0.61333085     0.75429940
o     0.57847742     0.88666943     0.24570111
o     0.92152173     0.11333039     0.74570006
o     0.42152134     0.38666964     0.25429911
o     0.19681132     0.50730473     0.41310928
o     0.69681063     0.99269555     0.58689123
o     0.80318852     0.00730426     0.08689018
o     0.30318813     0.49269576     0.91310900

K_POINTS automatic
2 2 2 1 1 1

CELL_PARAMETERS cubic
   26.728127000000    -0.000001000000    -0.000003000000
   -0.000001000000    14.071128000000    -0.000001000000
   -0.000001000000    -0.000001000000    12.512709000000
