&control
 title='crystal',
 prefix='crystal',
 pseudo_dir='.',
 calculation='vc-relax',
/
&system
 ibrav=0,
 celldm(1)=1.0,
 nat=    88,
 ntyp=  4,
 ecutwfc=60.0,
 ecutrho=600.0,
 xdm=.true.,
 xdm_a1=0.4073,
 xdm_a2=2.4150,
/
&electrons
 conv_thr = 1d-8,
/
&ions
/
&cell
/
ATOMIC_SPECIES
h      1.007940 h.UPF
c     12.010700 c.UPF
o     15.999400 o.UPF
cl    35.453000 cl.UPF

ATOMIC_POSITIONS crystal
cl    0.42323512     0.15531344     0.84292864
cl    0.92323513     0.34468656     0.15707136
cl    0.57676489     0.65531346     0.65707136
cl    0.07676489     0.84468658     0.34292864
o     0.38463697     0.95994757     0.97144833
o     0.88463698     0.54005244     0.02855167
o     0.61536305     0.45994759     0.52855167
o     0.11536304     0.04005246     0.47144833
h     0.46962645     0.99913866     0.00424694
h     0.96962646     0.50086135     0.99575307
h     0.53037357     0.49913868     0.49575307
h     0.03037356     0.00086136     0.50424693
o     0.06040141     0.04735421     0.01586946
o     0.56040142     0.45264579     0.98413054
o     0.93959860     0.54735423     0.48413055
o     0.43959860     0.95264581     0.51586946
o     0.12774595     0.48552754     0.94820415
o     0.62774596     0.01447247     0.05179585
o     0.87225407     0.98552755     0.55179586
o     0.37225406     0.51447249     0.44820415
h     0.29369518     0.47623686     0.96185565
h     0.79369519     0.02376315     0.03814435
h     0.70630483     0.97623688     0.53814436
h     0.20630482     0.52376316     0.46185565
c     0.15194268     0.97302386     0.97723388
c     0.65194269     0.52697615     0.02276613
c     0.84805734     0.47302387     0.52276613
c     0.34805733     0.02697617     0.47723388
c     0.01348512     0.88786143     0.93301057
c     0.51348513     0.61213858     0.06698944
c     0.98651490     0.38786145     0.56698944
c     0.48651489     0.11213859     0.43301056
h     0.01922299     0.02461127     0.90474370
h     0.51922299     0.47538874     0.09525631
h     0.98077703     0.52461129     0.59525631
h     0.48077702     0.97538876     0.40474369
h     0.82674835     0.86408338     0.94333557
h     0.32674836     0.63591663     0.05666443
h     0.17325166     0.36408340     0.55666443
h     0.67325166     0.13591665     0.44333557
c     0.11688524     0.66391615     0.91089949
c     0.61688525     0.83608386     0.08910051
c     0.88311478     0.16391617     0.58910052
c     0.38311477     0.33608388     0.41089949
h     0.29862067     0.69791407     0.89793128
h     0.79862068     0.80208594     0.10206872
h     0.70137935     0.19791409     0.60206872
h     0.20137934     0.30208596     0.39793128
c     0.96619817     0.58663627     0.86747462
c     0.46619818     0.91336374     0.13252538
c     0.03380185     0.08663629     0.63252538
c     0.53380184     0.41336376     0.36747462
c     0.78471380     0.42531844     0.87424814
c     0.28471380     0.07468157     0.12575186
c     0.21528622     0.92531846     0.62575186
c     0.71528621     0.57468158     0.37424814
h     0.75159752     0.35096704     0.91060589
h     0.25159753     0.14903297     0.08939412
h     0.24840250     0.85096706     0.58939412
h     0.74840249     0.64903298     0.41060589
c     0.64370238     0.36388409     0.83390929
c     0.14370239     0.13611592     0.16609072
c     0.35629764     0.86388411     0.66609072
c     0.85629763     0.63611594     0.33390929
c     0.67367294     0.46198843     0.78711677
c     0.17367295     0.03801158     0.21288324
c     0.32632708     0.96198845     0.71288324
c     0.82632707     0.53801160     0.28711677
h     0.55958158     0.41270118     0.75630431
h     0.05958159     0.08729883     0.24369569
h     0.44041844     0.91270120     0.74369570
h     0.94041843     0.58729885     0.25630431
c     0.85519360     0.62365317     0.78087293
c     0.35519361     0.87634684     0.21912708
c     0.14480642     0.12365318     0.71912708
c     0.64480641     0.37634686     0.28087292
h     0.88373910     0.70123138     0.74455086
h     0.38373911     0.79876863     0.25544915
h     0.11626092     0.20123140     0.75544915
h     0.61626091     0.29876865     0.24455086
c     0.00139878     0.68409340     0.82054149
c     0.50139879     0.81590661     0.17945851
c     0.99860124     0.18409342     0.67945851
c     0.49860123     0.31590663     0.32054149
h     0.14468634     0.80743376     0.81476671
h     0.64468635     0.69256624     0.18523330
h     0.85531368     0.30743378     0.68523330
h     0.35531367     0.19256626     0.31476671

K_POINTS automatic
2 2 2 1 1 1

CELL_PARAMETERS cubic
   10.634602000000     0.000000000000     0.000000000000
    0.000000000000    10.953912000000     0.000000000000
    0.000000000000     0.000000000000    50.903587000000
