&control
 title='crystal',
 prefix='crystal',
 pseudo_dir='.',
 calculation='vc-relax',
/
&system
 ibrav=0,
 celldm(1)=1.0,
 nat=   104,
 ntyp=  4,
 ecutwfc=60.0,
 ecutrho=600.0,
 xdm=.true.,
 xdm_a1=0.4073,
 xdm_a2=2.4150,
/
&electrons
 conv_thr = 1d-8,
/
&ions
/
&cell
/
ATOMIC_SPECIES
h      1.007940 h.UPF
c     12.010700 c.UPF
n     14.006700 n.UPF
s     32.065000 s.UPF

ATOMIC_POSITIONS crystal
s     0.59537334     0.95692336     0.29523467
s     0.09537333     0.54307660     0.70476532
s     0.40462669     0.45692337     0.20476532
s     0.90462670     0.04307662     0.79523467
n     0.73166335     0.76498074     0.21400424
n     0.23166334     0.73501922     0.78599575
n     0.26833667     0.26498076     0.28599576
n     0.76833669     0.23501923     0.71400423
n     0.55690030     0.96671632     0.16852126
n     0.05690029     0.53328364     0.83147873
n     0.44309973     0.46671634     0.33147873
n     0.94309974     0.03328365     0.66852126
c     0.74816752     0.78863672     0.32217969
c     0.24816751     0.71136324     0.67782030
c     0.25183250     0.28863673     0.17782031
c     0.75183251     0.21136326     0.82217968
c     0.90322781     0.72485788     0.26700686
c     0.40322780     0.77514208     0.73299313
c     0.09677221     0.22485789     0.23299314
c     0.59677222     0.27514210     0.76700685
c     0.82567392     0.75291720     0.15005654
c     0.32567391     0.74708276     0.84994345
c     0.17432610     0.25291722     0.34994345
c     0.67432611     0.24708277     0.65005654
c     0.63582986     0.86638953     0.11832150
c     0.13582985     0.63361043     0.88167849
c     0.36417016     0.36638954     0.38167850
c     0.86417017     0.13361045     0.61832149
c     0.61919221     0.90032562     0.21861322
c     0.11919220     0.59967434     0.78138677
c     0.38080781     0.40032563     0.28138677
c     0.88080782     0.09967436     0.71861322
c     0.77679784     0.93701047     0.06425037
c     0.27679783     0.56298949     0.93574962
c     0.22320218     0.43701048     0.43574962
c     0.72320219     0.06298950     0.56425037
c     0.69645668     0.90309735     0.00418547
c     0.19645667     0.59690261     0.99581452
c     0.30354334     0.40309736     0.49581452
c     0.80354335     0.09690263     0.50418547
c     0.83138003     0.96650491     0.95417028
c     0.33138001     0.53349506     0.04582971
c     0.16862000     0.46650492     0.54582972
c     0.66862001     0.03349507     0.45417027
c     0.04681338     0.06520096     0.96373117
c     0.54681337     0.43479900     0.03626882
c     0.95318664     0.56520098     0.53626882
c     0.45318665     0.93479901     0.46373117
c     0.12816480     0.09961096     0.02363179
c     0.62816479     0.40038900     0.97636820
c     0.87183522     0.59961097     0.47636820
c     0.37183523     0.90038902     0.52363179
c     0.99448488     0.03534188     0.07342221
c     0.49448487     0.46465809     0.92657778
c     0.00551515     0.53534189     0.42657778
c     0.50551516     0.96465810     0.57342221
h     0.89113732     0.81154220     0.36047995
h     0.39113731     0.68845776     0.63952005
h     0.10886270     0.31154221     0.13952005
h     0.60886271     0.18845778     0.86047994
h     0.57754780     0.71820624     0.33755235
h     0.07754779     0.78179372     0.66244764
h     0.42245222     0.21820625     0.16244764
h     0.92245223     0.28179374     0.83755235
h     0.91473655     0.60959609     0.27141430
h     0.41473654     0.89040387     0.72858569
h     0.08526347     0.10959610     0.22858570
h     0.58526348     0.39040389     0.77141429
h     0.12097031     0.76663137     0.26279970
h     0.62097030     0.73336859     0.73720029
h     0.87902971     0.26663138     0.23720030
h     0.37902972     0.23336860     0.76279969
h     0.05247869     0.78071748     0.14643339
h     0.55247868     0.71928248     0.85356660
h     0.94752133     0.28071749     0.35356660
h     0.44752134     0.21928250     0.64643339
h     0.79284444     0.64636890     0.13164187
h     0.29284443     0.85363106     0.86835812
h     0.20715558     0.14636891     0.36835812
h     0.70715559     0.35363108     0.63164187
h     0.43983074     0.81576200     0.10163569
h     0.93983073     0.68423796     0.89836430
h     0.56016929     0.31576201     0.39836431
h     0.06016930     0.18423798     0.60163568
h     0.52620009     0.82715265     0.99663984
h     0.02620008     0.67284731     0.00336015
h     0.47379993     0.32715267     0.50336016
h     0.97379994     0.17284732     0.49663983
h     0.76610445     0.93874401     0.90766987
h     0.26610444     0.56125595     0.09233012
h     0.23389557     0.43874402     0.59233012
h     0.73389558     0.06125597     0.40766987
h     0.15282794     0.11513668     0.92486940
h     0.65282793     0.38486328     0.07513059
h     0.84717208     0.61513669     0.57513060
h     0.34717210     0.88486330     0.42486939
h     0.29782625     0.17561757     0.03121621
h     0.79782624     0.32438239     0.96878378
h     0.70217378     0.67561758     0.46878378
h     0.20217379     0.82438240     0.53121621
h     0.06303620     0.05910062     0.11999966
h     0.56303619     0.44089934     0.88000033
h     0.93696382     0.55910063     0.38000034
h     0.43696384     0.94089935     0.61999965

K_POINTS automatic
2 2 2 1 1 1

CELL_PARAMETERS cubic
    8.905748000000     0.000000000000     0.000000000000
    0.000000000000    17.874886000000     0.000000000000
    0.000000000000     0.000000000000    41.110325000000
