&control
 title='crystal',
 prefix='crystal',
 pseudo_dir='..',
 calculation='vc-relax',
 etot_conv_thr=1.0D-5,
/
&system
 ibrav=0,
 celldm(1)=1.0,
 nat=   180,
 ntyp=  4,
 ecutwfc=80.0,
 ecutrho=800.0,
 xdm=.true.,
 xdm_a1=0.6512,
 xdm_a2=1.4633,
/
&electrons
 conv_thr = 1d-8,
/
&ions
/
&cell
/
ATOMIC_SPECIES
h      1.007940 h.UPF
c     12.010700 c.UPF
n     14.006700 n.UPF
o     15.999400 o.UPF

ATOMIC_POSITIONS crystal
o        0.562476251   0.185230488   0.162098273
o        0.437523749   0.814769512   0.837901727
o        0.937531587   0.685236749   0.337900762
o        0.062468413   0.314763251   0.662099238
o        0.671261184   0.910815689   0.152024256
o        0.328738816   0.089184311   0.847975744
o        0.828742755   0.410823620   0.347977743
o        0.171257245   0.589176380   0.652022257
o        0.127726029   0.694297739   0.245600367
o        0.872273971   0.305702261   0.754399633
o        0.372273292   0.194289646   0.254393461
o        0.627726708   0.805710354   0.745606539
h        0.140668234   0.621063839   0.285051674
h        0.859331766   0.378936161   0.714948326
h        0.359332230   0.121054582   0.214942690
h        0.640667770   0.878945418   0.785057310
o        0.265984195   0.967625637   0.159119768
o        0.734015805   0.032374363   0.840880232
o        0.234011553   0.467634506   0.340870868
o        0.765988447   0.532365494   0.659129132
n        0.664056634   0.095108592   0.161022821
n        0.335943366   0.904891408   0.838977179
n        0.835939879   0.595094874   0.338978628
n        0.164060121   0.404905126   0.661021372
c        0.781383675   0.210646727   0.171152137
c        0.218616325   0.789353273   0.828847863
c        0.718623166   0.710655270   0.328848333
c        0.281376834   0.289344730   0.671151667
c        0.777033686   0.412686364   0.187171287
c        0.222966314   0.587313636   0.812828713
c        0.722965144   0.912687903   0.312832465
c        0.277034856   0.087312097   0.687167535
h        0.687113045   0.482518464   0.191826243
h        0.312886955   0.517481536   0.808173757
h        0.812892473   0.982528181   0.308178683
h        0.187107527   0.017471819   0.691821317
c        0.889319766   0.520350548   0.196257828
c        0.110680234   0.479649452   0.803742172
c        0.610686952   0.020353829   0.303742813
c        0.389313048   0.979646171   0.696257187
h        0.888712121   0.677064949   0.209677767
h        0.111287879   0.322935051   0.790322233
h        0.611290727   0.177068768   0.290323124
h        0.388709273   0.822931232   0.709676876
c        0.004312670   0.428728292   0.189202949
c        0.995687330   0.571271708   0.810797051
c        0.495686323   0.928723315   0.310796085
c        0.504313677   0.071276685   0.689203915
c        0.006100845   0.225140623   0.173633614
c        0.993899155   0.774859377   0.826366386
c        0.493904416   0.725139068   0.326364512
c        0.506095584   0.274860932   0.673635488
h        0.095201129   0.150883009   0.169308543
h        0.904798871   0.849116991   0.830691457
h        0.404799867   0.650876746   0.330689571
h        0.595200133   0.349123254   0.669310429
c        0.894638792   0.115271622   0.164456136
c        0.105361208   0.884728378   0.835543864
c        0.605359204   0.615264324   0.335541780
c        0.394640796   0.384735676   0.664458220
h        0.893890207   0.957548826   0.152346403
h        0.106109793   0.042451174   0.847653597
h        0.606111274   0.457542912   0.347648793
h        0.393888726   0.542457088   0.652351207
c        0.125991464   0.547678470   0.198058854
c        0.874008536   0.452321530   0.801941146
c        0.374009237   0.047674206   0.301937570
c        0.625990763   0.952325794   0.698062430
h        0.204981515   0.441856429   0.209517786
h        0.795018485   0.558143571   0.790482214
h        0.295019895   0.941847707   0.290479859
h        0.704980105   0.058152293   0.709520141
c        0.144254398   0.667328460   0.139461359
c        0.855745602   0.332671540   0.860538641
c        0.355742101   0.167327648   0.360531885
c        0.644257899   0.832672352   0.639468115
h        0.066691822   0.776530021   0.131840607
h        0.933308178   0.223469979   0.868159393
h        0.433303364   0.276532746   0.368151247
h        0.566696636   0.723467254   0.631848753
c        0.266619792   0.783659917   0.153681180
c        0.733380208   0.216340083   0.846318820
c        0.233376178   0.283642254   0.346309927
c        0.766623822   0.716357746   0.653690073
c        0.385613358   0.663704145   0.155943849
c        0.614386642   0.336295855   0.844056151
c        0.114382522   0.163699776   0.344048772
c        0.885617478   0.836300224   0.655951228
h        0.390736418   0.552104863   0.193149728
h        0.609263582   0.447895137   0.806850272
h        0.109257581   0.052096956   0.306844957
h        0.890742419   0.947903044   0.693155043
h        0.467678516   0.763026774   0.164967559
h        0.532321484   0.236973226   0.835032441
h        0.032317612   0.263021693   0.335024366
h        0.967682388   0.736978307   0.664975634
c        0.382626668   0.552741342   0.093924171
c        0.617373332   0.447258658   0.906075829
c        0.117371984   0.052743654   0.406071262
c        0.882628016   0.947256346   0.593928738
h        0.383819790   0.664809150   0.057292212
h        0.616180210   0.335190850   0.942707788
h        0.116180017   0.164815677   0.442700895
h        0.883819983   0.835184323   0.557299105
h        0.469956542   0.465698841   0.096267062
h        0.530043458   0.534301159   0.903732938
h        0.030041433   0.965702007   0.403731420
h        0.969958567   0.034297993   0.596268580
c        0.266005793   0.416880547   0.079803147
c        0.733994207   0.583119453   0.920196853
c        0.233992136   0.916883072   0.420194833
c        0.766007864   0.083116928   0.579805167
h        0.271506468   0.305327521   0.116977843
h        0.728493532   0.694672479   0.883022157
h        0.228492236   0.805328433   0.383021675
h        0.771507764   0.194671567   0.616978325
c        0.145614923   0.542137254   0.080599756
c        0.854385077   0.457862746   0.919400244
c        0.354382180   0.042142337   0.419396245
c        0.645617820   0.957857663   0.580603755
h        0.060873189   0.447519693   0.073882680
h        0.939126811   0.552480307   0.926117320
h        0.439124716   0.947527442   0.426115716
h        0.560875294   0.052472558   0.573884284
h        0.135948930   0.647864531   0.041803129
h        0.864051070   0.352135469   0.958196871
h        0.364046336   0.147872882   0.458190883
h        0.635953664   0.852127118   0.541809117
c        0.262822325   0.292843435   0.019179797
c        0.737177665   0.707156565   0.980820203
c        0.237176544   0.792845861   0.480819627
c        0.762823456   0.207154139   0.519180373
c        0.382239774   0.162028195   0.023185346
c        0.617760226   0.837971805   0.976814654
c        0.117759235   0.662029244   0.476815800
c        0.882240765   0.337970756   0.523184200
h        0.467892941   0.252476939   0.023146803
h        0.532107059   0.747523061   0.976853197
h        0.032106025   0.752476184   0.476853689
h        0.967893975   0.247523816   0.523146311
h        0.375536318   0.062028111   0.983190382
h        0.624463682   0.937971889   0.016809618
h        0.124463824   0.562028200   0.516811641
h        0.875536176   0.437971800   0.483188359
h        0.394955157   0.070677053   0.065125618
h        0.605044843   0.929322947   0.934874382
h        0.105044096   0.570678405   0.434876377
h        0.894955904   0.429321595   0.565123623
c        0.255968584   0.427042053   0.961973444
c        0.744031416   0.572957947   0.038026556
c        0.244030592   0.927042370   0.538025027
c        0.755969408   0.072957630   0.461974973
h        0.169295487   0.517415828   0.954509992
h        0.830704513   0.482584172   0.045490008
h        0.330704258   0.017416185   0.545487793
h        0.669295742   0.982583815   0.454512207
h        0.257366920   0.333880068   0.921007925
h        0.742633080   0.666119932   0.078992075
h        0.242632645   0.833878129   0.578991191
h        0.757367355   0.166121871   0.421008809
h        0.337019650   0.529353675   0.964785172
h        0.662980350   0.470646325   0.035214828
h        0.162979931   0.029353526   0.535212784
h        0.837020069   0.970646474   0.464787216
c        0.147494604   0.151727471   0.011420150
c        0.852505396   0.848272529   0.988579850
c        0.352503560   0.651729611   0.488580004
c        0.647496440   0.348270389   0.511419996
h        0.145390835   0.060949667   0.052893468
h        0.854609165   0.939050333   0.947106532
h        0.354606832   0.560952887   0.447107399
h        0.645393158   0.439047113   0.552892601
h        0.151509332   0.049360268   0.972583003
h        0.848490658   0.950639732   0.027416997
h        0.348489202   0.549361008   0.527417987
h        0.651510798   0.450638992   0.472582013
h        0.057848150   0.233571234   0.002063782
h        0.942151850   0.766428766   0.997936218
h        0.442150740   0.733572855   0.497935677
h        0.557849260   0.266427145   0.502064323

K_POINTS automatic
4 4 4 1 1 1

CELL_PARAMETERS cubic
  20.204712522  -0.000004578  -0.071066054
  -0.000002487  12.616216631   0.000120377
  -5.870626238   0.000393299  41.099220518
