%nprocs=4
%mem=4GB
#p pbepbe def2qzvp output=wfx scf=(conver=6) int=(grid=ultrafine)

title

0 1
c 1.208271600456707 0.697595933777858 0.000000000000000
c 1.208271600456707 -0.697595933777858 0.000000000000000
c 0.000000000000000 -1.395191867555720 0.000000000000000
c -1.208271600456707 -0.697595933777858 0.000000000000000
c -1.208271600456707 0.697595933777858 0.000000000000000
c 0.000000000000000 1.395191867555720 0.000000000000000
h 2.145223811274874 1.238545544911547 0.000000000000000
h 2.145223811274874 -1.238545544911547 0.000000000000000
h 0.000000000000000 -2.477091089823089 0.000000000000000
h -2.145223811274874 -1.238545544911542 0.000000000000000
h -2.145223811274874 1.238545544911542 0.000000000000000
h 0.000000000000000 2.477091089823089 0.000000000000000

bz.wfx

