%nprocs=4
%mem=4GB
#p pbepbe def2qzvp output=wfx scf=(conver=6) int=(grid=ultrafine)

title

0 2
cl -0.733077819491451 -1.589921936531704 0.000000000000000
f -0.762717969475502 0.094444669369284 0.000000000000000
cl 1.495795788966953 1.495477267162415 0.000000000000000

clclf.wfx

