%nprocs=4
%mem=4GB
#p pbepbe def2qzvp output=wfx scf=(conver=6) int=(grid=ultrafine)

title

1 2
o 0.000000000000000 0.000000000000000 0.385149443455336
h -0.813091580961585 0.000000000000000 -0.192574721727665
h 0.813091580961585 0.000000000000000 -0.192574721727665

h2o+.wfx

