%nprocs=4
%mem=4GB
#p pbepbe def2qzvp output=wfx scf=(conver=6) int=(grid=ultrafine)

title

0 2
li 0.000000000000000 0.000000000000000 0.000000000000000

li.wfx

