%nprocs=4
%mem=4GB
#p pbepbe def2qzvp output=wfx scf=(conver=6) int=(grid=ultrafine)

title

0 2
f 0.000000000000000 0.000000000000000 -1.662429977771758
li 0.000000000000000 0.000000000000000 0.000000000000000
f 0.000000000000000 0.000000000000000 1.662429977771758

li_f2.wfx

