%nprocs=4
%mem=4GB
#p pbepbe def2qzvp output=wfx scf=(conver=6) int=(grid=ultrafine)

title

0 2
o 0.000000000000000 0.000000000000000 0.070477567833243
mg 0.000000000000000 0.000000000000000 1.865044726460340
na 0.000000000000000 0.000000000000000 -1.935522294293588

naomg.wfx

