&control
 title='crystal',
 prefix='crystal',
 pseudo_dir='.',
 calculation='vc-relax',
/
&system
 ibrav=0,
 celldm(1)=1.0,
 nat=   100,
 ntyp=  4,
 ecutwfc=60.0,
 ecutrho=600.0,
 xdm=.true.,
 xdm_a1=0.4073,
 xdm_a2=2.4150,
/
&electrons
 conv_thr = 1d-8,
/
&ions
/
&cell
/
ATOMIC_SPECIES
h      1.007940 h.UPF
c     12.010700 c.UPF
o     15.999400 o.UPF
s     32.065000 s.UPF

ATOMIC_POSITIONS crystal
s     0.88355085     0.33639632     0.20741187
s     0.11644916     0.66360369     0.79258812
s     0.11643951     0.83639726     0.29258008
s     0.88356049     0.16360276     0.70741991
s     0.70072621     0.10792497     0.07553990
s     0.29927379     0.89207505     0.92446009
s     0.29927559     0.60791482     0.42444656
s     0.70072441     0.39208520     0.57555343
c     0.78486059     0.07874383     0.18792609
c     0.21513942     0.92125619     0.81207390
c     0.21513956     0.57874420     0.31206088
c     0.78486044     0.42125582     0.68793911
c     0.81125645     0.08818470     0.00179323
c     0.18874356     0.91181532     0.99820676
c     0.18874236     0.58816958     0.49818872
c     0.81125764     0.41183044     0.50181127
c     0.89886255     0.28522109     0.01920908
c     0.10113745     0.71477893     0.98079091
c     0.10114180     0.78523235     0.48078460
c     0.89885820     0.21476767     0.51921539
c     0.96688497     0.27477918     0.11460131
c     0.03311503     0.72522084     0.88539868
c     0.03311340     0.77479893     0.38539184
c     0.96688660     0.22520109     0.61460814
c     0.70735308     0.08746502     0.26004536
c     0.29264692     0.91253500     0.73995463
c     0.29264401     0.58747028     0.23993985
c     0.70735599     0.41252974     0.76006014
c     0.70575876     0.90306104     0.32355299
c     0.29424124     0.09693898     0.67644700
c     0.29423519     0.40310023     0.17641058
c     0.70576481     0.59689979     0.82358941
c     0.63155204     0.91132436     0.38912789
c     0.36844796     0.08867566     0.61087210
c     0.36844674     0.41136688     0.11084243
c     0.63155326     0.58863314     0.88915756
c     0.55804904     0.10347380     0.39140499
c     0.44195096     0.89652622     0.60859499
c     0.44196077     0.60349843     0.10859211
c     0.55803923     0.39650158     0.89140788
c     0.56024681     0.28946439     0.32918972
c     0.43975319     0.71053563     0.67081027
c     0.43976209     0.78946896     0.17082371
c     0.56023791     0.21053106     0.82917628
c     0.63495729     0.28218402     0.26420561
c     0.36504272     0.71781600     0.73579438
c     0.36504354     0.78217862     0.23580397
c     0.63495646     0.21782140     0.76419602
o     0.96186826     0.27940682     0.29543575
o     0.03813174     0.72059320     0.70456424
o     0.03812034     0.77938887     0.20455844
o     0.96187966     0.22061115     0.79544155
h     0.83811585     0.91899324     0.19268754
h     0.16188415     0.08100677     0.80731245
h     0.16188840     0.41899571     0.30729314
h     0.83811160     0.58100431     0.69270685
h     0.85109652     0.91233128     0.01038569
h     0.14890348     0.08766874     0.98961430
h     0.14889894     0.41232873     0.48957354
h     0.85110106     0.58767129     0.51042645
h     0.76604551     0.10018773     0.93188985
h     0.23395449     0.89981229     0.06811014
h     0.23394888     0.60013050     0.56809503
h     0.76605112     0.39986952     0.43190496
h     0.85621105     0.45748355     0.00725635
h     0.14378895     0.54251647     0.99274364
h     0.14380012     0.95748262     0.49273855
h     0.85619988     0.04251740     0.50726144
h     0.95739874     0.26929847     0.96780360
h     0.04260127     0.73070155     0.03219639
h     0.04260852     0.76933502     0.53219196
h     0.95739148     0.23066500     0.46780803
h     0.00523771     0.09992105     0.13084735
h     0.99476229     0.90007897     0.86915264
h     0.99476081     0.59994561     0.36914223
h     0.00523919     0.40005440     0.63085776
h     0.03185994     0.41330293     0.12477180
h     0.96814006     0.58669708     0.87522819
h     0.96813618     0.91332954     0.37522928
h     0.03186382     0.08667048     0.62477071
h     0.76199207     0.75186718     0.32042692
h     0.23800794     0.24813283     0.67957307
h     0.23799555     0.25191616     0.17951904
h     0.76200446     0.74808386     0.82048095
h     0.63057921     0.76735347     0.43840295
h     0.36942079     0.23264655     0.56159704
h     0.36941890     0.26741921     0.06155163
h     0.63058110     0.73258081     0.93844835
h     0.49824815     0.10888530     0.44098937
h     0.50175185     0.89111472     0.55901062
h     0.50176511     0.60891474     0.05901234
h     0.49823489     0.39108528     0.94098765
h     0.50352386     0.43998652     0.33094014
h     0.49647614     0.56001350     0.66905985
h     0.49648506     0.93997886     0.16909026
h     0.50351495     0.06002116     0.83090973
h     0.63614728     0.42712267     0.21553729
h     0.36385272     0.57287735     0.78446270
h     0.36385137     0.92709774     0.28448378
h     0.63614863     0.07290228     0.71551621

K_POINTS automatic
2 2 2 1 1 1

CELL_PARAMETERS cubic
   22.511098000000     0.000515000000    -0.165594000000
    0.000246000000    10.656523000000    -0.000249000000
   -3.584692000000    -0.000728000000    27.577767000000
