&control
 title='crystal',
 prefix='crystal',
 pseudo_dir='..',
/
&system
 ibrav=0,
 celldm(1)=1.0,
 nat=     8,
 ntyp=  1,
 ecutwfc=80.0,
 ecutrho=800.0,
 xdm=.true.,
 xdm_a1=0.6754,
 xdm_a2=1.4651,
 input_dft='b86bpbex',
 exx_fraction=0.25,
/
&electrons
 conv_thr = 1d-8,
/
ATOMIC_SPECIES
I   126.904470 i.UPF

ATOMIC_POSITIONS crystal
I        0.000000000   0.175473268   0.122773107
I        0.500000000   0.675474318   0.122773328
I       -0.000000000   0.324527016   0.622773046
I        0.500000000   0.824527183   0.622772769
I       -0.000000000   0.675472984   0.377226954
I        0.500000000   0.175472817   0.377227231
I        0.000000000   0.824526732   0.877226893
I        0.500000000   0.324525682   0.877226672

K_POINTS automatic
6 6 6 1 1 1

CELL_PARAMETERS
  13.684423304   0.000000000   0.000000000
   0.000000000   8.449320927  -0.000013662
   0.000000000  -0.000028553  18.193333582
