&control
 title='crystal',
 prefix='crystal',
 pseudo_dir='.',
 calculation='vc-relax',
/
&system
 ibrav=0,
 celldm(1)=1.0,
 nat=    22,
 ntyp=  2,
 ecutwfc=60.0,
 ecutrho=600.0,
 xdm=.true.,
 xdm_a1=0.4073,
 xdm_a2=2.4150,
/
&electrons
 conv_thr = 1d-8,
/
&ions
/
&cell
/
ATOMIC_SPECIES
h      1.007940 h.UPF
c     12.010700 c.UPF

ATOMIC_POSITIONS crystal
c     0.47070724     0.19249875     0.12550410
c     0.52929258     0.80750121     0.87449598
c     0.43849163     0.33405318     0.26517527
c     0.56150819     0.66594679     0.73482481
c     0.37550322     0.25534927     0.51352159
c     0.62449660     0.74465070     0.48647848
h     0.50224094     0.25136436     0.95088068
h     0.49775888     0.74863560     0.04911939
h     0.21727736     0.11000656     0.21792048
h     0.78272246     0.88999340     0.78207959
h     0.71669727     0.10348905     0.10055590
h     0.28330254     0.89651091     0.89944417
h     0.20390753     0.42749673     0.27577666
h     0.79609229     0.57250323     0.72422341
h     0.69782513     0.41322228     0.16894315
h     0.30217469     0.58677768     0.83105692
h     0.35110749     0.35843817     0.61216869
h     0.64889233     0.64156179     0.38783138
h     0.61018484     0.16497975     0.50922999
h     0.38981498     0.83502022     0.49077009
h     0.11352517     0.17892882     0.61450707
h     0.88647465     0.82107115     0.38549301

K_POINTS automatic
2 2 2 1 1 1

CELL_PARAMETERS cubic
    7.605493000000    -0.370675000000     0.004761000000
    2.462376000000    14.363155000000     0.143539000000
    6.149858000000     1.511643000000    10.752005000000
