&control
 title='crystal',
 prefix='crystal',
 pseudo_dir='.',
 calculation='vc-relax',
/
&system
 ibrav=0,
 celldm(1)=1.0,
 nat=    44,
 ntyp=  2,
 ecutwfc=60.0,
 ecutrho=600.0,
 xdm=.true.,
 xdm_a1=0.4073,
 xdm_a2=2.4150,
/
&electrons
 conv_thr = 1d-8,
/
&ions
/
&cell
/
ATOMIC_SPECIES
h      1.007940 h.UPF
c     12.010700 c.UPF

ATOMIC_POSITIONS crystal
c     0.23126810     0.26977675     0.27700814
c     0.76873195     0.73022321     0.72299181
c     0.76873615     0.76977719     0.22297489
c     0.23126389     0.23022277     0.77702506
h     0.12069267     0.20051925     0.54375172
h     0.87930738     0.79948072     0.45624824
h     0.87931404     0.70051962     0.95622921
h     0.12068600     0.29948034     0.04377075
h     0.26296559     0.53195658     0.22696194
h     0.73703445     0.46804338     0.77303802
h     0.73703702     0.03195802     0.27302565
h     0.26296302     0.96804194     0.72697430
h     0.37056364     0.13633810     0.03164298
h     0.62943640     0.86366186     0.96835698
h     0.62943992     0.63633904     0.46833931
h     0.37056013     0.36366092     0.53166064
c     0.15604584     0.19462122     0.30976169
c     0.84395421     0.80537874     0.69023827
c     0.84395219     0.69462081     0.19023334
c     0.15604785     0.30537915     0.80976662
h     0.01498669     0.32715634     0.56084832
h     0.98501335     0.67284362     0.43915163
h     0.98501024     0.82715639     0.93915037
h     0.01498981     0.17284357     0.06084958
h     0.11768255     0.93339901     0.37634701
h     0.88231750     0.06660095     0.62365294
h     0.88231704     0.43339842     0.12364411
h     0.11768300     0.56660154     0.87635585
c     0.30909541     0.28078715     0.93836649
c     0.69090463     0.71921281     0.06163347
c     0.69089933     0.78078457     0.56163306
c     0.30910071     0.21921539     0.43836689
h     0.25457030     0.21666307     0.96374468
h     0.74542974     0.78333689     0.03625527
h     0.74542555     0.71666273     0.53625303
h     0.25457450     0.28333723     0.46374693
h     0.45100932     0.14974607     0.68361229
h     0.54899072     0.85025389     0.31638767
h     0.54898782     0.64974036     0.81638268
h     0.45101223     0.35025961     0.18361727
h     0.34343811     0.54371582     0.87374497
h     0.65656193     0.45628414     0.12625498
h     0.65655449     0.04371325     0.62625965
h     0.34344555     0.95628671     0.37374031

K_POINTS automatic
2 2 2 1 1 1

CELL_PARAMETERS cubic
   47.794667000000    -0.000129000000    -0.426164000000
   -0.000021000000     7.717936000000    -0.000023000000
   23.696585000000    -0.000083000000     6.245857000000
