&control
 title='crystal',
 prefix='crystal',
 pseudo_dir='.',
 calculation='vc-relax',
/
&system
 ibrav=0,
 celldm(1)=1.0,
 nat=    22,
 ntyp=  2,
 ecutwfc=60.0,
 ecutrho=600.0,
 xdm=.true.,
 xdm_a1=0.4073,
 xdm_a2=2.4150,
/
&electrons
 conv_thr = 1d-8,
/
&ions
/
&cell
/
ATOMIC_SPECIES
h      1.007940 h.UPF
c     12.010700 c.UPF

ATOMIC_POSITIONS crystal
c     0.20222697     0.24677209     0.23256858
c     0.79777300     0.75322793     0.76743142
h     0.26802839     0.44918571     0.12131379
h     0.73197158     0.55081430     0.87868621
h     0.32829671     0.17337150     0.37202707
h     0.67170326     0.82662852     0.62797293
h     0.93867008     0.24011542     0.26632479
h     0.06132989     0.75988460     0.73367521
c     0.29257082     0.08819946     0.15635873
c     0.70742916     0.91180056     0.84364127
h     0.55573903     0.10647095     0.11748246
h     0.44426094     0.89352906     0.88251754
h     0.16773669     0.16847808     0.01490218
h     0.83226328     0.83152194     0.98509782
c     0.20892542     0.80412817     0.30968776
c     0.79107455     0.19587185     0.69031224
h     0.28197812     0.69284276     0.25379654
h     0.71802185     0.30715726     0.74620346
h     0.94533076     0.77774765     0.34565107
h     0.05466921     0.22225237     0.65434893
h     0.33338339     0.71842520     0.45185441
h     0.66661659     0.28157482     0.54814559

K_POINTS automatic
2 2 2 1 1 1

CELL_PARAMETERS cubic
    7.732577000000    -0.113717000000    -0.035908000000
    0.622841000000    12.274070000000     0.046909000000
    0.905636000000     9.326023000000    12.572236000000
