&control
 title='crystal',
 prefix='crystal',
 pseudo_dir='.',
 calculation='vc-relax',
/
&system
 ibrav=0,
 celldm(1)=1.0,
 nat=    44,
 ntyp=  2,
 ecutwfc=60.0,
 ecutrho=600.0,
 xdm=.true.,
 xdm_a1=0.4073,
 xdm_a2=2.4150,
/
&electrons
 conv_thr = 1d-8,
/
&ions
/
&cell
/
ATOMIC_SPECIES
h      1.007940 h.UPF
c     12.010700 c.UPF

ATOMIC_POSITIONS crystal
c     0.79651926     0.50326017     0.33349701
c     0.20348071     0.49673983     0.66650301
c     0.70346925     0.00326035     0.16650668
c     0.29653073     0.99673965     0.83349335
c     0.76874905     0.64558779     0.45699337
c     0.23125092     0.35441221     0.54300666
c     0.73124419     0.14558562     0.04301228
c     0.26875578     0.85441438     0.95698775
c     0.60397973     0.67024961     0.56877482
c     0.39602024     0.32975039     0.43122521
c     0.89602397     0.17024196     0.93122826
c     0.10397600     0.82975804     0.06877176
h     0.72295093     0.47908382     0.12513913
h     0.27704904     0.52091618     0.87486090
h     0.77704418     0.97909554     0.37485563
h     0.22295579     0.02090446     0.62514440
h     0.91478542     0.48838295     0.24877409
h     0.08521455     0.51161705     0.75122594
h     0.58520348     0.98835944     0.25121821
h     0.41479649     0.01164056     0.74878181
h     0.77210641     0.42991033     0.53041000
h     0.22789356     0.57008967     0.46959003
h     0.72788489     0.92992129     0.96956660
h     0.27211509     0.07007871     0.03043343
h     0.84495033     0.66702009     0.66339889
h     0.15504965     0.33297991     0.33660114
h     0.65503814     0.16702117     0.83662315
h     0.34496183     0.83297883     0.16337688
h     0.80017159     0.71674932     0.25937278
h     0.19982838     0.28325068     0.74062724
h     0.69979710     0.21674923     0.24062581
h     0.30020287     0.78325077     0.75937422
h     0.52610540     0.65552150     0.36251410
h     0.47389457     0.34447850     0.63748593
h     0.97391806     0.15551056     0.13745143
h     0.02608191     0.84448944     0.86254860
h     0.56855407     0.60129203     0.76800271
h     0.43144591     0.39870797     0.23199731
h     0.93148462     0.10130219     0.73197779
h     0.06851535     0.89869781     0.26802224
h     0.58737539     0.77220491     0.66203523
h     0.41262458     0.22779509     0.33796480
h     0.91262684     0.27219235     0.83794487
h     0.08737313     0.72780765     0.16205516

K_POINTS automatic
2 2 2 1 1 1

CELL_PARAMETERS cubic
   16.239248000000     0.000504000000    -3.521696000000
   -0.000410000000    18.927287000000     0.000634000000
    1.781878000000    -0.000288000000     7.395538000000
