&control
 title='crystal',
 prefix='crystal',
 pseudo_dir='.',
 calculation='vc-relax',
/
&system
 ibrav=0,
 celldm(1)=1.0,
 nat=    44,
 ntyp=  2,
 ecutwfc=60.0,
 ecutrho=600.0,
 xdm=.true.,
 xdm_a1=0.4073,
 xdm_a2=2.4150,
/
&electrons
 conv_thr = 1d-8,
/
&ions
/
&cell
/
ATOMIC_SPECIES
h      1.007940 h.UPF
c     12.010700 c.UPF

ATOMIC_POSITIONS crystal
c     0.13971917     0.04270643     0.13920522
c     0.63971918     0.45729356     0.86079476
c     0.86028085     0.54270642     0.36079477
c     0.36028084     0.95729354     0.63920522
c     0.00683579     0.96990466     0.04201762
c     0.50683581     0.53009533     0.95798236
c     0.99316423     0.46990465     0.45798237
c     0.49316421     0.03009531     0.54201762
c     0.06054746     0.04270093     0.90652241
c     0.56054747     0.45729906     0.09347757
c     0.93945256     0.54270091     0.59347758
c     0.43945255     0.95729905     0.40652240
h     0.10053122     0.98064354     0.23544921
h     0.60053123     0.51935644     0.76455077
h     0.89946880     0.48064353     0.26455078
h     0.39946879     0.01935643     0.73544921
h     0.17336668     0.30466616     0.13841082
h     0.67336669     0.19533383     0.86158916
h     0.82663334     0.80466615     0.36158917
h     0.32663333     0.69533381     0.63841081
h     0.25066791     0.90119979     0.11904228
h     0.75066792     0.59880020     0.88095770
h     0.74933211     0.40119978     0.38095771
h     0.24933210     0.09880018     0.61904227
h     0.89728350     0.11444854     0.06459906
h     0.39728351     0.38555144     0.93540092
h     0.10271652     0.61444853     0.43540093
h     0.60271651     0.88555143     0.56459905
h     0.97006418     0.70990295     0.04949967
h     0.47006419     0.79009703     0.95050031
h     0.02993584     0.20990294     0.45050032
h     0.52993583     0.29009702     0.54949966
h     0.96411422     0.98979661     0.83771570
h     0.46411423     0.51020337     0.16228428
h     0.03588580     0.48979660     0.66228429
h     0.53588579     0.01020336     0.33771570
h     0.09456213     0.30283376     0.89517932
h     0.59456214     0.19716623     0.10482066
h     0.90543789     0.80283374     0.60482067
h     0.40543788     0.69716622     0.39517932
h     0.16703920     0.89379063     0.88057181
h     0.66703922     0.60620936     0.11942817
h     0.83296081     0.39379061     0.61942818
h     0.33296080     0.10620935     0.38057180

K_POINTS automatic
2 2 2 1 1 1

CELL_PARAMETERS cubic
   15.526024000000     0.000000000000     0.000000000000
    0.000000000000     7.666925000000     0.000000000000
    0.000000000000     0.000000000000    19.972225000000
