&control
 title='crystal',
 prefix='crystal',
 pseudo_dir='.',
 calculation='vc-relax',
/
&system
 ibrav=0,
 celldm(1)=1.0,
 nat=    44,
 ntyp=  2,
 ecutwfc=60.0,
 ecutrho=600.0,
 xdm=.true.,
 xdm_a1=0.4073,
 xdm_a2=2.4150,
/
&electrons
 conv_thr = 1d-8,
/
&ions
/
&cell
/
ATOMIC_SPECIES
h      1.007940 h.UPF
c     12.010700 c.UPF

ATOMIC_POSITIONS crystal
c     0.21038239     0.13998066     0.11051137
c     0.78961764     0.86001936     0.88948864
c     0.21038237     0.36001935     0.61051138
c     0.78961764     0.63998068     0.38948863
c     0.28401365     0.00751762     0.20822317
c     0.71598638     0.99248240     0.79177684
c     0.28401364     0.49248239     0.70822318
c     0.71598638     0.50751764     0.29177683
c     0.21665814     0.06138854     0.34367570
c     0.78334189     0.93861149     0.65632430
c     0.21665813     0.43861148     0.84367571
c     0.78334189     0.56138855     0.15632430
h     0.26940017     0.10084713     0.01435660
h     0.73059986     0.89915289     0.98564340
h     0.26940015     0.39915288     0.51435661
h     0.73059986     0.60084715     0.48564340
h     0.35388552     0.24995757     0.13152793
h     0.64611450     0.75004246     0.86847207
h     0.35388551     0.25004244     0.63152794
h     0.64611450     0.74995758     0.36847207
h     0.94845948     0.17422948     0.10987930
h     0.05154054     0.82577054     0.89012071
h     0.94845947     0.32577053     0.60987931
h     0.05154054     0.67422950     0.39012070
h     0.54359164     0.96983267     0.20179981
h     0.45640839     0.03016736     0.79820019
h     0.54359163     0.53016734     0.70179982
h     0.45640839     0.46983268     0.29820019
h     0.13656585     0.89913101     0.18503445
h     0.86343417     0.10086902     0.81496556
h     0.13656584     0.60086901     0.68503446
h     0.86343417     0.39913102     0.31496555
h     0.26948558     0.96506705     0.41278591
h     0.73051444     0.03493298     0.58721410
h     0.26948557     0.53493296     0.91278592
h     0.73051444     0.46506706     0.08721409
h     0.36916220     0.16655331     0.37021131
h     0.63083783     0.83344671     0.62978870
h     0.36916219     0.33344670     0.87021132
h     0.63083783     0.66655332     0.12978869
h     0.95740577     0.09682247     0.35409188
h     0.04259426     0.90317755     0.64590812
h     0.95740576     0.40317754     0.85409189
h     0.04259425     0.59682249     0.14590812

K_POINTS automatic
2 2 2 1 1 1

CELL_PARAMETERS cubic
    7.655777000000     0.000000000000    -0.074519000000
    0.000000000000    15.599676000000     0.000000000000
   -0.253681000000     0.000000000000    19.939929000000
