&control
 title='crystal',
 prefix='crystal',
 pseudo_dir='.',
 calculation='vc-relax',
/
&system
 ibrav=0,
 celldm(1)=1.0,
 nat=    44,
 ntyp=  2,
 ecutwfc=60.0,
 ecutrho=600.0,
 xdm=.true.,
 xdm_a1=0.4073,
 xdm_a2=2.4150,
/
&electrons
 conv_thr = 1d-8,
/
&ions
/
&cell
/
ATOMIC_SPECIES
h      1.007940 h.UPF
c     12.010700 c.UPF

ATOMIC_POSITIONS crystal
h     0.33936199     0.28380655     0.27149958
h     0.83936197     0.21619345     0.72850041
h     0.66063799     0.78380655     0.22850042
h     0.16063800     0.71619345     0.77149957
c     0.27322073     0.32536063     0.17143823
c     0.77322072     0.17463937     0.82856175
c     0.72677924     0.82536063     0.32856176
c     0.22677926     0.67463937     0.67143823
c     0.14211741     0.48556593     0.17697666
c     0.64211739     0.01443407     0.82302333
c     0.85788257     0.98556593     0.32302334
c     0.35788258     0.51443407     0.67697665
c     0.06406420     0.54927414     0.03824264
c     0.56406419     0.95072586     0.96175734
c     0.93593578     0.04927414     0.46175735
c     0.43593579     0.45072586     0.53824264
h     0.08687522     0.24896481     0.12936502
h     0.58687520     0.25103519     0.87063497
h     0.91312476     0.74896481     0.37063498
h     0.41312477     0.75103519     0.62936501
h     0.49571614     0.31768231     0.10821032
h     0.99571613     0.18231769     0.89178967
h     0.50428383     0.81768231     0.39178968
h     0.00428385     0.68231769     0.60821031
h     0.91806566     0.48924860     0.23995841
h     0.41806564     0.01075140     0.76004157
h     0.08193432     0.98924860     0.26004158
h     0.58193433     0.51075140     0.73995840
h     0.32499178     0.55773575     0.22713818
h     0.82499177     0.94226425     0.77286180
h     0.67500819     0.05773575     0.27286181
h     0.17500820     0.44226425     0.72713818
h     0.96634182     0.66362701     0.04438947
h     0.46634181     0.83637299     0.95561052
h     0.03365815     0.16362701     0.45561053
h     0.53365816     0.33637299     0.54438946
h     0.28774495     0.55205657     0.97536122
h     0.78774494     0.94794343     0.02463876
h     0.71225503     0.05205657     0.52463878
h     0.21225504     0.44794343     0.47536121
h     0.87932155     0.48064591     0.98548992
h     0.37932154     0.01935409     0.01451007
h     0.12067842     0.98064591     0.51451008
h     0.62067844     0.51935409     0.48548991

K_POINTS automatic
2 2 2 1 1 1

CELL_PARAMETERS cubic
    7.612926000000     0.000000000000     0.000000000000
    0.000000000000    16.894622000000     0.000000000000
    0.000000000000     0.000000000000    18.832048000000
