&control
 title='crystal',
 prefix='crystal',
 pseudo_dir='.',
 calculation='vc-relax',
/
&system
 ibrav=0,
 celldm(1)=1.0,
 nat=    44,
 ntyp=  2,
 ecutwfc=60.0,
 ecutrho=600.0,
 xdm=.true.,
 xdm_a1=0.4073,
 xdm_a2=2.4150,
/
&electrons
 conv_thr = 1d-8,
/
&ions
/
&cell
/
ATOMIC_SPECIES
h      1.007940 h.UPF
c     12.010700 c.UPF

ATOMIC_POSITIONS crystal
c     0.21727064     0.94703719     0.22165310
c     0.78272942     0.05296280     0.77834688
c     0.71727067     0.55296279     0.72165308
c     0.28272938     0.44703720     0.27834689
h     0.95245928     0.94528741     0.18994645
h     0.04754078     0.05471257     0.81005353
h     0.45245930     0.55471256     0.68994643
h     0.54754075     0.44528742     0.31005354
h     0.34103515     0.92192519     0.08834814
h     0.65896492     0.07807480     0.91165184
h     0.84103517     0.57807479     0.58834813
h     0.15896488     0.42192520     0.41165185
h     0.28595906     0.03007912     0.25058600
h     0.71404101     0.96992086     0.74941398
h     0.78595908     0.46992086     0.75058598
h     0.21404097     0.53007913     0.24941399
c     0.30849860     0.87441471     0.39326565
c     0.69150147     0.12558528     0.60673433
c     0.80849862     0.62558527     0.89326564
c     0.19150143     0.37441472     0.10673434
h     0.57144778     0.88268002     0.42822221
h     0.42855228     0.11731997     0.57177776
h     0.07144781     0.61731996     0.92822220
h     0.92855225     0.38268003     0.07177778
h     0.18094570     0.90099487     0.52471179
h     0.81905436     0.09900512     0.47528819
h     0.68094573     0.59900511     0.02471177
h     0.31905432     0.40099488     0.97528821
c     0.22965323     0.75738745     0.35288713
c     0.77034684     0.24261253     0.64711285
c     0.72965325     0.74261253     0.85288712
c     0.27034680     0.25738746     0.14711286
h     0.96594045     0.74532645     0.32601099
h     0.03405962     0.25467354     0.67398899
h     0.46594047     0.75467353     0.82601097
h     0.53405958     0.24532646     0.17398900
h     0.30450712     0.70619291     0.47553804
h     0.69549294     0.29380708     0.52446193
h     0.80450715     0.79380707     0.97553803
h     0.19549290     0.20619291     0.02446195
h     0.35700003     0.72909267     0.22297087
h     0.64300004     0.27090732     0.77702911
h     0.85700005     0.77090731     0.72297085
h     0.14300000     0.22909268     0.27702912

K_POINTS automatic
2 2 2 1 1 1

CELL_PARAMETERS cubic
    7.709251000000     0.000000000000    -0.001669000000
    0.000000000000    23.722856000000     0.000000000000
   -0.252403000000     0.000000000000    12.942116000000
