&control
 title='crystal',
 prefix='crystal',
 pseudo_dir='.',
 calculation='vc-relax',
/
&system
 ibrav=0,
 celldm(1)=1.0,
 nat=    44,
 ntyp=  2,
 ecutwfc=60.0,
 ecutrho=600.0,
 xdm=.true.,
 xdm_a1=0.4073,
 xdm_a2=2.4150,
/
&electrons
 conv_thr = 1d-8,
/
&ions
/
&cell
/
ATOMIC_SPECIES
h      1.007940 h.UPF
c     12.010700 c.UPF

ATOMIC_POSITIONS crystal
h     0.28244043     0.33217030     0.46580810
h     0.78244042     0.16782969     0.53419190
h     0.71755954     0.83217028     0.03419190
h     0.21755955     0.66782968     0.96580810
c     0.37703396     0.39259636     0.37819733
c     0.87703395     0.10740363     0.62180267
c     0.62296601     0.89259634     0.12180267
c     0.12296602     0.60740362     0.87819733
c     0.47867333     0.28217655     0.26820502
c     0.97867332     0.21782344     0.73179498
c     0.52132664     0.78217653     0.23179498
c     0.02132665     0.71782343     0.76820503
c     0.60427785     0.36159613     0.14284776
c     0.10427783     0.13840385     0.85715224
c     0.39572213     0.86159612     0.35715224
c     0.89572214     0.63840384     0.64284776
h     0.58803289     0.46270666     0.41024152
h     0.08803287     0.03729333     0.58975848
h     0.41196709     0.96270664     0.08975848
h     0.91196710     0.53729332     0.91024153
h     0.18089076     0.47025061     0.34428840
h     0.68089075     0.02974938     0.65571160
h     0.81910921     0.97025059     0.15571160
h     0.31910923     0.52974936     0.84428840
h     0.67217332     0.20517835     0.30602268
h     0.17217330     0.29482163     0.69397732
h     0.32782666     0.70517833     0.19397732
h     0.82782667     0.79482162     0.80602269
h     0.26662288     0.20894259     0.24256756
h     0.76662286     0.29105740     0.75743244
h     0.73337710     0.70894257     0.25743244
h     0.23337711     0.79105739     0.74256757
h     0.68307519     0.27942373     0.06712155
h     0.18307518     0.22057626     0.93287845
h     0.31692478     0.77942371     0.43287845
h     0.81692479     0.72057625     0.56712156
h     0.41038342     0.43348275     0.09882618
h     0.91038341     0.06651723     0.90117382
h     0.58961655     0.93348274     0.40117382
h     0.08961656     0.56651722     0.59882619
h     0.81741203     0.43533222     0.16476739
h     0.31741202     0.06466776     0.83523261
h     0.18258794     0.93533221     0.33523261
h     0.68258796     0.56466775     0.66476740

K_POINTS automatic
2 2 2 1 1 1

CELL_PARAMETERS cubic
    7.605718000000     0.000000000000     0.000000000000
    0.000000000000    16.626097000000     0.000000000000
    0.000000000000     0.000000000000    19.001630000000
