&control
 title='crystal',
 prefix='crystal',
 pseudo_dir='.',
 calculation='vc-relax',
/
&system
 ibrav=0,
 celldm(1)=1.0,
 nat=    60,
 ntyp=  4,
 ecutwfc=60.0,
 ecutrho=600.0,
 xdm=.true.,
 xdm_a1=0.4073,
 xdm_a2=2.4150,
/
&electrons
 conv_thr = 1d-8,
/
&ions
/
&cell
/
ATOMIC_SPECIES
h      1.007940 h.UPF
c     12.010700 c.UPF
n     14.006700 n.UPF
o     15.999400 o.UPF

ATOMIC_POSITIONS crystal
o     0.30590074     0.75746532     0.29480944
o     0.69409933     0.24253471     0.70519053
c     0.20265082     0.64443881     0.37764312
c     0.79734925     0.35556121     0.62235686
c     0.16019461     0.43926078     0.32381456
c     0.83980546     0.56073925     0.67618542
h     0.39489616     0.87681017     0.54296228
h     0.60510391     0.12318986     0.45703769
h     0.53106917     0.72052924     0.50431132
h     0.46893090     0.27947078     0.49568866
h     0.29802491     0.65271039     0.57921912
h     0.70197516     0.34728964     0.42078085
c     0.36799506     0.72925814     0.51022368
c     0.63200501     0.27074188     0.48977629
h     0.03790833     0.37481809     0.22925884
h     0.96209175     0.62518194     0.77074113
h     0.09614962     0.36114265     0.39342722
h     0.90385045     0.63885738     0.60657276
h     0.32012951     0.42803929     0.31209132
h     0.67987056     0.57196073     0.68790865
o     0.99861700     0.66731276     0.39508077
o     0.00138307     0.33268727     0.60491920
c     0.83895243     0.63158681     0.27517348
c     0.16104764     0.36841322     0.72482649
h     0.77526454     0.48377904     0.21976079
h     0.22473553     0.51622099     0.78023918
h     0.69654754     0.65981455     0.30358918
h     0.30345253     0.34018547     0.69641079
c     0.94303715     0.75947576     0.19005476
c     0.05696292     0.24052426     0.80994521
c     0.77197193     0.70235778     0.05957612
c     0.22802814     0.29764225     0.94042386
h     0.72872889     0.55660438     0.00817990
h     0.27127118     0.44339565     0.99182007
h     0.61521609     0.71576955     0.07553336
h     0.38478398     0.28423048     0.92446661
h     0.83827457     0.79155647     0.99618102
h     0.16172550     0.20844356     0.00381896
c     0.00606748     0.96432114     0.25998463
c     0.99393259     0.03567889     0.74001534
h     0.06950783     0.05726949     0.19829186
h     0.93049224     0.94273053     0.80170812
h     0.13518579     0.00840951     0.35108601
h     0.86481428     0.99159052     0.64891397
h     0.85579151     0.98230662     0.28403498
h     0.14420856     0.01769341     0.71596500
c     0.15708438     0.72221177     0.17088231
c     0.84291569     0.27778826     0.82911766
h     0.10067474     0.57539404     0.11550589
h     0.89932533     0.42460598     0.88449409
c     0.29232210     0.84206464     0.09242887
c     0.70767797     0.15793539     0.90757110
o     0.23356876     0.79053761     0.97041958
o     0.76643131     0.20946242     0.02958040
n     0.46842393     0.00001293     0.16008978
n     0.53157614     0.99998710     0.83991020
h     0.50952722     0.02369951     0.25837050
h     0.49047285     0.97630051     0.74162947
h     0.57908869     0.08130711     0.11358834
h     0.42091138     0.91869292     0.88641163

K_POINTS automatic
2 2 2 1 1 1

CELL_PARAMETERS cubic
   12.260988000000     0.072720000000    -0.001531000000
   -5.404905000000    13.941705000000    -0.059260000000
   -3.078842000000    -5.152204000000    19.425015000000
