&control
 title='crystal',
 prefix='crystal',
 pseudo_dir='../..',
 forc_conv_thr=1.0D-4,
 etot_conv_thr=1.0D-5,
/
&system
 ibrav=0,
 nat=    56,
 ntyp=  3,
 ecutwfc=80.0,
 ecutrho=800.0,
 vdw_corr='xdm',
 nosym=.true.,
/
&electrons
 conv_thr = 1d-10,
/
&ions
/
&cell
 press_conv_thr=0.01,
/
ATOMIC_SPECIES
N    14.006700 n.UPF
C    12.010700 c.UPF
H     1.007940 h.UPF

ATOMIC_POSITIONS crystal
N             0.3637116972        0.1799970990        0.2317020959
N             0.6362877695        0.8200023738        0.7682977706
C             0.3875149157        0.1019026573        0.1101587312
C             0.6124845570        0.8980966820        0.8898411226
C             0.2486265704        0.8272159106        0.0420174186
C             0.7513727731        0.1727835530        0.9579824428
C             0.1009069033        0.8171391647        0.1118789777
C             0.8990924599        0.1828604982        0.8881209083
C             0.1643955336        0.0892199995        0.2127779934
C             0.8356039476        0.9107796070        0.7872219177
H             0.4303286185        0.0603159174        0.2786154199
H             0.5696706633        0.9396835754        0.7213844942
H             0.5309081314        0.0906649422        0.1152753516
H             0.4690913297        0.9093341523        0.8847244949
H             0.3565261450        0.2607023104        0.0652746008
H             0.6434734875        0.7392970354        0.9347252198
H             0.3172598585        0.6558020462        0.0440052197
H             0.6827393332        0.3441973167        0.9559946298
H             0.1896383098        0.8142654474        0.9473236322
H             0.8103610745        0.1857338999        0.0526761951
H             0.9616956251        0.7936995963        0.0546354669
H             0.0383037923        0.2063002900        0.9453643780
H             0.0982007189        0.6434370103        0.1505491488
H             0.9017986361        0.3565627929        0.8494508312
H             0.0947114385        0.2449092757        0.1847468029
H             0.9052883780        0.7550904320        0.8152529899
H             0.1351651225        0.0708581435        0.2967410624
H             0.8648343191        0.9291415118        0.7032588754
N             0.5694188278        0.7763711842        0.3272898887
N             0.4305807434        0.2236283302        0.6727099908
C             0.6622279971        0.8174738914        0.4548754079
C             0.3377715043        0.1825253662        0.5451244719
C             0.8177381622        0.6564865000        0.4592429991
C             0.1822613707        0.3435128095        0.5407568776
C             0.8500266264        0.6107438016        0.3331235610
C             0.1499729049        0.3892557011        0.6668763086
C             0.7194877767        0.7645860684        0.2687471734
C             0.2805117307        0.2354133935        0.7312526608
H             0.4832392583        0.5830563254        0.2967877549
H             0.5167605160        0.4169430841        0.7032121056
H             0.5625230349        0.7526822567        0.5015528975
H             0.4374764434        0.2473170438        0.4984469697
H             0.7211304996        0.0371958721        0.4974435681
H             0.2788689443        0.9628033841        0.5025563595
H             0.9431853156        0.7685339632        0.5304314301
H             0.0568141341        0.2314653153        0.4695685380
H             0.7745755531        0.4608934323        0.4775282576
H             0.2254240024        0.5391057267        0.5224715125
H             0.8122400902        0.3923704998        0.2851017963
H             0.1877596365        0.6076290101        0.7148980643
H             0.9944991789        0.6842663096        0.3368986496
H             0.0055003342        0.3157334121        0.6631012878
H             0.7933895519        0.9745708416        0.2803612564
H             0.2066099068        0.0254287303        0.7196387289
H             0.6636701056        0.6669891846        0.1720391043
H             0.3363293311        0.3330102317        0.8279607066

K_POINTS automatic
4 5 2  1 1 1

CELL_PARAMETERS bohr
  14.433780807  -0.006943635  -0.008637802
  -1.509277885   9.616572639   0.001036386
  -5.125080876  -6.055297627  21.055146034
