&control
 title='crystal',
 prefix='crystal',
 pseudo_dir='.',
 calculation='vc-relax',
/
&system
 ibrav=0,
 celldm(1)=1.0,
 nat=    80,
 ntyp=  4,
 ecutwfc=60.0,
 ecutrho=600.0,
 xdm=.true.,
 xdm_a1=0.4073,
 xdm_a2=2.4150,
/
&electrons
 conv_thr = 1d-8,
/
&ions
/
&cell
/
ATOMIC_SPECIES
h      1.007940 h.UPF
c     12.010700 c.UPF
n     14.006700 n.UPF
s     32.065000 s.UPF

ATOMIC_POSITIONS crystal
s     0.74861596     0.47193512     0.61687032
s     0.25138398     0.97193511     0.38312970
s     0.42887632     0.47990396     0.72207015
s     0.57112363     0.97990396     0.27792987
c     0.62651759     0.41346261     0.72289441
c     0.37348236     0.91346261     0.27710561
c     0.71284563     0.32888990     0.82353297
c     0.28715431     0.82888990     0.17646705
c     0.83889112     0.25479749     0.80244285
c     0.16110882     0.75479748     0.19755717
c     0.83015247     0.21868322     0.64664400
c     0.16984748     0.71868322     0.35335603
c     0.95159882     0.20422220     0.97878856
c     0.04840113     0.70422220     0.02121146
c     0.79647356     0.12954396     0.98827034
c     0.20352638     0.62954395     0.01172968
h     0.73761130     0.07866197     0.87630123
h     0.26238865     0.57866196     0.12369879
h     0.86937246     0.08191914     0.10396115
h     0.13062749     0.58191914     0.89603887
c     0.64097057     0.20055788     0.00059860
c     0.35902938     0.70055788     0.99940142
h     0.62350422     0.18741080     0.11842902
h     0.37649573     0.68741080     0.88157100
h     0.49653332     0.19081692     0.89078892
h     0.50346662     0.69081692     0.10921110
c     0.72509386     0.30819129     0.00186447
c     0.27490608     0.80819129     0.99813555
h     0.66620182     0.36904883     0.05170397
h     0.33379813     0.86904883     0.94829605
c     0.95068748     0.29099099     0.10409348
c     0.04931247     0.79099098     0.89590654
c     0.01637877     0.25729462     0.29188887
c     0.98362118     0.75729461     0.70811115
h     0.94146328     0.18965878     0.30600635
h     0.05853667     0.68965878     0.69399367
h     0.98973146     0.31945707     0.36379731
h     0.01026849     0.81945707     0.63620271
h     0.17425121     0.24155992     0.35364552
h     0.82574873     0.74155992     0.64635450
c     0.07555768     0.38293150     0.10787939
c     0.92444226     0.88293150     0.89212063
h     0.03626438     0.41502186     0.97940179
h     0.96373556     0.91502185     0.02059823
h     0.23033970     0.36072605     0.16477769
h     0.76966025     0.86072605     0.83522233
h     0.05950807     0.44289624     0.18923395
h     0.94049188     0.94289624     0.81076607
c     0.55946075     0.52811314     0.42313953
c     0.44053920     0.02811314     0.57686049
h     0.63755286     0.55178357     0.34877244
h     0.36244708     0.05178356     0.65122758
h     0.49306413     0.59387135     0.45374634
h     0.50693582     0.09387134     0.54625368
h     0.45006739     0.47035267     0.35232188
h     0.54993255     0.97035267     0.64767814
c     0.27939072     0.38218984     0.75331472
c     0.72060923     0.88218983     0.24668530
h     0.12964056     0.41187167     0.69221060
h     0.87035939     0.91187167     0.30778942
h     0.32392535     0.36722728     0.89057471
h     0.67607460     0.86722728     0.10942531
h     0.28678779     0.31263610     0.68683878
h     0.71321216     0.81263610     0.31316124
c     0.94609680     0.13811624     0.63352960
c     0.05390315     0.63811623     0.36647042
c     0.68660705     0.25320696     0.48383569
c     0.31339290     0.75320696     0.51616433
n     0.03451685     0.07112399     0.61242390
n     0.96548310     0.57112399     0.38757612
n     0.56522361     0.27725170     0.34753805
n     0.43477634     0.77725170     0.65246197
c     0.14928970     0.15725067     0.02060797
c     0.85071025     0.65725066     0.97939205
h     0.22402991     0.13961260     0.15912241
h     0.77597003     0.63961259     0.84087761
h     0.24350877     0.20941503     0.99248635
h     0.75649118     0.70941502     0.00751367
h     0.13782920     0.08633475     0.95061785
h     0.86217075     0.58633475     0.04938217

K_POINTS automatic
2 2 2 1 1 1

CELL_PARAMETERS cubic
   14.396510000000     0.000000000000    -0.086593000000
    0.000000000000    24.857344000000     0.000000000000
   -7.115456000000     0.000000000000    14.630151000000
