&control
 title='crystal',
 prefix='crystal',
 pseudo_dir='.',
 calculation='vc-relax',
/
&system
 ibrav=0,
 celldm(1)=1.0,
 nat=    84,
 ntyp=  4,
 ecutwfc=60.0,
 ecutrho=600.0,
 xdm=.true.,
 xdm_a1=0.4073,
 xdm_a2=2.4150,
/
&electrons
 conv_thr = 1d-8,
/
&ions
/
&cell
/
ATOMIC_SPECIES
h      1.007940 h.UPF
c     12.010700 c.UPF
o     15.999400 o.UPF
f     18.998403 f.UPF

ATOMIC_POSITIONS crystal
c     0.71551588     0.41231627     0.48101827
c     0.28448409     0.58768378     0.51898171
c     0.21551588     0.08768376     0.98101827
c     0.78448409     0.91231629     0.01898171
h     0.76135331     0.30211247     0.54324590
h     0.23864666     0.69788758     0.45675407
h     0.26135331     0.19788756     0.04324591
h     0.73864666     0.80211249     0.95675407
h     0.67472500     0.57361847     0.51950851
h     0.32527497     0.42638158     0.48049146
h     0.17472500     0.92638156     0.01950852
h     0.82527497     0.07361849     0.98049146
h     0.77386822     0.49236826     0.42627579
h     0.22613175     0.50763179     0.57372419
h     0.27386822     0.00763177     0.92627579
h     0.72613175     0.99236828     0.07372419
c     0.63442171     0.23448776     0.42265236
c     0.36557826     0.76551229     0.57734762
c     0.13442171     0.26551227     0.92265236
c     0.86557826     0.73448778     0.07734762
h     0.58325902     0.13469076     0.47910401
h     0.41674095     0.86530929     0.52089597
h     0.08325902     0.36530927     0.97910402
h     0.91674095     0.63469078     0.02089597
c     0.68725657     0.04249734     0.34941850
c     0.31274339     0.95750271     0.65058148
c     0.18725657     0.45750269     0.84941850
c     0.81274340     0.54249736     0.15058148
h     0.72770400     0.14568439     0.28581565
h     0.27229597     0.85431566     0.71418433
h     0.22770400     0.35431564     0.78581565
h     0.77229597     0.64568441     0.21418433
h     0.62799286     0.90524713     0.31376144
h     0.37200711     0.09475292     0.68623854
h     0.12799286     0.59475290     0.81376145
h     0.87200711     0.40524715     0.18623854
h     0.74974006     0.93308469     0.39605396
h     0.25025990     0.06691536     0.60394602
h     0.24974006     0.56691534     0.89605396
h     0.75025991     0.43308471     0.10394602
o     0.56004239     0.40658475     0.35648710
o     0.43995758     0.59341530     0.64351288
o     0.06004239     0.09341528     0.85648710
o     0.93995758     0.90658477     0.14351288
c     0.46292366     0.31199265     0.32459436
c     0.53707630     0.68800740     0.67540562
c     0.96292366     0.18800738     0.82459437
c     0.03707631     0.81199267     0.17540562
o     0.42622400     0.09961394     0.34757007
o     0.57377597     0.90038612     0.65242991
o     0.92622400     0.40038609     0.84757007
o     0.07377597     0.59961396     0.15242991
c     0.39799746     0.50822354     0.25462795
c     0.60200250     0.49177652     0.74537203
c     0.89799747     0.99177650     0.75462795
c     0.10200250     0.00822356     0.24537203
h     0.40097245     0.69809636     0.29481873
h     0.59902752     0.30190369     0.70518125
h     0.90097245     0.80190367     0.79481873
h     0.09902752     0.19809639     0.20518125
o     0.29082706     0.41561024     0.23685277
o     0.70917290     0.58438981     0.76314721
o     0.79082706     0.08438979     0.73685277
o     0.20917290     0.91561026     0.26314721
h     0.24139682     0.56700484     0.23044767
h     0.75860314     0.43299521     0.76955231
h     0.74139682     0.93299519     0.73044767
h     0.25860315     0.06700486     0.26955231
c     0.45023364     0.54444372     0.14592680
c     0.54976633     0.45555633     0.85407318
c     0.95023364     0.95555631     0.64592681
c     0.04976633     0.04444374     0.35407318
f     0.38253991     0.68370524     0.07837118
f     0.61746006     0.31629481     0.92162880
f     0.88253991     0.81629479     0.57837118
f     0.11746006     0.18370526     0.42162880
f     0.54692934     0.67250557     0.15547467
f     0.45307063     0.32749448     0.84452531
f     0.04692934     0.82749446     0.65547468
f     0.95307063     0.17250559     0.34452531
f     0.46847408     0.31191011     0.09809337
f     0.53152588     0.68808995     0.90190661
f     0.96847408     0.18808993     0.59809337
f     0.03152589     0.81191013     0.40190661

K_POINTS automatic
2 2 2 1 1 1

CELL_PARAMETERS cubic
   23.182223000000     0.000000000000     0.060964000000
    0.000000000000     9.739838000000     0.000000000000
   -1.282098000000     0.000000000000    23.574874000000
