&control
 title='crystal',
 prefix='crystal',
 pseudo_dir='.',
 calculation='vc-relax',
/
&system
 ibrav=0,
 celldm(1)=1.0,
 nat=    88,
 ntyp=  4,
 ecutwfc=60.0,
 ecutrho=600.0,
 xdm=.true.,
 xdm_a1=0.4073,
 xdm_a2=2.4150,
/
&electrons
 conv_thr = 1d-8,
/
&ions
/
&cell
/
ATOMIC_SPECIES
h      1.007940 h.UPF
c     12.010700 c.UPF
o     15.999400 o.UPF
cl    35.453000 cl.UPF

ATOMIC_POSITIONS crystal
cl    0.17442365     0.17069985     0.26499703
cl    0.82557636     0.82930015     0.73500299
cl    0.17442366     0.32930015     0.76499704
cl    0.82557635     0.67069985     0.23500298
o     0.44217813     0.05383431     0.83672986
o     0.55782188     0.94616569     0.16327016
o     0.44217814     0.44616569     0.33672988
o     0.55782187     0.55383431     0.66327014
o     0.53118794     0.73121146     0.90688366
o     0.46881207     0.26878854     0.09311636
o     0.53118796     0.76878854     0.40688367
o     0.46881206     0.23121146     0.59311635
o     0.40650827     0.80067560     0.56485097
o     0.59349174     0.19932440     0.43514905
o     0.40650828     0.69932440     0.06485099
o     0.59349173     0.30067560     0.93514903
c     0.45533513     0.82190106     0.84008491
c     0.54466488     0.17809894     0.15991511
c     0.45533514     0.67809894     0.34008492
c     0.54466487     0.32190106     0.65991510
c     0.37105532     0.68727212     0.75347162
c     0.62894470     0.31272788     0.24652840
c     0.37105533     0.81272788     0.25347164
c     0.62894469     0.18727212     0.74652838
c     0.33381293     0.80158987     0.62004888
c     0.66618709     0.19841013     0.37995114
c     0.33381294     0.69841013     0.12004889
c     0.66618708     0.30158987     0.87995113
c     0.24582246     0.68187316     0.53159482
c     0.75417756     0.31812684     0.46840520
c     0.24582247     0.81812684     0.03159484
c     0.75417755     0.18187316     0.96840518
c     0.25103767     0.49504759     0.45225876
c     0.74896235     0.50495241     0.54774126
c     0.25103768     0.00495241     0.95225877
c     0.74896234     0.99504759     0.04774125
c     0.16770299     0.39607128     0.36917719
c     0.83229703     0.60392872     0.63082283
c     0.16770300     0.10392872     0.86917721
c     0.83229702     0.89607128     0.13082281
c     0.07944887     0.47461280     0.36449021
c     0.92055115     0.52538720     0.63550981
c     0.07944888     0.02538720     0.86449023
c     0.92055114     0.97461280     0.13550979
c     0.07544122     0.65933644     0.44538096
c     0.92455879     0.34066356     0.55461906
c     0.07544123     0.84066356     0.94538097
c     0.92455878     0.15933644     0.05461905
c     0.15780957     0.76312825     0.52793488
c     0.84219044     0.23687175     0.47206514
c     0.15780959     0.73687175     0.02793490
c     0.84219043     0.26312825     0.97206512
h     0.50489170     0.13945657     0.88440462
h     0.49510832     0.86054343     0.11559540
h     0.50489171     0.36054343     0.38440464
h     0.49510831     0.63945657     0.61559538
h     0.43432232     0.96549264     0.57529715
h     0.56567769     0.03450736     0.42470287
h     0.43432233     0.53450736     0.07529716
h     0.56567768     0.46549264     0.92470286
h     0.31619415     0.69371556     0.79616342
h     0.68380586     0.30628444     0.20383660
h     0.31619416     0.80628444     0.29616344
h     0.68380585     0.19371556     0.70383658
h     0.38923178     0.50045941     0.74803555
h     0.61076824     0.49954059     0.25196447
h     0.38923179     0.99954059     0.24803557
h     0.61076823     0.00045941     0.75196445
h     0.31638494     0.98750360     0.63124211
h     0.68361507     0.01249640     0.36875791
h     0.31638495     0.51249640     0.13124212
h     0.68361506     0.48750360     0.86875790
h     0.31894453     0.43016974     0.45396025
h     0.68105548     0.56983026     0.54603977
h     0.31894454     0.06983026     0.95396026
h     0.68105547     0.93016974     0.04603976
h     0.01531086     0.39540965     0.29845793
h     0.98468916     0.60459035     0.70154209
h     0.01531087     0.10459035     0.79845794
h     0.98468915     0.89540965     0.20154208
h     0.00696100     0.72303998     0.44213769
h     0.99303902     0.27696002     0.55786233
h     0.00696101     0.77696002     0.94213770
h     0.99303901     0.22303998     0.05786232
h     0.15405337     0.91124661     0.58852559
h     0.84594665     0.08875339     0.41147443
h     0.15405338     0.58875339     0.08852560
h     0.84594664     0.41124661     0.91147442

K_POINTS automatic
2 2 2 1 1 1

CELL_PARAMETERS cubic
   28.686120000000     0.000000000000    -0.008465000000
    0.000000000000    10.646825000000     0.000000000000
   -7.521241000000     0.000000000000    19.814691000000
