&control
 title='crystal',
 prefix='crystal',
 pseudo_dir='.',
 calculation='vc-relax',
/
&system
 ibrav=0,
 celldm(1)=1.0,
 nat=    32,
 ntyp=  5,
 ecutwfc=60.0,
 ecutrho=600.0,
 xdm=.true.,
 xdm_a1=0.4073,
 xdm_a2=2.4150,
/
&electrons
 conv_thr = 1d-8,
/
&ions
/
&cell
/
ATOMIC_SPECIES
h      1.007940 h.UPF
c     12.010700 c.UPF
n     14.006700 n.UPF
o     15.999400 o.UPF
cl    35.453000 cl.UPF

ATOMIC_POSITIONS crystal
cl    0.14350018     0.90971470     0.45783420
cl    0.85649984     0.09028524     0.54216586
cl    0.90971564     0.14350025     0.04216651
cl    0.09028438     0.85649969     0.95783354
o     0.81490514     0.57652092     0.33170567
o     0.18509487     0.42347902     0.66829438
o     0.57650811     0.81489028     0.16827801
o     0.42349190     0.18510966     0.83172205
o     0.77644190     0.45740153     0.61370679
o     0.22355811     0.54259841     0.38629327
o     0.45739752     0.77644916     0.88627091
o     0.54260249     0.22355078     0.11372915
n     0.71738344     0.48922616     0.43666394
n     0.28261657     0.51077378     0.56333611
n     0.48924413     0.71739115     0.06337609
n     0.51075589     0.28260879     0.93662397
c     0.51447420     0.41159939     0.34324773
c     0.48552581     0.58840055     0.65675232
c     0.41159315     0.51447158     0.15674863
c     0.58840687     0.48552836     0.84325143
c     0.43128474     0.22630232     0.43792336
c     0.56871527     0.77369762     0.56207670
c     0.22630857     0.43128731     0.06207998
c     0.77369144     0.56871263     0.93792008
c     0.24426335     0.14133838     0.34435642
c     0.75573666     0.85866156     0.65564364
c     0.14133638     0.24426113     0.15564392
c     0.85866364     0.75573881     0.84435614
h     0.51212837     0.14690269     0.58266683
h     0.48787164     0.85309725     0.41733322
h     0.14690195     0.51212886     0.91733212
h     0.85309807     0.48787108     0.08266793

K_POINTS automatic
2 2 2 1 1 1

CELL_PARAMETERS cubic
   15.818547000000    -0.141138000000    -0.059516000000
   -6.778230000000    14.293302000000     0.059380000000
   -7.556355000000     4.826750000000    12.968694000000
