&control
 title='crystal',
 prefix='crystal',
 pseudo_dir='.',
 calculation='vc-relax',
/
&system
 ibrav=0,
 celldm(1)=1.0,
 nat=    32,
 ntyp=  5,
 ecutwfc=60.0,
 ecutrho=600.0,
 xdm=.true.,
 xdm_a1=0.4073,
 xdm_a2=2.4150,
/
&electrons
 conv_thr = 1d-8,
/
&ions
/
&cell
/
ATOMIC_SPECIES
h      1.007940 h.UPF
c     12.010700 c.UPF
n     14.006700 n.UPF
o     15.999400 o.UPF
cl    35.453000 cl.UPF

ATOMIC_POSITIONS crystal
cl    0.85701583     0.08966777     0.34259424
cl    0.14298421     0.91033222     0.65740582
cl    0.08966829     0.85701449     0.15740395
cl    0.91033175     0.14298550     0.84259610
o     0.19089807     0.42478594     0.19842885
o     0.80910197     0.57521405     0.80157121
o     0.42479057     0.19091217     0.30155799
o     0.57520947     0.80908781     0.69844207
o     0.21798132     0.56201762     0.43592487
o     0.78201872     0.43798237     0.56407519
o     0.56201759     0.21799006     0.06408115
o     0.43798245     0.78200993     0.93591891
n     0.28349350     0.51902190     0.31011228
n     0.71650654     0.48097809     0.68988778
n     0.51901736     0.28347387     0.18989127
n     0.48098269     0.71652612     0.81010879
c     0.48672557     0.59274011     0.28676288
c     0.51327447     0.40725988     0.71323717
c     0.59273325     0.48672109     0.21323622
c     0.40726679     0.51327890     0.78676384
c     0.56799608     0.77857699     0.32620422
c     0.43200396     0.22142300     0.67379584
c     0.77858689     0.56801341     0.17379486
c     0.22141315     0.43198657     0.82620520
c     0.75648258     0.86094416     0.28993498
c     0.24351746     0.13905582     0.71006507
c     0.86093881     0.75646969     0.21006322
c     0.13906123     0.24353030     0.78993684
h     0.48317885     0.86068233     0.38007717
h     0.51682119     0.13931765     0.61992289
h     0.86068278     0.48317709     0.11992168
h     0.13931726     0.51682289     0.88007838

K_POINTS automatic
2 2 2 1 1 1

CELL_PARAMETERS cubic
   13.892153000000    -0.017862000000     0.079554000000
   -3.617531000000    13.412740000000    -0.079488000000
   -0.592901000000     0.454822000000    15.389255000000
