&control
 title='crystal',
 prefix='crystal',
 pseudo_dir='.',
 calculation='vc-relax',
/
&system
 ibrav=0,
 celldm(1)=1.0,
 nat=    64,
 ntyp=  5,
 ecutwfc=60.0,
 ecutrho=600.0,
 xdm=.true.,
 xdm_a1=0.4073,
 xdm_a2=2.4150,
/
&electrons
 conv_thr = 1d-8,
/
&ions
/
&cell
/
ATOMIC_SPECIES
h      1.007940 h.UPF
c     12.010700 c.UPF
n     14.006700 n.UPF
o     15.999400 o.UPF
cl    35.453000 cl.UPF

ATOMIC_POSITIONS crystal
cl    0.12420426     0.70360943     0.29983836
cl    0.87579574     0.29639055     0.70016163
cl    0.12420426     0.79639053     0.79983835
cl    0.87579573     0.20360944     0.20016165
cl    0.35724399     0.72101239     0.99354150
cl    0.64275600     0.27898758     0.00645849
cl    0.35724400     0.77898756     0.49354149
cl    0.64275600     0.22101241     0.50645851
c     0.30192946     0.28182550     0.05142125
c     0.69807054     0.71817448     0.94857874
c     0.30192946     0.21817446     0.55142124
c     0.69807053     0.78182551     0.44857876
c     0.19816857     0.27459123     0.18641883
c     0.80183143     0.72540875     0.81358116
c     0.19816857     0.22540873     0.68641882
c     0.80183142     0.77459124     0.31358118
c     0.14295071     0.40451265     0.26164691
c     0.85704929     0.59548732     0.73835308
c     0.14295072     0.09548730     0.76164690
c     0.85704928     0.90451267     0.23835310
c     0.19175016     0.54356498     0.20250127
c     0.80824984     0.45643499     0.79749872
c     0.19175017     0.95643497     0.70250126
c     0.80824983     0.04356500     0.29749874
c     0.29534478     0.55103111     0.06512645
c     0.70465522     0.44896887     0.93487355
c     0.29534478     0.94896885     0.56512644
c     0.70465521     0.05103112     0.43487356
c     0.34993751     0.41923459     0.98900403
c     0.65006248     0.58076539     0.01099596
c     0.34993752     0.08076537     0.48900402
c     0.65006248     0.91923460     0.51099598
n     0.36884311     0.14548010     0.98555791
n     0.63115689     0.85451988     0.01444208
n     0.36884311     0.35451986     0.48555791
n     0.63115688     0.64548011     0.51444209
n     0.13872527     0.13175233     0.24320860
n     0.86127472     0.86824764     0.75679140
n     0.13872528     0.36824763     0.74320859
n     0.86127472     0.63175234     0.25679141
o     0.41628491     0.13598540     0.82970656
o     0.58371509     0.86401458     0.17029343
o     0.41628491     0.36401456     0.32970656
o     0.58371508     0.63598541     0.67029344
o     0.37491536     0.05194948     0.09226245
o     0.62508464     0.94805050     0.90773754
o     0.37491537     0.44805048     0.59226245
o     0.62508463     0.55194949     0.40773755
o     0.13967845     0.03921272     0.13145769
o     0.86032155     0.96078726     0.86854231
o     0.13967846     0.46078724     0.63145768
o     0.86032154     0.53921273     0.36854232
o     0.08854988     0.11599215     0.39746249
o     0.91145012     0.88400783     0.60253751
o     0.08854988     0.38400781     0.89746248
o     0.91145011     0.61599216     0.10253752
h     0.06111908     0.39765861     0.36387517
h     0.93888092     0.60234137     0.63612483
h     0.06111908     0.10234135     0.86387516
h     0.93888091     0.89765862     0.13612484
h     0.43072338     0.42454434     0.88421868
h     0.56927662     0.57545564     0.11578131
h     0.43072339     0.07545562     0.38421867
h     0.56927661     0.92454435     0.61578133

K_POINTS automatic
2 2 2 1 1 1

CELL_PARAMETERS cubic
   23.110781000000     0.000000000000    -0.268803000000
    0.000000000000    16.841374000000     0.000000000000
    5.150990000000     0.000000000000    14.723562000000
