&control
 title='crystal',
 prefix='crystal',
 pseudo_dir='.',
 calculation='vc-relax',
/
&system
 ibrav=0,
 celldm(1)=1.0,
 nat=    64,
 ntyp=  5,
 ecutwfc=60.0,
 ecutrho=600.0,
 xdm=.true.,
 xdm_a1=0.4073,
 xdm_a2=2.4150,
/
&electrons
 conv_thr = 1d-8,
/
&ions
/
&cell
/
ATOMIC_SPECIES
h      1.007940 h.UPF
c     12.010700 c.UPF
n     14.006700 n.UPF
o     15.999400 o.UPF
cl    35.453000 cl.UPF

ATOMIC_POSITIONS crystal
cl    0.84463319     0.53103927     0.29298907
cl    0.15536686     0.46896072     0.70701097
cl    0.84463320     0.96896072     0.79298907
cl    0.15536686     0.03103928     0.20701096
cl    0.65539388     0.52426431     0.96505092
cl    0.34460617     0.47573568     0.03494912
cl    0.65539389     0.97573568     0.46505093
cl    0.34460616     0.02426432     0.53494911
o     0.78510738     0.19465962     0.01515482
o     0.21489267     0.80534038     0.98484522
o     0.78510739     0.30534038     0.51515482
o     0.21489266     0.69465962     0.48484522
o     0.54146876     0.11720185     0.86039505
o     0.45853129     0.88279814     0.13960498
o     0.54146877     0.38279814     0.36039506
o     0.45853128     0.61720186     0.63960498
o     0.71279364     0.19786595     0.22131416
o     0.28720641     0.80213404     0.77868588
o     0.71279365     0.30213404     0.72131417
o     0.28720640     0.69786596     0.27868587
o     0.95721425     0.12502545     0.37913842
o     0.04278580     0.87497455     0.62086162
o     0.95721425     0.37497455     0.87913843
o     0.04278580     0.62502545     0.12086161
n     0.67521050     0.10285650     0.96887053
n     0.32478955     0.89714349     0.03112951
n     0.67521050     0.39714349     0.46887053
n     0.32478955     0.60285651     0.53112951
n     0.82424844     0.10764672     0.27039547
n     0.17575161     0.89235327     0.72960457
n     0.82424844     0.39235327     0.77039547
n     0.17575161     0.60764673     0.22960457
c     0.79377590     0.96531215     0.19440785
c     0.20622415     0.03468785     0.80559218
c     0.79377591     0.53468785     0.69440786
c     0.20622414     0.46531215     0.30559218
c     0.70634802     0.69225603     0.05245336
c     0.29365203     0.30774396     0.94754668
c     0.70634802     0.80774396     0.55245337
c     0.29365203     0.19225604     0.44754667
c     0.70868982     0.96266456     0.04870132
c     0.29131023     0.03733544     0.95129872
c     0.70868983     0.53733544     0.54870132
c     0.29131022     0.46266456     0.45129872
c     0.83793641     0.83261999     0.27023036
c     0.16206364     0.16738000     0.72976968
c     0.83793642     0.66738000     0.77023036
c     0.16206363     0.33262000     0.22976968
h     0.90409736     0.83596076     0.38356986
h     0.09590269     0.16403924     0.61643017
h     0.90409737     0.66403924     0.88356987
h     0.09590268     0.33596076     0.11643017
c     0.79355085     0.69540613     0.19934326
c     0.20644920     0.30459387     0.80065678
c     0.79355086     0.80459387     0.69934327
c     0.20644919     0.19540613     0.30065677
c     0.66442053     0.82695249     0.97733081
c     0.33557952     0.17304750     0.02266923
c     0.66442054     0.67304750     0.47733081
c     0.33557951     0.32695250     0.52266923
h     0.59887999     0.82499222     0.86403621
h     0.40112006     0.17500777     0.13596383
h     0.59888000     0.67500777     0.36403621
h     0.40112005     0.32499223     0.63596382

K_POINTS automatic
2 2 2 1 1 1

CELL_PARAMETERS cubic
   19.025539000000     0.000000000000    -0.064949000000
    0.000000000000    16.778043000000     0.000000000000
  -11.998217000000     0.000000000000    18.126611000000
