&control
 title='crystal',
 prefix='crystal',
 pseudo_dir='.',
 calculation='vc-relax',
/
&system
 ibrav=0,
 celldm(1)=1.0,
 nat=    64,
 ntyp=  5,
 ecutwfc=60.0,
 ecutrho=600.0,
 xdm=.true.,
 xdm_a1=0.4073,
 xdm_a2=2.4150,
/
&electrons
 conv_thr = 1d-8,
/
&ions
/
&cell
/
ATOMIC_SPECIES
h      1.007940 h.UPF
c     12.010700 c.UPF
n     14.006700 n.UPF
o     15.999400 o.UPF
cl    35.453000 cl.UPF

ATOMIC_POSITIONS crystal
c     0.84426904     0.39160923     0.82706109
c     0.15573092     0.60839075     0.17293892
c     0.15573147     0.89161006     0.67293944
c     0.84426848     0.10838992     0.32706057
c     0.96678771     0.39120163     0.78156306
c     0.03321225     0.60879835     0.21843696
c     0.03321276     0.89120203     0.71843725
c     0.96678719     0.10879795     0.28156277
c     0.68935184     0.36919141     0.76205087
c     0.31064812     0.63080856     0.23794914
c     0.31064853     0.86919183     0.73794956
c     0.68935142     0.13080814     0.26205045
h     0.86979090     0.40042091     0.91333109
h     0.13020905     0.59957906     0.08666893
h     0.13020968     0.90042196     0.58666928
h     0.86979028     0.09957801     0.41333073
c     0.93620685     0.37729473     0.67069865
c     0.06379311     0.62270525     0.32930136
c     0.06379338     0.87729444     0.82930167
c     0.93620658     0.12270553     0.17069834
n     0.12822798     0.38279530     0.85463148
n     0.87177198     0.61720467     0.14536854
n     0.87177222     0.88279455     0.64536902
n     0.12822774     0.11720543     0.35463100
c     0.65855016     0.34942181     0.65091066
c     0.34144980     0.65057817     0.34908935
c     0.34144985     0.84942165     0.84908975
c     0.65855010     0.15057832     0.15091026
cl    0.54040496     0.35657113     0.82036371
cl    0.45959500     0.64342884     0.17963630
cl    0.45959524     0.85657060     0.67963673
cl    0.54040472     0.14342937     0.32036329
c     0.78259385     0.35779695     0.60546664
c     0.21740610     0.64220302     0.39453337
c     0.21740616     0.85779643     0.89453361
c     0.78259380     0.14220354     0.10546640
n     0.06228473     0.39772516     0.62020904
n     0.93771522     0.60227482     0.37979097
n     0.93771595     0.89772420     0.87979146
n     0.06228401     0.10227577     0.12020855
o     0.21339058     0.26740998     0.83785688
o     0.78660938     0.73258999     0.16214314
o     0.78660985     0.76740933     0.66214295
o     0.21339010     0.23259064     0.33785706
o     0.16506079     0.48550962     0.92934878
o     0.83493916     0.51449035     0.07065124
o     0.83493981     0.98550992     0.57065164
o     0.16506015     0.01449005     0.42934837
cl    0.47101609     0.31249542     0.57014004
cl    0.52898387     0.68750455     0.42985998
cl    0.52898369     0.81249560     0.92986052
cl    0.47101627     0.18750437     0.07013949
h     0.75912906     0.35160491     0.51923737
h     0.24087090     0.64839507     0.48076264
h     0.24087073     0.85160428     0.98076281
h     0.75912922     0.14839569     0.01923720
o     0.17119093     0.49656796     0.66363601
o     0.82880903     0.50343201     0.33636400
o     0.82880933     0.99656656     0.83636421
o     0.17119063     0.00343341     0.16363580
o     0.04934129     0.31952263     0.53588180
o     0.95065866     0.68047734     0.46411821
o     0.95065912     0.81952246     0.96411866
o     0.04934083     0.18047751     0.03588135

K_POINTS automatic
2 2 2 1 1 1

CELL_PARAMETERS cubic
   16.740879000000    -0.000036000000     0.001373000000
   -0.000031000000    14.723711000000    -0.000010000000
   -7.266726000000     0.000000000000    23.625074000000
