&control
 title='crystal',
 prefix='crystal',
 pseudo_dir='.',
 calculation='vc-relax',
/
&system
 ibrav=0,
 celldm(1)=1.0,
 nat=    64,
 ntyp=  5,
 ecutwfc=60.0,
 ecutrho=600.0,
 xdm=.true.,
 xdm_a1=0.4073,
 xdm_a2=2.4150,
/
&electrons
 conv_thr = 1d-8,
/
&ions
/
&cell
/
ATOMIC_SPECIES
h      1.007940 h.UPF
c     12.010700 c.UPF
n     14.006700 n.UPF
o     15.999400 o.UPF
cl    35.453000 cl.UPF

ATOMIC_POSITIONS crystal
cl    0.01428352     0.43758392     0.22805934
cl    0.98571653     0.56241607     0.77194061
cl    0.01428354     0.06241607     0.72805933
cl    0.98571651     0.93758392     0.27194063
c     0.73015358     0.34883252     0.62063908
c     0.26984647     0.65116747     0.37936088
c     0.73015360     0.15116748     0.12063907
c     0.26984645     0.84883252     0.87936090
c     0.64561340     0.39967018     0.71845201
c     0.35438665     0.60032981     0.28154795
c     0.64561341     0.10032982     0.21845200
c     0.35438663     0.89967017     0.78154796
c     0.73417754     0.42736957     0.90426306
c     0.26582251     0.57263042     0.09573689
c     0.73417756     0.07263043     0.40426305
c     0.26582249     0.92736957     0.59573691
c     0.90830433     0.40397288     0.99453226
c     0.09169572     0.59602711     0.00546769
c     0.90830435     0.09602711     0.49453225
c     0.09169570     0.90397288     0.50546771
c     0.99425583     0.35304073     0.89495057
c     0.00574422     0.64695926     0.10504939
c     0.99425585     0.14695927     0.39495056
c     0.00574420     0.85304072     0.60504941
c     0.90559185     0.32611814     0.70535019
c     0.09440820     0.67388185     0.29464977
c     0.90559186     0.17388186     0.20535018
c     0.09440819     0.82611813     0.79464978
n     0.62785422     0.31501249     0.44233273
n     0.37214583     0.68498750     0.55766722
n     0.62785424     0.18498751     0.94233272
n     0.37214581     0.81501248     0.05766724
n     0.47491019     0.42909329     0.61394075
n     0.52508986     0.57090670     0.38605921
n     0.47491021     0.07090670     0.11394074
n     0.52508984     0.92909329     0.88605922
o     0.73391603     0.29192296     0.28506626
o     0.26608402     0.70807703     0.71493369
o     0.73391604     0.20807704     0.78506625
o     0.26608401     0.79192295     0.21493371
o     0.44416131     0.31067860     0.46518805
o     0.55583874     0.68932139     0.53481190
o     0.44416133     0.18932140     0.96518804
o     0.55583872     0.81067859     0.03481192
o     0.47874055     0.43319154     0.39744651
o     0.52125950     0.56680845     0.60255344
o     0.47874057     0.06680845     0.89744650
o     0.52125948     0.93319154     0.10255346
o     0.34393426     0.44951661     0.74933275
o     0.65606579     0.55048337     0.25066721
o     0.34393428     0.05048338     0.24933274
o     0.65606577     0.94951661     0.75066723
h     0.67015094     0.46748298     0.97660934
h     0.32984911     0.53251701     0.02339062
h     0.67015096     0.03251701     0.47660933
h     0.32984909     0.96748298     0.52339064
h     0.96925390     0.28627294     0.63032297
h     0.03074615     0.71372705     0.36967698
h     0.96925392     0.21372706     0.13032296
h     0.03074613     0.78627294     0.86967700
cl    0.20017133     0.32121508     0.01123839
cl    0.79982872     0.67878491     0.98876157
cl    0.20017135     0.17878492     0.51123838
cl    0.79982870     0.82121508     0.48876159

K_POINTS automatic
2 2 2 1 1 1

CELL_PARAMETERS cubic
   12.603886000000     0.000000000000    -0.232493000000
    0.000000000000    43.222670000000     0.000000000000
    0.640967000000     0.000000000000    10.727558000000
