&control
 title='crystal',
 prefix='crystal',
 pseudo_dir='.',
 calculation='vc-relax',
/
&system
 ibrav=0,
 celldm(1)=1.0,
 nat=    32,
 ntyp=  5,
 ecutwfc=60.0,
 ecutrho=600.0,
 xdm=.true.,
 xdm_a1=0.4073,
 xdm_a2=2.4150,
/
&electrons
 conv_thr = 1d-8,
/
&ions
/
&cell
/
ATOMIC_SPECIES
h      1.007940 h.UPF
c     12.010700 c.UPF
n     14.006700 n.UPF
o     15.999400 o.UPF
cl    35.453000 cl.UPF

ATOMIC_POSITIONS crystal
c     0.95396867     0.24129267     0.07987663
c     0.04603135     0.75870741     0.92012334
c     0.05608184     0.27937639     0.86514402
c     0.94391818     0.72062369     0.13485595
c     0.96190971     0.28826151     0.77478292
c     0.03809031     0.71173856     0.22521705
c     0.76849059     0.26397707     0.89642554
c     0.23150942     0.73602300     0.10357442
c     0.66824992     0.23079838     0.10894784
c     0.33175009     0.76920169     0.89105213
c     0.75932916     0.21776767     0.20132346
c     0.24067085     0.78223240     0.79867650
cl    0.06683382     0.22630181     0.19399020
cl    0.93316619     0.77369826     0.80600977
cl    0.29620390     0.31612066     0.71416742
cl    0.70379611     0.68387941     0.28583255
n     0.46602327     0.21997136     0.24306570
n     0.53397675     0.78002871     0.75693426
n     0.67234671     0.26418183     0.79716886
n     0.32765331     0.73581824     0.20283110
o     0.35368778     0.07120087     0.38086744
o     0.64631224     0.92879921     0.61913253
o     0.42659613     0.36305720     0.21286267
o     0.57340388     0.63694287     0.78713730
o     0.49966610     0.18152166     0.90627350
o     0.50033391     0.81847841     0.09372647
o     0.77065618     0.34318008     0.61085671
o     0.22934383     0.65682000     0.38914325
h     0.03818865     0.31384607     0.60981813
h     0.96181137     0.68615401     0.39018184
h     0.68182486     0.19261747     0.36650461
h     0.31817516     0.80738261     0.63349536

K_POINTS automatic
2 2 2 1 1 1

CELL_PARAMETERS cubic
   16.808855000000    -0.213711000000    -0.131482000000
   -2.531530000000    13.953885000000     0.053725000000
    8.643144000000     3.537986000000    12.236877000000
