&control
 title='crystal',
 prefix='crystal',
 pseudo_dir='.',
 calculation='vc-relax',
/
&system
 ibrav=0,
 celldm(1)=1.0,
 nat=    32,
 ntyp=  5,
 ecutwfc=60.0,
 ecutrho=600.0,
 xdm=.true.,
 xdm_a1=0.4073,
 xdm_a2=2.4150,
/
&electrons
 conv_thr = 1d-8,
/
&ions
/
&cell
/
ATOMIC_SPECIES
h      1.007940 h.UPF
c     12.010700 c.UPF
n     14.006700 n.UPF
o     15.999400 o.UPF
cl    35.453000 cl.UPF

ATOMIC_POSITIONS crystal
c     0.42408640     0.19688682     0.99992395
c     0.57591364     0.80311324     0.00007607
c     0.29937846     0.07590272     0.84550397
c     0.70062157     0.92409734     0.15449605
c     0.35975073     0.10496101     0.11469207
c     0.64024930     0.89503905     0.88530794
c     0.16371482     0.88780560     0.07226387
c     0.83628521     0.11219446     0.92773614
c     0.10625955     0.85995025     0.80394540
c     0.89374049     0.14004981     0.19605462
c     0.03888197     0.76761017     0.91715865
c     0.96111806     0.23238990     0.08284137
n     0.95725477     0.72117737     0.64404109
n     0.04274527     0.27882269     0.35595892
n     0.39327945     0.18141259     0.73126257
n     0.60672058     0.81858747     0.26873745
o     0.91070415     0.79974513     0.56433515
o     0.08929589     0.20025493     0.43566486
o     0.88450927     0.53358179     0.60564105
o     0.11549077     0.46641827     0.39435897
o     0.37934586     0.07340256     0.60733720
o     0.62065418     0.92659751     0.39266281
o     0.48866486     0.37592193     0.77345148
o     0.51133517     0.62407813     0.22654854
cl    0.52296917     0.25668053     0.30233458
cl    0.47703086     0.74331953     0.69766543
cl    0.07678466     0.76706598     0.20890017
cl    0.92321538     0.23293409     0.79109984
h     0.88607995     0.60065083     0.88247860
h     0.11392009     0.39934923     0.11752141
h     0.57481084     0.36436772     0.03188279
h     0.42518920     0.63563234     0.96811722

K_POINTS automatic
2 2 2 1 1 1

CELL_PARAMETERS cubic
   13.906936000000     0.017899000000     0.000104000000
   -9.013337000000    12.526664000000    -0.476278000000
   -1.343743000000    -5.405571000000    16.533575000000
