&control
 title='crystal',
 prefix='crystal',
 pseudo_dir='.',
 calculation='vc-relax',
/
&system
 ibrav=0,
 celldm(1)=1.0,
 nat=    64,
 ntyp=  5,
 ecutwfc=60.0,
 ecutrho=600.0,
 xdm=.true.,
 xdm_a1=0.4073,
 xdm_a2=2.4150,
/
&electrons
 conv_thr = 1d-8,
/
&ions
/
&cell
/
ATOMIC_SPECIES
h      1.007940 h.UPF
c     12.010700 c.UPF
n     14.006700 n.UPF
o     15.999400 o.UPF
cl    35.453000 cl.UPF

ATOMIC_POSITIONS crystal
c     0.90525781     0.70918704     0.50654445
c     0.09474222     0.29081299     0.49345555
c     0.70918644     0.90526418     0.99345567
c     0.29081359     0.09473584     0.00654432
c     0.73089050     0.83363319     0.46305327
c     0.26910953     0.16636683     0.53694672
c     0.83363873     0.73088463     0.03694867
c     0.16636130     0.26911539     0.96305133
c     0.64888782     0.05505044     0.37288710
c     0.35111221     0.94494959     0.62711290
c     0.05504581     0.64889740     0.12711169
c     0.94495421     0.35110263     0.87288831
c     0.73977349     0.15005400     0.32693456
c     0.26022654     0.84994602     0.67306543
c     0.15005443     0.73976295     0.17306516
c     0.84994560     0.26023708     0.82693483
c     0.91279268     0.02539806     0.37031551
c     0.08720735     0.97460197     0.62968448
c     0.02539272     0.91280011     0.12968236
c     0.97460730     0.08719991     0.87031764
c     0.99726352     0.80691006     0.46040539
c     0.00273651     0.19308997     0.53959460
c     0.80691389     0.99725621     0.03959590
c     0.19308614     0.00274381     0.96040409
cl    0.00515283     0.43530178     0.61592932
cl    0.99484720     0.56469824     0.38407068
cl    0.43530218     0.00515249     0.88407078
cl    0.56469785     0.99484753     0.11592921
cl    0.62173880     0.71909583     0.52039625
cl    0.37826123     0.28090420     0.47960375
cl    0.71909576     0.62173786     0.97960409
cl    0.28090426     0.37826217     0.02039591
n     0.99638535     0.10596967     0.31930787
n     0.00361468     0.89403035     0.68069213
n     0.10596607     0.99639885     0.18068668
n     0.89403396     0.00360118     0.81931332
n     0.66065722     0.38904125     0.23628260
n     0.33934281     0.61095877     0.76371740
n     0.38904680     0.66069935     0.26371230
n     0.61095323     0.33930068     0.73628769
o     0.20109944     0.06400247     0.37139802
o     0.79890059     0.93599755     0.62860198
o     0.06400364     0.20109332     0.12860335
o     0.93599639     0.79890671     0.87139665
o     0.85347886     0.20028183     0.22928018
o     0.14652117     0.79971820     0.77071981
o     0.20028459     0.85347371     0.27072334
o     0.79971544     0.14652632     0.72927665
o     0.80108575     0.50438467     0.22443287
o     0.19891428     0.49561536     0.77556713
o     0.50437115     0.80106939     0.27556571
o     0.49562887     0.19893064     0.72443428
o     0.46011418     0.45951844     0.17916309
o     0.53988585     0.54048159     0.82083691
o     0.45952433     0.46009186     0.32084275
o     0.54047570     0.53990817     0.67915724
h     0.51734187     0.15394269     0.33978247
h     0.48265816     0.84605733     0.66021752
h     0.15394451     0.51733802     0.16021825
h     0.84605552     0.48266201     0.83978174
h     0.13228795     0.71133702     0.49400281
h     0.86771208     0.28866301     0.50599719
h     0.71133504     0.13229135     0.00599637
h     0.28866499     0.86770868     0.99400363

K_POINTS automatic
2 2 2 1 1 1

CELL_PARAMETERS cubic
   16.092703000000     0.083009000000    -0.140112000000
   -7.270033000000    14.357124000000     0.140059000000
  -33.277814000000    20.331914000000    25.678284000000
