&control
 title='crystal',
 prefix='crystal',
 pseudo_dir='.',
 calculation='vc-relax',
/
&system
 ibrav=0,
 celldm(1)=1.0,
 nat=    64,
 ntyp=  5,
 ecutwfc=60.0,
 ecutrho=600.0,
 xdm=.true.,
 xdm_a1=0.4073,
 xdm_a2=2.4150,
/
&electrons
 conv_thr = 1d-8,
/
&ions
/
&cell
/
ATOMIC_SPECIES
h      1.007940 h.UPF
c     12.010700 c.UPF
n     14.006700 n.UPF
o     15.999400 o.UPF
cl    35.453000 cl.UPF

ATOMIC_POSITIONS crystal
cl    0.68561969     0.65247916     0.20652146
cl    0.18561970     0.84752087     0.79347853
cl    0.31438029     0.15247915     0.29347853
cl    0.81438029     0.34752086     0.70652146
cl    0.62967160     0.40152649     0.22929457
cl    0.12967161     0.09847354     0.77070542
cl    0.37032839     0.90152648     0.27070542
cl    0.87032839     0.59847353     0.72929456
c     0.14683803     0.46423241     0.43458824
c     0.64683804     0.03576762     0.56541175
c     0.85316195     0.96423240     0.06541175
c     0.35316195     0.53576761     0.93458823
c     0.17391250     0.57526608     0.42317139
c     0.67391251     0.92473394     0.57682860
c     0.82608748     0.07526607     0.07682861
c     0.32608748     0.42473394     0.92317138
c     0.03530129     0.63283846     0.35088834
c     0.53530130     0.86716157     0.64911164
c     0.96469870     0.13283845     0.14911165
c     0.46469870     0.36716156     0.85088834
c     0.86430296     0.57993639     0.29087739
c     0.36430297     0.92006364     0.70912259
c     0.13569702     0.07993638     0.20912260
c     0.63569702     0.42006363     0.79087739
c     0.83685757     0.46839800     0.30273215
c     0.33685758     0.03160203     0.69726783
c     0.16314241     0.96839799     0.19726784
c     0.66314241     0.53160202     0.80273215
c     0.97881081     0.41086017     0.37481684
c     0.47881082     0.08913986     0.62518315
c     0.02118917     0.91086016     0.12518315
c     0.52118917     0.58913985     0.87481684
n     0.30686865     0.39968481     0.50081679
n     0.80686866     0.10031521     0.49918319
n     0.69313133     0.89968480     0.99918320
n     0.19313133     0.60031521     0.00081679
n     0.33250278     0.63681946     0.49395810
n     0.83250279     0.86318057     0.50604189
n     0.66749720     0.13681945     0.00604190
n     0.16749720     0.36318056     0.99395809
o     0.23252602     0.31783690     0.54654182
o     0.73252603     0.18216313     0.45345816
o     0.76747396     0.81783689     0.95345817
o     0.26747396     0.68216312     0.04654182
o     0.50691646     0.43025482     0.50361797
o     0.00691646     0.06974521     0.49638201
o     0.49308353     0.93025481     0.99638202
o     0.99308353     0.56974520     0.00361797
o     0.33299074     0.61720102     0.59543074
o     0.83299075     0.88279900     0.40456925
o     0.66700924     0.11720102     0.90456925
o     0.16700924     0.38279899     0.09543074
o     0.44818785     0.70631923     0.44741110
o     0.94818786     0.79368080     0.55258888
o     0.55181213     0.20631922     0.05258889
o     0.05181213     0.29368079     0.94741110
h     0.05333050     0.71938109     0.34494526
h     0.55333051     0.78061894     0.65505473
h     0.94666948     0.21938108     0.15505473
h     0.44666948     0.28061893     0.84494525
h     0.95941869     0.32453836     0.38433282
h     0.45941870     0.17546166     0.61566717
h     0.04058129     0.82453835     0.11566717
h     0.54058129     0.67546166     0.88433281

K_POINTS automatic
2 2 2 1 1 1

CELL_PARAMETERS cubic
   11.077075000000     0.000000000000     0.000000000000
    0.000000000000    23.548464000000     0.000000000000
    0.000000000000     0.000000000000    22.519124000000
