&control
 title='crystal',
 prefix='crystal',
 pseudo_dir='.',
 calculation='vc-relax',
/
&system
 ibrav=0,
 celldm(1)=1.0,
 nat=    32,
 ntyp=  5,
 ecutwfc=60.0,
 ecutrho=600.0,
 xdm=.true.,
 xdm_a1=0.4073,
 xdm_a2=2.4150,
/
&electrons
 conv_thr = 1d-8,
/
&ions
/
&cell
/
ATOMIC_SPECIES
h      1.007940 h.UPF
c     12.010700 c.UPF
n     14.006700 n.UPF
o     15.999400 o.UPF
cl    35.453000 cl.UPF

ATOMIC_POSITIONS crystal
cl    0.83479982     0.06853844     0.15501775
cl    0.16520016     0.93146156     0.84498229
cl    0.06853867     0.83479990     0.34498252
cl    0.93146132     0.16520010     0.65501752
o     0.17135092     0.40783319     0.28906437
o     0.82864906     0.59216681     0.71093567
o     0.40782716     0.17134589     0.21092828
o     0.59217283     0.82865411     0.78907176
o     0.20699676     0.54135120     0.05017193
o     0.79300322     0.45864880     0.94982811
o     0.54134689     0.20700334     0.44981555
o     0.45865310     0.79299666     0.55018449
n     0.26742147     0.50019084     0.17964098
n     0.73257851     0.49980916     0.82035906
n     0.50020244     0.26742008     0.32038091
n     0.49979754     0.73257992     0.67961913
c     0.46898089     0.57339812     0.20945753
c     0.53101910     0.42660188     0.79054251
c     0.57338893     0.46897683     0.29053989
c     0.42661106     0.53102317     0.70946015
c     0.54988863     0.75770459     0.16719096
c     0.45011135     0.24229541     0.83280908
c     0.75771554     0.54989452     0.33281124
c     0.24228444     0.45010548     0.66718880
c     0.73627319     0.84017542     0.20770401
c     0.26372680     0.15982458     0.79229603
c     0.84017241     0.73626918     0.29229649
c     0.15982758     0.26373082     0.70770355
h     0.46602835     0.83850536     0.10730996
h     0.53397163     0.16149464     0.89269008
h     0.83850428     0.46602905     0.39268930
h     0.16149570     0.53397095     0.60731074

K_POINTS automatic
2 2 2 1 1 1

CELL_PARAMETERS cubic
   13.872079000000     0.047748000000     0.148734000000
   -3.487315000000    13.426599000000    -0.148645000000
    0.158971000000    -0.122418000000    15.508259000000
