&control
 title='crystal',
 prefix='crystal',
 pseudo_dir='.',
 calculation='vc-relax',
/
&system
 ibrav=0,
 celldm(1)=1.0,
 nat=    64,
 ntyp=  5,
 ecutwfc=60.0,
 ecutrho=600.0,
 xdm=.true.,
 xdm_a1=0.4073,
 xdm_a2=2.4150,
/
&electrons
 conv_thr = 1d-8,
/
&ions
/
&cell
/
ATOMIC_SPECIES
h      1.007940 h.UPF
c     12.010700 c.UPF
n     14.006700 n.UPF
o     15.999400 o.UPF
cl    35.453000 cl.UPF

ATOMIC_POSITIONS crystal
c     0.78491489     0.30623507     0.46559786
c     0.21508512     0.69376498     0.53440214
c     0.21508543     0.80623038     0.03439914
c     0.78491458     0.19376966     0.96560086
c     0.67974694     0.28221861     0.25771070
c     0.32025307     0.71778144     0.74228930
c     0.32025160     0.78222329     0.24228788
c     0.67974841     0.21777676     0.75771212
c     0.64079493     0.13675751     0.17432397
c     0.35920508     0.86324254     0.82567603
c     0.35920245     0.63674683     0.32567357
c     0.64079756     0.36325322     0.67432643
c     0.70611161     0.01535693     0.29808974
c     0.29388840     0.98464312     0.70191026
c     0.29388932     0.51536309     0.20190602
c     0.70611070     0.48463696     0.79809398
c     0.81096891     0.03902748     0.50868263
c     0.18903110     0.96097256     0.49131737
c     0.18903499     0.53901692     0.99132584
c     0.81096502     0.46098313     0.00867416
c     0.85009432     0.18342982     0.59032141
c     0.14990569     0.81657022     0.40967859
c     0.14990343     0.68344010     0.90967617
c     0.85009658     0.31655994     0.09032383
cl    0.83383201     0.48363281     0.56971607
cl    0.16616800     0.51636724     0.43028393
cl    0.16616844     0.98363204     0.93028578
cl    0.83383157     0.01636801     0.06971422
cl    0.59873653     0.43204871     0.10135701
cl    0.40126348     0.56795133     0.89864299
cl    0.40126270     0.93204881     0.39864243
cl    0.59873731     0.06795123     0.60135757
n     0.88604690     0.91624527     0.67330001
n     0.11395311     0.08375478     0.32670000
n     0.11394881     0.41625425     0.82670383
n     0.88605120     0.58374580     0.17329617
n     0.65971308     0.86602378     0.17540674
n     0.34028693     0.13397627     0.82459326
n     0.34027824     0.36602513     0.32458025
n     0.65972177     0.63397492     0.67541975
o     0.95975174     0.92893547     0.72859043
o     0.04024827     0.07106458     0.27140957
o     0.04025061     0.42893356     0.77141195
o     0.95974940     0.57106648     0.22858805
o     0.87290646     0.81446458     0.75728023
o     0.12709356     0.18553547     0.24271977
o     0.12709628     0.31445922     0.74271890
o     0.87290373     0.68554083     0.25728110
o     0.70329792     0.77823869     0.16529056
o     0.29670209     0.22176136     0.83470944
o     0.29670277     0.27823631     0.33471526
o     0.70329724     0.72176373     0.66528474
o     0.57861032     0.84191593     0.08042850
o     0.42138969     0.15808412     0.91957150
o     0.42139451     0.34191662     0.41957438
o     0.57860550     0.65808343     0.58042562
h     0.55940339     0.11777640     0.00911217
h     0.44059662     0.88222365     0.99088783
h     0.44059819     0.61777846     0.49089208
h     0.55940182     0.38222159     0.50910792
h     0.93164053     0.20092146     0.75499553
h     0.06835948     0.79907859     0.24500447
h     0.06836260     0.70092093     0.74500961
h     0.93163741     0.29907912     0.25499039

K_POINTS automatic
2 2 2 1 1 1

CELL_PARAMETERS cubic
   38.643905000000    -0.000235000000    -0.606717000000
   -0.000100000000    16.848363000000    -0.000018000000
  -10.334564000000     0.000029000000     8.959642000000
