&control
 title='crystal',
 prefix='crystal',
 pseudo_dir='.',
 calculation='vc-relax',
/
&system
 ibrav=0,
 celldm(1)=1.0,
 nat=    64,
 ntyp=  5,
 ecutwfc=60.0,
 ecutrho=600.0,
 xdm=.true.,
 xdm_a1=0.4073,
 xdm_a2=2.4150,
/
&electrons
 conv_thr = 1d-8,
/
&ions
/
&cell
/
ATOMIC_SPECIES
h      1.007940 h.UPF
c     12.010700 c.UPF
n     14.006700 n.UPF
o     15.999400 o.UPF
cl    35.453000 cl.UPF

ATOMIC_POSITIONS crystal
c     0.19889661     0.77729446     0.35067577
c     0.80110340     0.22270554     0.64932427
c     0.19889661     0.72270554     0.85067579
c     0.80110340     0.27729446     0.14932425
n     0.13311068     0.63970243     0.35144691
n     0.86688932     0.36029757     0.64855313
n     0.13311069     0.86029757     0.85144692
n     0.86688932     0.13970243     0.14855312
o     0.08830796     0.62802431     0.24040948
o     0.91169204     0.37197569     0.75959056
o     0.08830796     0.87197569     0.74040950
o     0.91169204     0.12802431     0.25959054
o     0.12530898     0.54751292     0.46612959
o     0.87469102     0.45248708     0.53387045
o     0.12530898     0.95248708     0.96612961
o     0.87469102     0.04751292     0.03387044
c     0.30260346     0.77173249     0.38171394
c     0.69739654     0.22826751     0.61828610
c     0.30260346     0.72826751     0.88171395
c     0.69739654     0.27173249     0.11828609
n     0.36301980     0.62956463     0.37906297
n     0.63698020     0.37043537     0.62093707
n     0.36301980     0.87043537     0.87906298
n     0.63698020     0.12956463     0.12093706
o     0.41301370     0.61477645     0.48309118
o     0.58698630     0.38522355     0.51690886
o     0.41301370     0.88522355     0.98309120
o     0.58698630     0.11477645     0.01690884
o     0.36295072     0.53654969     0.26822678
o     0.63704929     0.46345031     0.73177326
o     0.36295072     0.96345031     0.76822680
o     0.63704929     0.03654969     0.23177324
c     0.35680122     0.90268060     0.40157462
c     0.64319879     0.09731940     0.59842542
c     0.35680122     0.59731940     0.90157463
c     0.64319879     0.40268060     0.09842541
h     0.43880427     0.89736292     0.42127619
h     0.56119574     0.10263708     0.57872385
h     0.43880427     0.60263708     0.92127620
h     0.56119574     0.39736292     0.07872384
c     0.30706603     0.04112285     0.39121606
c     0.69293398     0.95887715     0.60878398
c     0.30706603     0.45887715     0.89121607
c     0.69293398     0.54112285     0.10878397
cl    0.37351823     0.20242813     0.42026128
cl    0.62648177     0.79757187     0.57973876
cl    0.37351823     0.29757187     0.92026129
cl    0.62648178     0.70242813     0.07973875
c     0.20368330     0.04698070     0.35722574
c     0.79631670     0.95301930     0.64277430
c     0.20368331     0.45301930     0.85722575
c     0.79631670     0.54698070     0.14277429
cl    0.14027212     0.21619386     0.34846284
cl    0.85972788     0.78380614     0.65153720
cl    0.14027212     0.28380614     0.84846286
cl    0.85972789     0.71619386     0.15153719
c     0.15002929     0.91417545     0.33606331
c     0.84997071     0.08582455     0.66393673
c     0.15002929     0.58582455     0.83606333
c     0.84997071     0.41417545     0.16393671
h     0.06885189     0.91872242     0.31365835
h     0.93114811     0.08127758     0.68634169
h     0.06885189     0.58127758     0.81365836
h     0.93114811     0.41872242     0.18634168

K_POINTS automatic
2 2 2 1 1 1

CELL_PARAMETERS cubic
   23.427824000000     0.000000000000     0.216267000000
    0.000000000000    16.820010000000     0.000000000000
    5.363333000000     0.000000000000    14.678208000000
