&control
 title='crystal',
 prefix='crystal',
 pseudo_dir='.',
 calculation='vc-relax',
/
&system
 ibrav=0,
 celldm(1)=1.0,
 nat=    32,
 ntyp=  5,
 ecutwfc=60.0,
 ecutrho=600.0,
 xdm=.true.,
 xdm_a1=0.4073,
 xdm_a2=2.4150,
/
&electrons
 conv_thr = 1d-8,
/
&ions
/
&cell
/
ATOMIC_SPECIES
h      1.007940 h.UPF
c     12.010700 c.UPF
n     14.006700 n.UPF
o     15.999400 o.UPF
cl    35.453000 cl.UPF

ATOMIC_POSITIONS crystal
cl    0.72989405     0.95979527     0.87395589
cl    0.27010597     0.04020472     0.12604412
c     0.13800819     0.00675105     0.71237974
c     0.86199183     0.99324895     0.28762027
c     0.83711715     0.91256326     0.68594633
c     0.16288287     0.08743673     0.31405367
c     0.71008021     0.89541272     0.73579758
c     0.28991982     0.10458728     0.26420243
c     0.88503149     0.97501375     0.81264922
c     0.11496853     0.02498624     0.18735079
c     0.18955793     0.07133492     0.83942431
c     0.81044209     0.92866508     0.16057570
c     0.31419540     0.08658037     0.78885986
c     0.68580462     0.91341962     0.21114015
n     0.25749361     0.99826239     0.66068482
n     0.74250641     0.00173760     0.33931518
n     0.66465036     0.85207432     0.60721067
n     0.33534966     0.14792568     0.39278934
o     0.69229427     0.28792032     0.69256262
o     0.30770576     0.71207968     0.30743739
o     0.92434768     0.70493644     0.59405191
o     0.07565234     0.29506355     0.40594810
o     0.93626546     0.04068934     0.58088318
o     0.06373456     0.95931066     0.41911682
o     0.27883266     0.63244203     0.57688805
o     0.72116736     0.36755797     0.42311196
h     0.47172860     0.81772422     0.71345884
h     0.52827142     0.18227578     0.28654116
h     0.54412853     0.15553086     0.80864475
h     0.45587149     0.84446913     0.19135525
cl    0.41377709     0.17159097     0.93389997
cl    0.58622293     0.82840903     0.06610004

K_POINTS automatic
2 2 2 1 1 1

CELL_PARAMETERS cubic
   13.344939000000     0.670693000000     0.069677000000
  -14.454732000000     6.472858000000    -0.883614000000
   -6.953995000000   -14.788346000000    33.284769000000
