&control
 title='crystal',
 prefix='crystal',
 pseudo_dir='.',
 calculation='vc-relax',
/
&system
 ibrav=0,
 celldm(1)=1.0,
 nat=    44,
 ntyp=  4,
 ecutwfc=60.0,
 ecutrho=600.0,
 xdm=.true.,
 xdm_a1=0.4073,
 xdm_a2=2.4150,
/
&electrons
 conv_thr = 1d-8,
/
&ions
/
&cell
/
ATOMIC_SPECIES
h      1.007940 h.UPF
c     12.010700 c.UPF
o     15.999400 o.UPF
f     18.998403 f.UPF

ATOMIC_POSITIONS crystal
c     0.19315578     0.04926832     0.46768641
c     0.80684421     0.54926834     0.53231364
c     0.27916428     0.11210743     0.34351256
c     0.72083571     0.61210745     0.65648748
c     0.15643348     0.28633371     0.27028117
c     0.84356651     0.78633372     0.72971888
c     0.20765924     0.30603499     0.12904774
c     0.79234075     0.80603501     0.87095230
c     0.41466253     0.38936204     0.10963654
c     0.58533746     0.88936206     0.89036351
c     0.46177629     0.39984774     0.97936771
c     0.53822369     0.89984776     0.02063233
c     0.30044433     0.32375856     0.86965315
c     0.69955566     0.82375857     0.13034690
c     0.09273352     0.24074010     0.88437371
c     0.90726647     0.74074011     0.11562633
c     0.04805514     0.23310328     0.01548417
c     0.95194485     0.73310329     0.98451587
f     0.35014054     0.32838412     0.74287226
f     0.64985945     0.82838413     0.25712778
h     0.91016691     0.01976642     0.53850302
h     0.08983308     0.51976644     0.46149702
h     0.39564496     0.45889234     0.38798839
h     0.60435503     0.95889236     0.61201165
h     0.46991083     0.13227106     0.37098719
h     0.53008916     0.63227107     0.62901285
h     0.24711520     0.99290656     0.27190881
h     0.75288479     0.49290657     0.72809123
h     0.96631869     0.27166692     0.25926853
h     0.03368130     0.77166693     0.74073152
h     0.54107448     0.44737482     0.19640302
h     0.45892551     0.94737483     0.80359702
h     0.62141449     0.46526440     0.96330047
h     0.37858550     0.96526442     0.03669957
h     0.97119521     0.18069833     0.79625568
h     0.02880478     0.68069834     0.20374436
h     0.88619856     0.16787489     0.02893679
h     0.11380143     0.66787490     0.97106325
o     0.32028700     0.96999517     0.56746387
o     0.67971299     0.46999519     0.43253618
o     0.96727996     0.07778915     0.45757780
o     0.03272003     0.57778916     0.54242224
o     0.22048187     0.45215978     0.35270556
o     0.77951812     0.95215979     0.64729448

K_POINTS automatic
2 2 2 1 1 1

CELL_PARAMETERS cubic
   11.045260000000     0.000000000000    -0.031604000000
    0.000000000000    13.470469000000     0.000000000000
   -4.196673000000     0.000000000000    18.456248000000
