%nprocs=4
%mem=4GB
#p pbepbe aug-cc-pvtz output=wfx scf=(conver=6) int=(grid=ultrafine)

title

0 1
c -0.282709679383298 -0.294846682791304 0.000000000000000
o 0.112906431703494 0.958534669151170 0.000000000000000
o 0.435751522356590 -1.281744959906815 0.000000000000000
h -1.373301985615514 -0.373983705012533 0.000000000000000
h 1.107353710938729 0.992040678559472 0.000000000000000

03a.wfx

