%nprocs=4
%mem=4GB
#p pbepbe aug-cc-pvtz output=wfx scf=(conver=6) int=(grid=ultrafine)

title

0 1
c -0.294062415904415 0.576964162008310 0.000000000000000
o 0.272386743151336 1.667715468285173 0.000000000000000
n 0.316816755627039 -0.618403173644151 0.000000000000000
h -0.240009400726633 -1.452955407981753 0.000000000000000
h 1.337343042185110 -0.683701191979471 0.000000000000000
h -1.392474724332448 0.510380143311891 0.000000000000000

04a.wfx

