%nprocs=4
%mem=4GB
#p pbepbe aug-cc-pvtz output=wfx scf=(conver=6) int=(grid=ultrafine)

title

0 1
o -1.763728241842658 -1.965759312312700 0.000000000000000
o -0.894619377016662 2.508479491752544 0.000000000000000
n 0.423113191198645 -1.289659648186048 0.000000000000000
n -1.275119543983762 0.261715291369762 0.000000000000000
c 0.979507616876457 1.028248494954214 0.000000000000000
c -0.425996820796522 1.384227226878846 0.000000000000000
c 1.339333140328346 -0.272651616225873 0.000000000000000
c -0.925542837066249 -1.063660582877295 0.000000000000000
h 1.712954628356213 1.815936907122004 0.000000000000000
h 0.725855495144670 -2.271746723666815 0.000000000000000
h -2.267423642248004 0.454457083914233 0.000000000000000
h 2.371666391049536 -0.589586612722873 0.000000000000000

05a.wfx

