%nprocs=4
%mem=4GB
#p pbepbe aug-cc-pvtz output=wfx scf=(conver=6) int=(grid=ultrafine)

title

0 1
c 0.000000000000000 0.000000000000000 0.000000000000000
h -0.628551763771279 0.628551763771279 0.628551763771279
h 0.628551763771279 -0.628551763771279 0.628551763771279
h 0.628551763771279 0.628551763771279 -0.628551763771279
h -0.628551763771279 -0.628551763771279 -0.628551763771279

08a.wfx

