%nprocs=4
%mem=4GB
#p pbepbe aug-cc-pvtz output=wfx scf=(conver=6) int=(grid=ultrafine)

title

0 1
c 1.206254600168920 -0.696431418118750 0.000000000000000
c 1.206254600168920 0.696431418118750 0.000000000000000
c 0.000000000000000 1.392862836237500 0.000000000000000
c -1.206254600168920 0.696431418118750 0.000000000000000
c -1.206254600168920 -0.696431418118750 0.000000000000000
c 0.000000000000000 -1.392862836237500 0.000000000000000
h 2.143441687973094 1.237516635543532 0.000000000000000
h 0.000000000000000 2.475033271087063 0.000000000000000
h -2.143441687973094 1.237516635543532 0.000000000000000
h -2.143441687973094 -1.237516635543532 0.000000000000000
h 0.000000000000000 -2.475033271087063 0.000000000000000
h 2.143441687973094 -1.237516635543532 0.000000000000000

14b.wfx

