%nprocs=4
%mem=4GB
#p pbepbe aug-cc-pvtz output=wfx scf=(conver=6) int=(grid=ultrafine)

title

0 1
c 0.000000000000000 0.000000000000000 0.604247169669225
c 0.000000000000000 0.000000000000000 -0.604247169669225
h 0.000000000000000 0.000000000000000 -1.668904468619036
h 0.000000000000000 0.000000000000000 1.668904468619036

16b.wfx

