%nprocs=4
%mem=4GB
#p pbepbe aug-cc-pvtz output=wfx scf=(conver=6) int=(grid=ultrafine)

title

0 1
c -1.207557132702748 0.697183435627785 0.000000000000000
c -1.207557132702748 -0.697183435627785 0.000000000000000
c 0.000000000000000 -1.394366871255569 0.000000000000000
c 1.207557132702748 -0.697183435627785 0.000000000000000
c 1.207557132702748 0.697183435627785 0.000000000000000
c 0.000000000000000 1.394366871255569 0.000000000000000
h -2.143978503380208 1.237826566063334 0.000000000000000
h -2.143978503380208 -1.237826566063334 0.000000000000000
h 0.000000000000000 -2.475653132126669 0.000000000000000
h 2.143978503380208 -1.237826566063334 0.000000000000000
h 2.143978503380208 1.237826566063334 0.000000000000000
h 0.000000000000000 2.475653132126669 0.000000000000000

17a.wfx

