%nprocs=4
%mem=4GB
#p pbepbe aug-cc-pvtz output=wfx scf=(conver=6) int=(grid=ultrafine)

title

0 1
c 2.400268323391846 1.586537546044706 0.000000000000000
c 2.601378180706281 0.919376341718997 -1.208292106259122
c 3.006150983998507 -0.415221360442166 -1.208365030021101
c 3.209753622782131 -1.082208645380520 0.000000000000000
c 3.006150983998507 -0.415221360442166 1.208365030021101
c 2.601378180706281 0.919376341718997 1.208292106259122
c -0.627744382906736 -2.127800205640194 0.000000000000000
c -2.001508106579106 -2.219927645493027 0.000000000000000
c -2.504864499807220 -0.885560889605743 0.000000000000000
c -1.375697703271964 -0.018888944423583 0.000000000000000
c -1.501232805377453 1.373289541165368 0.000000000000000
c -2.784282870245089 1.898167906603257 0.000000000000000
c -3.917084121471238 1.059001626761952 0.000000000000000
c -3.791449853142719 -0.320198639065382 0.000000000000000
h 2.090772307610811 2.622658795087118 0.000000000000000
h 2.439544708330023 1.435213548493906 -2.144590692240386
h 3.158668887361783 -0.933618531909881 -2.144838481632305
h 3.525182958075909 -2.116630379655215 0.000000000000000
h 3.158668887361783 -0.933618531909881 2.144838481632305
h 2.439544708330023 1.435213548493906 2.144590692240386
h 0.694892655257293 -0.474364360809751 0.000000000000000
h 0.119370424590700 -2.903795835087014 0.000000000000000
h -2.570208732505130 -3.134083776459307 0.000000000000000
h -0.630505487231955 2.015474987841539 0.000000000000000
h -2.919389910021597 2.971309067429867 0.000000000000000
h -4.902232670215523 1.505459948616914 0.000000000000000
h -4.669651793808260 -0.952769535612733 0.000000000000000
n -0.255872875917852 -0.807170558040029 0.000000000000000

21.wfx

