%nprocs=4
%mem=4GB
#p pbepbe aug-cc-pvtz output=wfx scf=(conver=6) int=(grid=ultrafine)

title

0 1
c 1.474597037884129 -1.938934123651578 0.000000000000000
c 0.100833314211764 -2.031061563504411 0.000000000000000
c -0.402523079016350 -0.696694807617127 0.000000000000000
c 0.726643717518906 0.169977137565033 0.000000000000000
c 0.601108615413417 1.562155623153984 0.000000000000000
c -0.681941449454223 2.087033988591873 0.000000000000000
c -1.814742700680373 1.247867708750569 0.000000000000000
c -1.689108432351849 -0.131332557076766 0.000000000000000
h 2.797234076048158 -0.285498278821135 0.000000000000000
h 2.221711845381564 -2.714929753098398 0.000000000000000
h -0.467867311714265 -2.945217694470692 0.000000000000000
h 1.471835933558910 2.204341069830155 0.000000000000000
h -0.817048489230733 3.160175149418488 0.000000000000000
h -2.799891249424652 1.694326030605530 0.000000000000000
h -2.567310373017390 -0.763903453624117 0.000000000000000
n 1.846468544873018 -0.618304476051413 0.000000000000000

21a.wfx

