&control
 title='crystal',
 prefix='crystal',
 pseudo_dir='.',
 calculation='vc-relax',
/
&system
 ibrav=0,
 celldm(1)=1.0,
 nat=    54,
 ntyp=  5,
 ecutwfc=60.0,
 ecutrho=600.0,
 xdm=.true.,
 xdm_a1=0.4073,
 xdm_a2=2.4150,
/
&electrons
 conv_thr = 1d-8,
/
&ions
/
&cell
/
ATOMIC_SPECIES
h      1.007940 h.UPF
c     12.010700 c.UPF
n     14.006700 n.UPF
o     15.999400 o.UPF
s     32.065000 s.UPF

ATOMIC_POSITIONS crystal
s     0.34123476     0.82014458     0.66030748
s     0.65876526     0.17985542     0.33969247
n     0.86668077     0.65736463     0.18945342
n     0.13331925     0.34263536     0.81054653
o     0.31460606     0.73084965     0.90787301
o     0.68539396     0.26915035     0.09212695
h     0.25784524     0.58654755     0.87247530
h     0.74215479     0.41345244     0.12752466
c     0.48122657     0.78173322     0.55028734
c     0.51877346     0.21826678     0.44971262
h     0.39782692     0.78783795     0.45713679
h     0.60217310     0.21216205     0.54286316
c     0.69507964     0.74522469     0.59810833
c     0.30492039     0.25477530     0.40189163
h     0.81092440     0.71443115     0.54438559
h     0.18907562     0.28556885     0.45561437
c     0.74649298     0.74873474     0.72521733
c     0.25350704     0.25126526     0.27478263
h     0.91154302     0.72866976     0.77969084
h     0.08845700     0.27133023     0.22030911
c     0.57021721     0.78650308     0.77302916
c     0.42978282     0.21349691     0.22697079
c     0.55892230     0.81147802     0.90230305
c     0.44107772     0.18852197     0.09769691
h     0.60879575     0.96718165     0.93936371
h     0.39120427     0.03281835     0.06063624
c     0.73957240     0.73054234     0.98204252
c     0.26042762     0.26945765     0.01795744
h     0.68577482     0.57371938     0.94948961
h     0.31422520     0.42628062     0.05051034
h     0.92132775     0.79245705     0.97131710
h     0.07867227     0.20754294     0.02868286
c     0.74622964     0.77301863     0.11508525
c     0.25377038     0.22698136     0.88491470
h     0.83520163     0.92886562     0.15343625
h     0.16479839     0.07113438     0.84656370
h     0.55883345     0.73797155     0.12106054
h     0.44116657     0.26202845     0.87893941
c     0.12526386     0.70131279     0.19493416
c     0.87473616     0.29868721     0.80506580
h     0.23052830     0.85225503     0.23969239
h     0.76947173     0.14774497     0.76030756
h     0.14481153     0.67700880     0.10326734
h     0.85518849     0.32299119     0.89673262
h     0.20226914     0.60498477     0.24592921
h     0.79773088     0.39501523     0.75407075
c     0.84208795     0.68914284     0.31260851
c     0.15791207     0.31085716     0.68739144
h     0.92447384     0.59719114     0.36551270
h     0.07552619     0.40280885     0.63448726
h     0.64849767     0.64848059     0.30807020
h     0.35150235     0.35151940     0.69192976
h     0.93117871     0.84161833     0.35959675
h     0.06882131     0.15838167     0.64040321

K_POINTS automatic
2 2 2 1 1 1

CELL_PARAMETERS cubic
   11.261179000000     0.033892000000    -0.022837000000
   -3.828286000000    13.339858000000    -0.134035000000
   -5.308723000000    -3.989520000000    20.847686000000
