&control
 title='crystal',
 prefix='crystal',
 pseudo_dir='.',
 calculation='vc-relax',
/
&system
 ibrav=0,
 celldm(1)=1.0,
 nat=    80,
 ntyp=  3,
 ecutwfc=60.0,
 ecutrho=600.0,
 xdm=.true.,
 xdm_a1=0.4073,
 xdm_a2=2.4150,
/
&electrons
 conv_thr = 1d-8,
/
&ions
/
&cell
/
ATOMIC_SPECIES
h      1.007940 h.UPF
c     12.010700 c.UPF
o     15.999400 o.UPF

ATOMIC_POSITIONS crystal
o     0.58432299     0.61100774     0.22528306
o     0.41567698     0.38899221     0.77471692
o     0.15345917     0.69760844     0.39029243
o     0.84654080     0.30239151     0.60970755
o     0.46205170     0.03875040     0.38439610
o     0.53794827     0.96124955     0.61560388
o     0.86061912     0.08644498     0.24135772
o     0.13938086     0.91355497     0.75864226
c     0.82501820     0.84367459     0.19621750
c     0.17498177     0.15632536     0.80378248
c     0.05372215     0.75812286     0.33024879
c     0.94627782     0.24187709     0.66975119
c     0.82785066     0.87193354     0.32506682
c     0.17214931     0.12806640     0.67493316
o     0.22755223     0.65083248     0.02131118
o     0.77244774     0.34916746     0.97868880
c     0.76862934     0.69198184     0.18024968
c     0.23137063     0.30801810     0.81975030
c     0.90648878     0.63393717     0.12020040
c     0.09351119     0.36606278     0.87979958
c     0.79365633     0.86880163     0.44976978
c     0.20634364     0.13119832     0.55023020
c     0.14528580     0.87811997     0.09029067
c     0.85471417     0.12187998     0.90970931
o     0.14733144     0.19934443     0.15530042
o     0.85266854     0.80065552     0.84469956
c     0.67726781     0.93559652     0.38707466
c     0.32273216     0.06440343     0.61292532
c     0.72458168     0.93562314     0.25713998
c     0.27541829     0.06437681     0.74286000
c     0.00571190     0.93187848     0.15107002
c     0.99428807     0.06812147     0.84892996
c     0.02266006     0.75369353     0.45043436
c     0.97733992     0.24630642     0.54956562
c     0.51626224     0.45731925     0.20764909
c     0.48373774     0.54268070     0.79235089
c     0.02112943     0.08540294     0.17933004
c     0.97887054     0.91459700     0.82066994
c     0.16137934     0.67474436     0.50864532
c     0.83862064     0.32525559     0.49135466
c     0.09750493     0.72494777     0.07622720
c     0.90249505     0.27505218     0.92377278
c     0.07836848     0.70096841     0.57421164
c     0.92163150     0.29903154     0.42578835
c     0.23296137     0.62221255     0.63299226
c     0.76703861     0.37778740     0.36700772
c     0.42226054     0.73729769     0.97410419
c     0.57773943     0.26270226     0.02589579
h     0.89180257     0.78734057     0.58638555
h     0.10819740     0.21265938     0.41361443
h     0.87480705     0.51660214     0.10586262
h     0.12519293     0.48339781     0.89413736
h     0.28865615     0.95180593     0.05744419
h     0.71134383     0.04819402     0.94255579
h     0.47278328     0.96273027     0.26209873
h     0.52721670     0.03726968     0.73790126
h     0.18110670     0.70418876     0.28755798
h     0.81889327     0.29581118     0.71244200
h     0.72819614     0.38165567     0.20415469
h     0.27180383     0.61834427     0.79584529
h     0.69689016     0.91024033     0.49835310
h     0.30310981     0.08975962     0.50164688
h     0.34801703     0.58933346     0.49598179
h     0.65198294     0.41066649     0.50401819
h     0.36024927     0.41423571     0.24868556
h     0.63975071     0.58576424     0.75131442
h     0.40352745     0.53009875     0.61767384
h     0.59647252     0.46990120     0.38232614
h     0.61175682     0.78527260     0.00006867
h     0.38824315     0.21472735     0.99993131
h     0.34957293     0.70848938     0.66033395
h     0.65042704     0.29151056     0.33966603
h     0.28602645     0.83016111     0.94755082
h     0.71397352     0.16983884     0.05244916
h     0.52154654     0.65511985     0.93757471
h     0.47845343     0.34488009     0.06242527
h     0.06157362     0.57299617     0.66979431
h     0.93842635     0.42700378     0.33020567
h     0.39791743     0.46134914     0.15966310
h     0.60208255     0.53865080     0.84033688

K_POINTS automatic
2 2 2 1 1 1

CELL_PARAMETERS cubic
    8.161049000000    -0.031826000000    -0.053685000000
    1.017673000000    16.356251000000    -0.100064000000
    2.163922000000     1.739553000000    37.025058000000
