%nprocs=4
%mem=4GB
#p pbepbe aug-cc-pvtz output=wfx scf=(conver=6) int=(grid=ultrafine)

title

0 1
c 0.005042891443247 -0.510937081168644 -1.297943174189516
c -0.018387737482801 -1.882362403889771 -1.069506865144287
c -0.015782925659310 -2.371294640289447 0.232012371126929
c 0.011155418797717 -1.475970075660846 1.300593274327530
c 0.032192804060651 -0.108093974612284 1.070700563156160
c 0.025270924442378 0.402902211354054 -0.235887856407935
c 0.040019928185005 1.842370572001603 -0.536288602635273
c -0.047102254909244 2.855364267222588 0.327178482990141
h 0.003567846928832 -0.136653603345542 -2.315914833672023
h -0.036306337308583 -2.567912587151134 -1.908494744867578
h -0.031576846763542 -3.438898984502873 0.415424061631362
h 0.018268033309448 -1.848896659710386 2.318137834286263
h 0.060741003296141 0.569359209140709 1.915169398956728
h 0.124123813717400 2.080137498391143 -1.593855988008781
h -0.145332336493115 2.709655418030236 1.396403514444190
h -0.025894225564240 3.881230834190605 -0.017727435993932

E13.wfx

