%nprocs=4
%mem=4GB
#p pbepbe aug-cc-pvtz output=wfx scf=(conver=6) int=(grid=ultrafine)

title

0 1
n 0.685628400507867 -0.133833796383915 1.356978399036783
c -0.513280850641047 0.267497357154260 0.611286618599254
c -0.484029325709871 -0.330884581377300 -0.799661943897712
n 0.651543116510771 0.062592523171143 -1.630092893712002
h 0.637845876923919 -1.113711109944507 1.616074049284151
h 0.788698290722406 0.399610280962722 2.211689950511502
h 0.584680832306314 1.044877081031508 -1.876612133592394
h 1.505426320983272 -0.045547150154222 -1.091139825010722
h -1.456057139864213 -0.018629491841425 1.104486776090414
h -0.509259642905196 1.359369733555530 0.535796499258531
h -1.408220184256593 -0.067026680555941 -1.321629237121942
h -0.482975694577613 -1.424314165617844 -0.717176259445868

E17.wfx

