%nprocs=4
%mem=4GB
#p pbepbe aug-cc-pvtz output=wfx scf=(conver=6) int=(grid=ultrafine)

title

0 1
n 1.323603167100141 -0.040937067816330 0.000000000000000
c 0.481621852139310 0.250203184198105 1.163047979647341
c -0.866260925652788 -0.387588222989481 0.777959793453661
c -0.866260925652788 -0.387588222989481 -0.777959793453661
c 0.481621852139310 0.250203184198105 -1.163047979647341
h 2.187833701224660 0.488308112248772 0.000000000000000
h 0.911149344591953 -0.176624756920138 2.071570710367473
h 0.348182455632589 1.333086538672272 1.327812726714932
h -1.706383930229490 0.166268362777795 1.199184913417496
h -0.924027230643970 -1.409030627954772 1.155788234279582
h -0.924027230643970 -1.409030627954772 -1.155788234279582
h -1.706383930229490 0.166268362777795 -1.199184913417496
h 0.911149344591953 -0.176624756920138 -2.071570710367473
h 0.348182455632589 1.333086538672272 -1.327812726714932

E18.wfx

