%nprocs=4
%mem=4GB
#p pbepbe aug-cc-pvtz output=wfx scf=(conver=6) int=(grid=ultrafine)

title

0 1
n -1.192978718109327 0.000000000000000 -0.925890318155087
c -1.181509342963917 0.000000000000000 0.408778636423777
c 0.000000000000000 0.000000000000000 1.138836402100967
c 1.181509342963917 0.000000000000000 0.408778636423777
n 1.192978718109327 0.000000000000000 -0.925890318155087
c 0.000000000000000 0.000000000000000 -1.521875133741174
h -2.148845937781994 0.000000000000000 0.901533513763587
h 0.000000000000000 0.000000000000000 2.221045393029637
h 2.148845937781994 0.000000000000000 0.901533513763587
h 0.000000000000000 0.000000000000000 -2.606850325454007

E19.wfx

