%nprocs=4
%mem=4GB
#p pbepbe aug-cc-pvtz output=wfx scf=(conver=6) int=(grid=ultrafine)

title

0 1
c -0.032155739653539 0.921560043914833 0.000000000000000
c -0.034221217272711 0.204942026017617 -1.204186107406965
c -0.036980320754854 -1.183940238260298 -1.198689312345626
c -0.038713473386981 -1.892409853071180 0.000000000000000
c -0.036980320754854 -1.183940238260298 1.198689312345626
c -0.034221217272711 0.204942026017617 1.204186107406965
n -0.089134950638217 2.316208951900251 0.000000000000000
h -0.038051495207275 0.743073181084963 -2.146237766132309
h -0.036927392036486 -1.716471379906948 -2.142808297603881
h -0.040023557074837 -2.974994785080336 0.000000000000000
h -0.036927392036486 -1.716471379906948 2.142808297603881
h -0.038051495207275 0.743073181084963 2.146237766132309
h 0.246194285648123 2.767214232232893 -0.837278366299123
h 0.246194285648123 2.767214232232893 0.837278366299123

E22.wfx

