%nprocs=4
%mem=4GB
#p pbepbe aug-cc-pvtz output=wfx scf=(conver=6) int=(grid=ultrafine)

title

0 1
o -0.194060762921736 0.797392732924331 -1.247544890563121
c 0.262471870503780 -0.385982306603419 -0.580464288157389
c -0.321171329251400 -0.354550871803854 0.817349759794463
o 0.133591637758077 0.768687034589432 1.558611473160639
h 0.312285238113608 0.922633451641651 -2.056164983883951
h -0.048288932404176 1.548113059052519 1.018185736925138
h -0.076343560817630 -1.288703529539273 -1.105041508753189
h 1.356795872851079 -0.399135506258464 -0.520104392604633
h -0.008166184535817 -1.244483575057489 1.366561769244811
h -1.417113849295779 -0.363970488945433 0.748611324837248

E27.wfx

