%nprocs=4
%mem=4GB
#p pbepbe aug-cc-pvtz output=wfx scf=(conver=6) int=(grid=ultrafine)

title

0 1
c -1.131543431269678 -0.126499256197928 0.000000000000000
c 0.233041910626962 0.492712273569048 0.000000000000000
c 1.380545596664633 -0.176427050997323 0.000000000000000
h -1.076987887090135 -1.216874502890577 0.000000000000000
h -1.705359652712296 0.187299682623624 -0.877914148549077
h -1.705359652712296 0.187299682623624 0.877914148549077
h 0.261846656172910 1.580459772345661 0.000000000000000
h 1.407343228120632 -1.261593089165456 0.000000000000000
h 2.336473232199288 0.333622488089321 0.000000000000000

E3.wfx

