%nprocs=4
%mem=4GB
#p pbepbe aug-cc-pvtz output=wfx scf=(conver=6) int=(grid=ultrafine)

title

0 1
c 0.000000000000000 -1.274223686435333 -0.584310316211190
c 0.000000000000000 0.000000000000000 0.217609387280572
c 0.000000000000000 1.274223686435333 -0.584310316211190
c 0.000000000000000 0.000000000000000 1.549636536629174
h 0.000000000000000 -2.156560698708619 0.056677577375246
h 0.878023103435252 -1.324317788801577 -1.237107266906152
h -0.878023103435252 -1.324317788801577 -1.237107266906152
h 0.000000000000000 2.156560698708619 0.056677577375246
h 0.878023103435252 1.324317788801577 -1.237107266906152
h -0.878023103435252 1.324317788801577 -1.237107266906152
h 0.000000000000000 -0.923034004350981 2.118224310693386
h 0.000000000000000 0.923034004350981 2.118224310693386

E5.wfx

