%nprocs=4
%mem=4GB
#p pbepbe aug-cc-pvtz output=wfx scf=(conver=6) int=(grid=ultrafine)

title

0 1
c -2.660819085415052 -0.219395197557655 0.000000000000000
c -1.493508037175952 0.431188003698094 0.000000000000000
c -0.189792944024093 -0.208680847731375 0.000000000000000
c 0.974556798300443 0.450657117916279 0.000000000000000
c 2.328224464834544 -0.185391812545147 0.000000000000000
h -2.706599806579448 -1.303325609598713 0.000000000000000
h -3.605614940261096 0.309061260293564 0.000000000000000
h -1.495008490907139 1.519103603172137 0.000000000000000
h -0.182425907142626 -1.297378414880139 0.000000000000000
h 0.954084239031612 1.539147337673364 0.000000000000000
h 2.260820019880907 -1.274961157245863 0.000000000000000
h 2.908041844728949 0.119987858402719 0.877510651574997
h 2.908041844728949 0.119987858402719 -0.877510651574997

E9.wfx

