%nprocs=4
%mem=4GB
#p pbepbe aug-cc-pvtz output=wfx scf=(conver=6) int=(grid=ultrafine)

title

0 1
c -1.578451614027564 -0.633191886501191 0.373446367409698
c -1.578451614027564 0.633191886501191 -0.373446367409698
c -0.633191886501191 1.578451614027564 -0.373446367409698
c 0.633191886501191 1.578451614027564 0.373446367409698
c 1.578451614027564 0.633191886501191 0.373446367409698
c 1.578451614027564 -0.633191886501191 -0.373446367409698
c 0.633191886501191 -1.578451614027564 -0.373446367409698
c -0.633191886501191 -1.578451614027564 0.373446367409698
h -2.493157552090925 -0.838829007873765 0.925875485866576
h -2.493157552090925 0.838829007873765 -0.925875485866576
h -0.838829007873765 2.493157552090925 -0.925875485866576
h 0.838829007873765 2.493157552090925 0.925875485866576
h 2.493157552090925 0.838829007873765 0.925875485866576
h 2.493157552090925 -0.838829007873765 -0.925875485866576
h 0.838829007873765 -2.493157552090925 -0.925875485866576
h -0.838829007873765 -2.493157552090925 0.925875485866576

P13.wfx

