%nprocs=4
%mem=4GB
#p pbepbe aug-cc-pvtz output=wfx scf=(conver=6) int=(grid=ultrafine)

title

0 1
c -2.103555834320531 -0.664628181385506 0.000000000000000
c -1.014292563579387 0.370284881187217 0.000000000000000
o 0.215206399964301 -0.238267267723406 0.000000000000000
c 1.348060931174046 0.558334166439719 0.000000000000000
c 2.549537115827761 0.004335703680749 0.000000000000000
o -1.165499190803524 1.562036529001549 0.000000000000000
h -3.071779224923392 -0.170815360156902 0.000000000000000
h -2.010015035849170 -1.303975348136750 0.879776892004223
h -2.010015035849170 -1.303975348136750 -0.879776892004223
h 1.150969885377661 1.621521630688399 0.000000000000000
h 2.683978386065534 -1.069398741129593 0.000000000000000
h 3.427404166915887 0.634547335671293 0.000000000000000

P31.wfx

