%nprocs=4
%mem=4GB
#p pbepbe aug-cc-pvtz output=wfx scf=(conver=6) int=(grid=ultrafine)

title

0 1
c -1.987388495592145 0.052068316788158 0.251314643470758
c -0.856025642737313 0.180243848994309 -0.433286924561735
c 0.406893643941570 -0.591275137478350 -0.181932764048527
c 1.595574149687723 0.312454061260194 0.176821713766479
h -2.082154950059607 -0.660504221719383 1.064759462265918
h -2.862023755869731 0.649966096125447 0.023979448638208
h -0.809734008372000 0.910763567757975 -1.239765401896374
h 0.660081192273645 -1.165694897000075 -1.081225664713774
h 0.237825131469956 -1.319572726818581 0.616661992421787
h 1.790338672073932 1.041433109821636 -0.614266679111891
h 2.505253378706406 -0.275616158304791 0.318644220850662
h 1.401360684477577 0.865734140573444 1.098295952918516

P6.wfx

