%nprocs=4
%mem=4GB
#p pbepbe aug-cc-pvtz output=wfx scf=(conver=6) int=(grid=ultrafine)

title

0 1
o -0.467433664037187 -1.415643230641823 2.342483173765766
h -0.510388111988303 -0.532778542753632 2.738350894883248
h -1.154371011270928 -1.413541900742052 1.639060247318376
o -1.180495260024828 -4.411488967742811 -2.021787858062635
h -1.600595139986461 -5.080499465831644 -2.568406081989461
h -1.629658938600143 -4.444349136175412 -1.130692190567051
o -0.389082197774477 -4.341618641075560 2.364921692695470
h -0.412231836670262 -3.425437404776538 2.678029747760514
h 0.495447040034313 -4.451681155825684 1.976641121216088
o -2.370826993247127 -1.401074791336726 0.331738759676377
h -2.768705334268709 -0.519060403407978 0.376439287544201
h -1.900813255666339 -1.431277629896076 -0.531456059150051
o -1.041221476668054 -1.577342862928900 -2.089864784815425
h -0.074095162799065 -1.547857684335320 -1.918297622999020
h -1.221082758088841 -2.502889308781212 -2.333426903197747
o 1.640303145425756 -4.351984780581101 -1.603096808033799
h 0.690763720717886 -4.479117774516979 -1.786459999287550
h 1.823442756690169 -3.433248774403949 -1.854859106024976
o -2.332463955077010 -4.319110842149162 0.371066287800489
h -1.674916516441400 -4.416149857520490 1.094567293290176
h -2.663344049294344 -3.413059455366957 0.458713533619798
o 1.678740093592348 -1.467657948160770 -1.589549818679978
h 1.804249077605690 -1.468380838126293 -0.613522165235575
h 1.969128389741104 -0.592186149919942 -1.887104484486903
o 2.017778807420523 -1.570024423277986 1.145733630849588
h 1.134326249560374 -1.536778284863800 1.576431540305706
h 2.318716593066076 -2.489902319400685 1.254194115676124
o 2.182462219565283 -4.393074118621181 1.031173596313991
h 2.855434847465121 -5.046346827460694 1.238449406427135
h 2.003112628120087 -4.462730795298625 0.057370882763466
o -0.415240056526776 4.384250492708732 2.287613826382981
h -0.567983429241063 5.065370010219978 2.947930364886506
h -1.112770093255255 4.487654047776480 1.603826438998994
o -1.104661363642033 1.276004150969139 -2.078680775348896
h -1.273793455574590 0.386058463418709 -2.427892698691814
h -1.542139792774726 1.297394139948863 -1.198465637334324
o -0.334341730385550 1.482161001135658 2.315783675039305
h 0.534803518157045 1.410140114570988 1.860663556748103
h -0.379716198221228 2.398600917422332 2.629491290075751
o -2.274991337818399 4.376894553059604 0.233996034338611
h -1.798851670529811 4.346289394519443 -0.642755113841188
h -2.981256444130223 5.021348242319770 0.137147868958176
o -0.993382278949941 4.143164394208311 -2.084362685077870
h -0.029885164907839 4.270106468153296 -2.002274738993390
h -1.108788323445182 3.221619258165143 -2.368803931510296
o 1.634438585705492 1.395428845272696 -1.691828833801365
h 0.663806072003742 1.360846106922263 -1.841299426671761
h 1.893681153339866 2.307680561759156 -1.904029763679581
o -2.321508415599579 1.478516271309510 0.392926566757774
h -2.625009101122881 2.400108747350412 0.387831257000816
h -1.619261219096108 1.452531822548938 1.081205623927514
o 1.814541457114752 4.249109779154816 -1.649935965799618
h 2.402090869089201 4.890029458583557 -2.058513856310836
h 1.980937409177822 4.284310017475796 -0.672115472440731
o 2.169294930193349 4.132016904740034 1.012479417205685
h 2.381019820094273 3.201111389143343 1.193354968578094
h 1.337286819879348 4.300833896687626 1.486627824589255
o 2.095810763698472 1.269599511274636 1.022726666716905
h 2.418326428314781 0.376852583857820 1.228475806902864
h 1.935362341351709 1.270262771243003 0.052036383017915

H2O20fs.wfx

