%nprocs=4
%mem=4GB
#p pbepbe aug-cc-pvtz output=wfx scf=(conver=6) int=(grid=ultrafine)

title

0 1
o 1.184702879046352 1.115079214589550 -0.034464050578318
h 0.493908801996570 0.956376652159516 0.634008867536153
h 2.024267618999906 1.081124576209157 0.430141657260428
o -1.146944339736281 0.069764884450057 1.147019633066025
h -1.279830763397728 -0.523216877265275 1.890283347613046
h -1.064139833685981 -0.495669348579265 0.356925030752790
o -0.163350776652767 -1.028934603143018 -1.240180763066773
h 0.491477122112564 -0.324873306726071 -1.078483810779565
h -0.540090708682628 -0.849651191694666 -2.105249911803797

H2O3.wfx

