%nprocs=4
%mem=4GB
#p pbepbe aug-cc-pvtz output=wfx scf=(conver=6) int=(grid=ultrafine)

title

0 1
o 1.990591075050687 -0.108400314829406 -1.465229100109957
h 1.330292756546294 -0.846786779609072 -1.530451856998893
h 2.703539491043720 -0.310345175196828 -2.076240000965316
o -0.108400314829406 -1.990591075050687 1.465229100109957
h -0.310345175196828 -2.703539491043720 2.076240000965316
h -0.846786779609072 -1.330292756546294 1.530451856998893
o -1.938753207523304 -0.025575628780064 1.401609223144565
h -2.172466636375397 0.026360798742616 0.458369468136210
h -1.398824013277417 0.767044143412720 1.564464735376514
o 0.025575628780064 -1.938753207523304 -1.401609223144565
h -0.026360798742616 -2.172466636375397 -0.458369468136210
h -0.767044143412720 -1.398824013277417 -1.564464735376514
o -0.025575628780064 1.938753207523304 -1.401609223144565
h 0.767044143412720 1.398824013277417 -1.564464735376514
h 0.026360798742616 2.172466636375397 -0.458369468136210
o 0.108400314829406 1.990591075050687 1.465229100109957
h 0.846786779609072 1.330292756546294 1.530451856998893
h 0.310345175196828 2.703539491043720 2.076240000965316
o -1.990591075050687 0.108400314829406 -1.465229100109957
h -1.330292756546294 0.846786779609072 -1.530451856998893
h -2.703539491043720 0.310345175196828 -2.076240000965316
o 1.938753207523304 0.025575628780064 1.401609223144565
h 2.172466636375397 -0.026360798742616 0.458369468136210
h 1.398824013277417 -0.767044143412720 1.564464735376514

H2O8s4.wfx

