%nprocs=4
%mem=2GB
#p pbepbe aug-cc-pvtz output=wfx scf=(conver=6) int=(grid=ultrafine)

title

0 1
Al 0.0000000000 0.0000000000 0.0000000000
F 0.0000000000 1.6317660000 0.0000000000
F 1.4131500000 -0.8158830000 0.0000000000
F -1.4131500000 -0.8158830000 0.0000000000

alf3.wfx

