%nprocs=4
%mem=2GB
#p pbepbe aug-cc-pvtz output=wfx scf=(conver=6) int=(grid=ultrafine)

title

0 1
B 0.0000000000 0.0000000000 0.0000000000
H 0.0000000000 1.1899000000 0.0000000000
H 1.0304840000 -0.5949500000 0.0000000000
H -1.0304840000 -0.5949500000 0.0000000000

bh3.wfx

