%nprocs=4
%mem=2GB
#p pbepbe aug-cc-pvtz output=wfx scf=(conver=6) int=(grid=ultrafine)

title

0 3
B 0.0000000000 0.0000000000 -0.7759500000
N 0.0000000000 0.0000000000 0.5542500000

bn3pi.wfx

