%nprocs=4
%mem=2GB
#p pbepbe aug-cc-pvtz output=wfx scf=(conver=6) int=(grid=ultrafine)

title

0 1
O 1.0831920000 0.0711290000 0.0000000000
N 0.0000000000 0.5494390000 0.0000000000
O -1.0144430000 -0.3953200000 0.0000000000
H -0.5499960000 -1.2525490000 0.0000000000

c-hono.wfx

