%nprocs=4
%mem=2GB
#p pbepbe aug-cc-pvtz output=wfx scf=(conver=6) int=(grid=ultrafine)

title

0 1
H 0.0000000000 1.0081400000 0.8403150000
N 0.0000000000 0.6240280000 -0.1200450000
N 0.0000000000 -0.6240280000 -0.1200450000
H 0.0000000000 -1.0081400000 0.8403150000

c-n2h2.wfx

