%nprocs=4
%mem=2GB
#p pbepbe aug-cc-pvtz output=wfx scf=(conver=6) int=(grid=ultrafine)

title

0 1
C 0.0000000000 0.0000000000 0.1746180000
H 0.0000000000 0.8609440000 -0.5238530000
H 0.0000000000 -0.8609440000 -0.5238530000

ch2-sing.wfx

