%nprocs=4
%mem=2GB
#p pbepbe aug-cc-pvtz output=wfx scf=(conver=6) int=(grid=ultrafine)

title

0 1
C 0.0000000000 0.0000000000 0.8220020000
C 0.0000000000 0.0000000000 -0.4807680000
H 0.0000000000 0.9403910000 -1.0237030000
H 0.0000000000 -0.9403910000 -1.0237030000

ch2c.wfx

