%nprocs=4
%mem=2GB
#p pbepbe aug-cc-pvtz output=wfx scf=(conver=6) int=(grid=ultrafine)

title

0 2
C 0.0000000000 0.0000000000 0.0000000000
H 0.0000000000 1.0777000000 0.0000000000
H 0.9333160000 -0.5388500000 0.0000000000
H -0.9333160000 -0.5388500000 0.0000000000

ch3.wfx

