%nprocs=4
%mem=2GB
#p pbepbe aug-cc-pvtz output=wfx scf=(conver=6) int=(grid=ultrafine)

title

0 1
Cl 0.0000000000 0.0000000000 0.9982880000
Cl 0.0000000000 0.0000000000 -0.9982880000

cl2.wfx

