%nprocs=4
%mem=2GB
#p pbepbe aug-cc-pvtz output=wfx scf=(conver=6) int=(grid=ultrafine)

title

0 1
O 0.0000000000 0.0000000000 0.7800750000
Cl 0.0000000000 1.4011720000 -0.1835470000
Cl 0.0000000000 -1.4011720000 -0.1835470000

cl2o.wfx

