%nprocs=4
%mem=2GB
#p pbepbe aug-cc-pvtz output=wfx scf=(conver=6) int=(grid=ultrafine)

title

0 1
Cl 0.0000000000 0.0000000000 0.9799350000
C 0.0000000000 0.0000000000 -0.6557710000
N 0.0000000000 0.0000000000 -1.8177530000

clcn.wfx

