%nprocs=4
%mem=2GB
#p pbepbe aug-cc-pvtz output=wfx scf=(conver=6) int=(grid=ultrafine)

title

0 1
O 0.0000000000 0.0000000000 1.3122070000
C 0.0000000000 0.0000000000 0.1407700000
F 0.0000000000 1.0586630000 -0.6301260000
F 0.0000000000 -1.0586630000 -0.6301260000

f2co.wfx

