%nprocs=4
%mem=2GB
#p pbepbe aug-cc-pvtz output=wfx scf=(conver=6) int=(grid=ultrafine)

title

0 1
F 0.0000000000 0.0000000000 1.8804630000
C 0.0000000000 0.0000000000 0.5945800000
C 0.0000000000 0.0000000000 -0.5945800000
F 0.0000000000 0.0000000000 -1.8804630000

fccf.wfx

