%nprocs=4
%mem=2GB
#p pbepbe aug-cc-pvtz output=wfx scf=(conver=6) int=(grid=ultrafine)

title

0 1
F 0.5557100000 1.3844340000 -0.4939860000
O 0.5557100000 0.2681810000 0.5557340000
O -0.5557100000 -0.2681810000 0.5557340000
F -0.5557100000 -1.3844340000 -0.4939860000

foof.wfx

