%nprocs=4
%mem=2GB
#p pbepbe aug-cc-pvtz output=wfx scf=(conver=6) int=(grid=ultrafine)

title

0 1
O 0.0000000000 0.0000000000 0.6758600000
C 0.0000000000 0.0000000000 -0.5307400000
H 0.0000000000 0.9369540000 -1.1112230000
H 0.0000000000 -0.9369540000 -1.1112230000

h2co.wfx

