%nprocs=4
%mem=2GB
#p pbepbe aug-cc-pvtz output=wfx scf=(conver=6) int=(grid=ultrafine)

title

0 1
S 0.0000000000 0.0000000000 0.1029430000
H 0.0000000000 0.9649580000 -0.8235420000
H 0.0000000000 -0.9649580000 -0.8235420000

h2s.wfx

