%nprocs=4
%mem=2GB
#p pbepbe aug-cc-pvtz output=wfx scf=(conver=6) int=(grid=ultrafine)

title

0 2
C 0.0003910000 0.6503130000 0.0000000000
H 0.8978270000 1.2743110000 0.0000000000
N 0.0003910000 -0.5882780000 0.0000000000
H -0.9029080000 -1.0582440000 0.0000000000

hcnh.wfx

