%nprocs=4
%mem=2GB
#p pbepbe aug-cc-pvtz output=wfx scf=(conver=6) int=(grid=ultrafine)

title

0 2
O 0.0615520000 -0.5921860000 0.0000000000
C 0.0615520000 0.5863010000 0.0000000000
H -0.8617270000 1.2196850000 0.0000000000

hco.wfx

