%nprocs=4
%mem=2GB
#p pbepbe aug-cc-pvtz output=wfx scf=(conver=6) int=(grid=ultrafine)

title

0 1
H 1.0789720000 -1.3818100000 0.0000000000
N 0.0937700000 -1.1298800000 0.0000000000
N 0.0000000000 0.1110980000 0.0000000000
N -0.2479090000 1.2161830000 0.0000000000

hnnn.wfx

