%nprocs=4
%mem=2GB
#p pbepbe aug-cc-pvtz output=wfx scf=(conver=6) int=(grid=ultrafine)

title

0 1
H -0.9043900000 0.8409380000 0.0000000000
O 0.0531990000 0.7101090000 0.0000000000
F 0.0531990000 -0.7246450000 0.0000000000

hof.wfx

