%nprocs=4
%mem=2GB
#p pbepbe aug-cc-pvtz output=wfx scf=(conver=6) int=(grid=ultrafine)

title

0 3
N 0.0000000000 0.0000000000 0.1296490000
H 0.0000000000 0.0000000000 -0.9075430000

nh.wfx

