%nprocs=4
%mem=2GB
#p pbepbe aug-cc-pvtz output=wfx scf=(conver=6) int=(grid=ultrafine)

title

0 2
N 0.0000000000 0.0000000000 0.1422350000
H 0.0000000000 0.8006460000 -0.4978210000
H 0.0000000000 -0.8006460000 -0.4978210000

nh2.wfx

