%nprocs=4
%mem=2GB
#p pbepbe aug-cc-pvtz output=wfx scf=(conver=6) int=(grid=ultrafine)

title

0 2
N 0.0000000000 0.0000000000 0.3239670000
O 0.0000000000 1.1012340000 -0.1417350000
O 0.0000000000 -1.1012340000 -0.1417350000

no2.wfx

