%nprocs=4
%mem=2GB
#p pbepbe aug-cc-pvtz output=wfx scf=(conver=6) int=(grid=ultrafine)

title

0 1
O 0.0000000000 0.0000000000 -1.6851710000
C 0.0000000000 0.0000000000 -0.5267390000
S 0.0000000000 0.0000000000 1.0401120000

ocs.wfx

