%nprocs=4
%mem=2GB
#p pbepbe aug-cc-pvtz output=wfx scf=(conver=6) int=(grid=ultrafine)

title

0 2
O 0.0000000000 0.0000000000 0.1078510000
H 0.0000000000 0.0000000000 -0.8628090000

oh.wfx

