%nprocs=4
%mem=2GB
#p pbepbe aug-cc-pvtz output=wfx scf=(conver=6) int=(grid=ultrafine)

title

0 1
P 0.7773750000 0.7773750000 0.7773750000
P -0.7773750000 -0.7773750000 0.7773750000
P -0.7773750000 0.7773750000 -0.7773750000
P 0.7773750000 -0.7773750000 -0.7773750000

p4.wfx

