%nprocs=4
%mem=2GB
#p pbepbe aug-cc-pvtz output=wfx scf=(conver=6) int=(grid=ultrafine)

title

0 1
P 0.0000000000 0.0000000000 0.1274080000
H 0.0000000000 1.1903430000 -0.6370410000
H -1.0308670000 -0.5951720000 -0.6370410000
H 1.0308670000 -0.5951720000 -0.6370410000

ph3.wfx

