%nprocs=4
%mem=2GB
#p pbepbe aug-cc-pvtz output=wfx scf=(conver=6) int=(grid=ultrafine)

title

0 1
S 0.0000000000 1.5523430000 0.9219610000
S 0.0000000000 1.0685080000 -0.9219610000
S 0.0000000000 -1.0685080000 -0.9219610000
S 0.0000000000 -1.5523430000 0.9219610000

s4-c2v.wfx

