%nprocs=4
%mem=2GB
#p pbepbe aug-cc-pvtz output=wfx scf=(conver=6) int=(grid=ultrafine)

title

0 2
O 1.1743930000 0.1943130000 0.0000000000
O 0.0000000000 0.5531800000 0.0000000000
O -0.9504710000 -0.7177150000 0.0000000000
H -1.7913740000 -0.2382290000 0.0000000000

t-hooo.wfx

