%nprocs=4
%mem=2GB
#p pbepbe aug-cc-pvtz output=wfx scf=(conver=6) int=(grid=ultrafine)

title

0 2
N 0.0000000000 0.0000000000 -0.6148270000
O 0.0000000000 0.0000000000 0.5379730000

no.wfx

