%nprocs=4
%mem=2GB
#p pbepbe aug-cc-pvtz output=wfx scf=(conver=6) int=(grid=ultrafine)

title

0 2
C 0.0000000000 0.0000000000 0.1600380000
H 0.0000000000 0.0000000000 -0.9602300000

ch.wfx

