%nprocs=4
%mem=2GB
#p pbepbe aug-cc-pvtz output=wfx scf=(conver=6) int=(grid=ultrafine)

title

0 1
N 0.0000000000 0.0000000000 1.8551990000
C 0.0000000000 0.0000000000 0.6939220000
C 0.0000000000 0.0000000000 -0.6939220000
N 0.0000000000 0.0000000000 -1.8551990000

nccn.wfx

