%nprocs=4
%mem=2GB
#p pbepbe aug-cc-pvtz output=wfx scf=(conver=6) int=(grid=ultrafine)

title

0 1
C 0.0000000000 0.0000000000 -1.2928770000
C 0.0000000000 0.0000000000 -0.0933790000
H 0.0000000000 0.0000000000 -2.3540220000
F 0.0000000000 0.0000000000 1.1857290000

hccf.wfx

