%nprocs=4
%mem=2GB
#p pbepbe aug-cc-pvtz output=wfx scf=(conver=6) int=(grid=ultrafine)

title

0 1
Si 0.0000000000 0.0000000000 0.5516510000
O 0.0000000000 0.0000000000 -0.9653900000

sio.wfx

