%nprocs=4
%mem=2GB
#p pbepbe aug-cc-pvtz output=wfx scf=(conver=6) int=(grid=ultrafine)

title

0 1
F 0.7609030000 0.7609030000 0.7609030000
C 0.0000000000 0.0000000000 0.0000000000
F -0.7609030000 -0.7609030000 0.7609030000
F -0.7609030000 0.7609030000 -0.7609030000
F 0.7609030000 -0.7609030000 -0.7609030000

cf4.wfx

