%nprocs=4
%mem=2GB
#p pbepbe aug-cc-pvtz output=wfx scf=(conver=6) int=(grid=ultrafine)

title

0 1
Al 0.0000000000 0.0000000000 0.0000000000
H 0.0000000000 1.5805000000 0.0000000000
H 1.3687530000 -0.7902500000 0.0000000000
H -1.3687530000 -0.7902500000 0.0000000000

alh3.wfx

