%nprocs=4
%mem=2GB
#p pbepbe aug-cc-pvtz output=wfx scf=(conver=6) int=(grid=ultrafine)

title

0 1
H 0.7882780000 0.8919360000 0.4686130000
O 0.0000000000 0.7262410000 -0.0585770000
O 0.0000000000 -0.7262410000 -0.0585770000
H -0.7882780000 -0.8919360000 0.4686130000

hooh.wfx

