%nprocs=4
%mem=2GB
#p pbepbe aug-cc-pvtz output=wfx scf=(conver=6) int=(grid=ultrafine)

title

0 1
Al 0.0000000000 0.0000000000 0.6803390000
F 0.0000000000 0.0000000000 -0.9827120000

alf.wfx

