%nprocs=4
%mem=2GB
#p pbepbe aug-cc-pvtz output=wfx scf=(conver=6) int=(grid=ultrafine)

title

0 2
C 0.0000000000 0.0000000000 -0.7648520000
F 0.0000000000 0.0000000000 0.5099010000

cf.wfx

