%nprocs=4
%mem=2GB
#p pbepbe aug-cc-pvtz output=wfx scf=(conver=6) int=(grid=ultrafine)

title

0 2
C 0.0000000000 0.0000000000 -0.5075130000
H 0.0000000000 0.9367310000 -1.0739240000
H 0.0000000000 -0.9367310000 -1.0739240000
N 0.0000000000 0.0000000000 0.7418470000

h2cn.wfx

