%nprocs=4
%mem=2GB
#p pbepbe aug-cc-pvtz output=wfx scf=(conver=6) int=(grid=ultrafine)

title

0 1
C 0.0000000000 0.0000000000 0.8462820000
Cl 0.0000000000 1.4004070000 -0.1493440000
Cl 0.0000000000 -1.4004070000 -0.1493440000

ccl2.wfx

