%nprocs=4
%mem=2GB
#p pbepbe aug-cc-pvtz output=wfx scf=(conver=6) int=(grid=ultrafine)

title

0 1
N -0.0435830000 1.1261320000 0.0000000000
H 0.5229940000 1.3657490000 0.8086240000
H 0.5229940000 1.3657490000 -0.8086240000
Cl -0.0435830000 -0.6243780000 0.0000000000

nh2cl.wfx

