%nprocs=4
%mem=2GB
#p pbepbe aug-cc-pvtz output=wfx scf=(conver=6) int=(grid=ultrafine)

title

0 2
C 0.0000000000 0.0000000000 0.7341340000
C 0.0000000000 0.0000000000 -0.4771820000
H 0.0000000000 0.0000000000 -1.5417100000

cch.wfx

