%nprocs=4
%mem=2GB
#p pbepbe aug-cc-pvtz output=wfx scf=(conver=6) int=(grid=ultrafine)

title

0 2
O 0.0553290000 0.7182930000 0.0000000000
O 0.0553290000 -0.6119830000 0.0000000000
H -0.8852590000 -0.8504750000 0.0000000000

hoo.wfx

