%nprocs=4
%mem=2GB
#p pbepbe aug-cc-pvtz output=wfx scf=(conver=6) int=(grid=ultrafine)

title

0 2
F 0.0000000000 0.0000000000 -0.9786180000
Si 0.0000000000 0.0000000000 0.6291120000

sif.wfx

