%nprocs=4
%mem=2GB
#p pbepbe aug-cc-pvtz output=wfx scf=(conver=6) int=(grid=ultrafine)

title

0 1
S 0.0000000000 0.0000000000 0.6653120000
S 0.0000000000 1.6400640000 -0.3326560000
S 0.0000000000 -1.6400640000 -0.3326560000

s3.wfx

