%nprocs=4
%mem=2GB
#p pbepbe aug-cc-pvtz output=wfx scf=(conver=6) int=(grid=ultrafine)

title

0 1
Al 0.0000000000 0.0000000000 0.0000000000
Cl 0.0000000000 2.0709710000 0.0000000000
Cl 1.7935130000 -1.0354850000 0.0000000000
Cl -1.7935130000 -1.0354850000 0.0000000000

alcl3.wfx

