%nprocs=4
%mem=2GB
#p pbepbe aug-cc-pvtz output=wfx scf=(conver=6) int=(grid=ultrafine)

title

0 1
B -0.8788940000 0.0000000000 0.0000000000
B 0.8788940000 0.0000000000 0.0000000000
H 0.0000000000 0.0000000000 0.9752210000
H 0.0000000000 0.0000000000 -0.9752210000
H -1.4523450000 1.0396590000 0.0000000000
H -1.4523450000 -1.0396590000 0.0000000000
H 1.4523450000 -1.0396590000 0.0000000000
H 1.4523450000 1.0396590000 0.0000000000

b2h6.wfx

