%nprocs=4
%mem=2GB
#p pbepbe aug-cc-pvtz output=wfx scf=(conver=6) int=(grid=ultrafine)

title

0 1
B 0.0000000000 0.0000000000 0.0000000000
F 0.0000000000 1.3103000000 0.0000000000
F 1.1347530000 -0.6551500000 0.0000000000
F -1.1347530000 -0.6551500000 0.0000000000

bf3.wfx

