%nprocs=4
%mem=2GB
#p pbepbe aug-cc-pvtz output=wfx scf=(conver=6) int=(grid=ultrafine)

title

0 1
B 0.0000000000 0.0000000000 0.2055430000
H 0.0000000000 0.0000000000 -1.0277130000

bh.wfx

