%nprocs=4
%mem=2GB
#p pbepbe aug-cc-pvtz output=wfx scf=(conver=6) int=(grid=ultrafine)

title

0 1
Be 0.0000000000 0.0000000000 1.2506590000
Be 0.0000000000 0.0000000000 -1.2506590000

be2.wfx

