%nprocs=4
%mem=2GB
#p pbepbe aug-cc-pvtz output=wfx scf=(conver=6) int=(grid=ultrafine)

title

0 2
O 1.1439430000 0.0753540000 0.0000000000
O 0.0000000000 0.5769450000 0.0000000000
O -1.0821140000 -0.4938720000 0.0000000000
H -0.4946340000 -1.2674190000 0.0000000000

c-hooo.wfx

