%nprocs=4
%mem=2GB
#p pbepbe aug-cc-pvtz output=wfx scf=(conver=6) int=(grid=ultrafine)

title

0 1
C 0.0514320000 0.7053040000 0.0000000000
N 0.0514320000 -0.7599060000 0.0000000000
H -0.9420950000 1.1673190000 0.0000000000
H 0.5903100000 1.0616770000 0.8776400000
H 0.5903100000 1.0616770000 -0.8776400000
H -0.4535720000 -1.1015760000 -0.8076070000
H -0.4535720000 -1.1015760000 0.8076070000

ch3nh2.wfx

