%nprocs=4
%mem=2GB
#p pbepbe aug-cc-pvtz output=wfx scf=(conver=6) int=(grid=ultrafine)

title

0 1
C 0.0000000000 0.0000000000 0.4915170000
H 0.8899270000 0.0000000000 1.1207900000
H -0.8899270000 0.0000000000 1.1207900000
F 0.0000000000 1.1029280000 -0.2883710000
F 0.0000000000 -1.1029280000 -0.2883710000

ch2f2.wfx

