%nprocs=4
%mem=2GB
#p pbepbe aug-cc-pvtz output=wfx scf=(conver=6) int=(grid=ultrafine)

title

0 3
C 0.0000000000 0.0000000000 0.1060110000
H 0.0000000000 0.9902910000 -0.3180320000
H 0.0000000000 -0.9902910000 -0.3180320000

ch2-trip.wfx

