%nprocs=4
%mem=2GB
#p pbepbe aug-cc-pvtz output=wfx scf=(conver=6) int=(grid=ultrafine)

title

0 1
C 0.0000000000 0.0000000000 0.5932620000
F 0.0000000000 1.0279900000 -0.1977540000
F 0.0000000000 -1.0279900000 -0.1977540000

cf2.wfx

