%nprocs=4
%mem=2GB
#p pbepbe aug-cc-pvtz output=wfx scf=(conver=6) int=(grid=ultrafine)

title

0 1
F 0.0000000000 0.0000000000 0.7064500000
F 0.0000000000 0.0000000000 -0.7064500000

f2.wfx

