%nprocs=4
%mem=2GB
#p pbepbe aug-cc-pvtz output=wfx scf=(conver=6) int=(grid=ultrafine)

title

0 1
F 0.0000000000 1.1007710000 -0.2689410000
O 0.0000000000 0.0000000000 0.6051180000
F 0.0000000000 -1.1007710000 -0.2689410000

f2o.wfx

