%nprocs=4
%mem=2GB
#p pbepbe aug-cc-pvtz output=wfx scf=(conver=6) int=(grid=ultrafine)

title

0 1
O 0.0000000000 0.0000000000 0.1177900000
H 0.0000000000 0.7554530000 -0.4711610000
H 0.0000000000 -0.7554530000 -0.4711610000

h2o.wfx

