%nprocs=4
%mem=2GB
#p pbepbe aug-cc-pvtz output=wfx scf=(conver=6) int=(grid=ultrafine)

title

0 1
F 0.0000000000 0.0000000000 0.0915770000
H 0.0000000000 0.0000000000 -0.8241920000

hf.wfx

