%nprocs=4
%mem=2GB
#p pbepbe aug-cc-pvtz output=wfx scf=(conver=6) int=(grid=ultrafine)

title

0 2
H 0.8768190000 -0.9878440000 0.0000000000
N -0.0626300000 -0.5190170000 0.0000000000
N -0.0626300000 0.6601380000 0.0000000000

n2h.wfx

