%nprocs=4
%mem=2GB
#p pbepbe aug-cc-pvtz output=wfx scf=(conver=6) int=(grid=ultrafine)

title

0 3
O 0.0000000000 0.0000000000 0.6039000000
O 0.0000000000 0.0000000000 -0.6039000000

o2.wfx

