%nprocs=4
%mem=2GB
#p pbepbe aug-cc-pvtz output=wfx scf=(conver=6) int=(grid=ultrafine)

title

0 2
Cl 0.0000000000 0.0000000000 0.3705400000
O 0.0000000000 1.2590820000 -0.3936990000
O 0.0000000000 -1.2590820000 -0.3936990000

oclo.wfx

