%nprocs=4
%mem=2GB
#p pbepbe aug-cc-pvtz output=wfx scf=(conver=6) int=(grid=ultrafine)

title

0 2
S 0.0401280000 -0.9502430000 0.0000000000
H -1.2840840000 -1.2143980000 0.0000000000
S 0.0401280000 1.0261430000 0.0000000000

ssh.wfx

