%nprocs=4
%mem=2GB
#p pbepbe aug-cc-pvtz output=wfx scf=(conver=6) int=(grid=ultrafine)

title

0 1
H -0.9893660000 0.9094800000 0.0000000000
N 0.0000000000 0.6246900000 0.0000000000
N 0.0000000000 -0.6246900000 0.0000000000
H 0.9893660000 -0.9094800000 0.0000000000

t-n2h2.wfx

