%nprocs=4
%mem=2GB
#p pbepbe aug-cc-pvtz output=wfx scf=(conver=6) int=(grid=ultrafine)

title

0 1
O -1.1123650000 0.1523660000 0.0000000000
N 0.0000000000 0.5186880000 0.0000000000
O 0.8931510000 -0.5874150000 0.0000000000
H 1.7537120000 -0.1504290000 0.0000000000

t-hono.wfx

