&control
 title='crystal',
 prefix='crystal',
 pseudo_dir='.',
 calculation='vc-relax',
/
&system
 ibrav=0,
 celldm(1)=1.0,
 nat=   112,
 ntyp=  4,
 ecutwfc=60.0,
 ecutrho=600.0,
 xdm=.true.,
 xdm_a1=0.4073,
 xdm_a2=2.4150,
/
&electrons
 conv_thr = 1d-8,
/
&ions
/
&cell
/
ATOMIC_SPECIES
h      1.007940 h.UPF
c     12.010700 c.UPF
n     14.006700 n.UPF
o     15.999400 o.UPF

ATOMIC_POSITIONS crystal
n     0.96655199     0.04040370     0.19241241
n     0.03344800     0.54040371     0.80758756
c     0.07040143     0.01212697     0.27613939
c     0.92959855     0.51212697     0.72386058
o     0.06500705     0.00678111     0.35598086
o     0.93499293     0.50678112     0.64401911
c     0.18135500     0.99168019     0.24612791
c     0.81864499     0.49168020     0.75387206
c     0.30615405     0.95487715     0.29972157
c     0.69384593     0.45487716     0.70027840
h     0.33863909     0.93897614     0.37629226
h     0.66136090     0.43897614     0.62370771
c     0.39106622     0.93611797     0.25137003
c     0.60893377     0.43611798     0.74862994
h     0.48908563     0.90074008     0.29089358
h     0.51091435     0.40074008     0.70910639
c     0.35100057     0.95908082     0.15298004
c     0.64899941     0.45908083     0.84701993
h     0.42035960     0.94516693     0.11844305
h     0.57964039     0.44516693     0.88155692
c     0.22483116     0.99813275     0.09911886
c     0.77516883     0.49813275     0.90088111
h     0.19369650     0.01807948     0.02264060
h     0.80630349     0.51807948     0.97735937
c     0.14109724     0.01141182     0.14761049
c     0.85890275     0.51141183     0.85238948
c     0.00284842     0.04183805     0.11203323
c     0.99715157     0.54183806     0.88796674
o     0.92980100     0.06307403     0.03078964
o     0.07019899     0.56307404     0.96921033
c     0.83621458     0.04833138     0.18787510
c     0.16378540     0.54833139     0.81212487
h     0.84067084     0.02697840     0.26151628
h     0.15932914     0.52697840     0.73848369
c     0.76718123     0.86680364     0.13349028
c     0.23281876     0.36680365     0.86650969
o     0.81926512     0.71144200     0.12969474
o     0.18073487     0.21144200     0.87030523
o     0.64235517     0.89755714     0.09335926
o     0.35764481     0.39755715     0.90664071
c     0.57002143     0.72810179     0.04437629
c     0.42997855     0.22810180     0.95562368
h     0.47371373     0.78076590     0.01064369
h     0.52628625     0.28076591     0.98935628
h     0.57361973     0.61132492     0.09533150
h     0.42638025     0.11132493     0.90466847
h     0.60683306     0.67708920     0.99030144
h     0.39316692     0.17708921     0.00969853
c     0.77332246     0.24556103     0.15162224
c     0.22667752     0.74556104     0.84837773
h     0.67954460     0.25198016     0.15691615
h     0.32045539     0.75198017     0.84308382
h     0.76564703     0.26935060     0.07797164
h     0.23435296     0.76935061     0.92202833
h     0.82939858     0.36539174     0.19426286
h     0.17060141     0.86539174     0.80573711
n     0.52814622     0.39085041     0.36482728
n     0.47185377     0.89085042     0.63517269
c     0.44689994     0.40621644     0.41704350
c     0.55310004     0.90621645     0.58295647
o     0.47940771     0.38929836     0.50322714
o     0.52059227     0.88929837     0.49677283
c     0.32000810     0.44431706     0.34673920
c     0.67999189     0.94431707     0.65326077
c     0.20532530     0.46904295     0.35915794
c     0.79467468     0.96904296     0.64084203
h     0.19847987     0.45912026     0.42934515
h     0.80152012     0.95912027     0.57065482
c     0.09982176     0.50499018     0.27801073
c     0.90017822     0.00499018     0.72198924
h     0.00797402     0.52738903     0.28420674
h     0.99202596     0.02738904     0.71579323
c     0.10998441     0.51442194     0.18818366
c     0.89001558     0.01442195     0.81181631
h     0.02672977     0.54484300     0.12659376
h     0.97327022     0.04484301     0.87340621
c     0.22615229     0.48673674     0.17627064
c     0.77384769     0.98673675     0.82372933
h     0.23318091     0.49368791     0.10623861
h     0.76681907     0.99368791     0.89376136
c     0.32999915     0.45232388     0.25683718
c     0.67000083     0.95232389     0.74316279
c     0.46356028     0.41809353     0.26715137
c     0.53643971     0.91809354     0.73284860
o     0.51178810     0.41196941     0.20596743
o     0.48821189     0.91196941     0.79403254
c     0.66282982     0.35981642     0.40836538
c     0.33717016     0.85981643     0.59163459
h     0.68183916     0.35971495     0.48527929
h     0.31816083     0.85971496     0.51472068
c     0.73364669     0.53977254     0.39194923
c     0.26635329     0.03977255     0.60805074
o     0.68579830     0.69744747     0.36090446
o     0.31420169     0.19744747     0.63909551
o     0.85861375     0.50411837     0.42280624
o     0.14138624     0.00411838     0.57719373
c     0.93618407     0.67684052     0.43002046
c     0.06381591     0.17684053     0.56997951
h     0.03285497     0.62380237     0.45099065
h     0.96714501     0.12380238     0.54900932
h     0.92684737     0.77525639     0.48469617
h     0.07315261     0.27525640     0.51530380
h     0.91009460     0.75432218     0.36242723
h     0.08990538     0.25432219     0.63757274
c     0.70419790     0.16166099     0.38090831
c     0.29580209     0.66166100     0.61909166
h     0.80685049     0.14883931     0.40981487
h     0.19314949     0.64883932     0.59018510
h     0.67287254     0.14650330     0.30383251
h     0.32712745     0.64650331     0.69616746
h     0.66279789     0.04219923     0.40896468
h     0.33720209     0.54219924     0.59103529

K_POINTS automatic
2 2 2 1 1 1

CELL_PARAMETERS cubic
   21.400747000000     0.000000000000     0.266675000000
    0.000000000000    12.836501000000     0.000000000000
  -10.249545000000     0.000000000000    26.540938000000
