&control
 title='crystal',
 prefix='crystal',
 pseudo_dir='.',
 calculation='vc-relax',
/
&system
 ibrav=0,
 celldm(1)=1.0,
 nat=   124,
 ntyp=  4,
 ecutwfc=60.0,
 ecutrho=600.0,
 xdm=.true.,
 xdm_a1=0.4073,
 xdm_a2=2.4150,
/
&electrons
 conv_thr = 1d-8,
/
&ions
/
&cell
/
ATOMIC_SPECIES
h      1.007940 h.UPF
c     12.010700 c.UPF
o     15.999400 o.UPF
p     30.973761 p.UPF

ATOMIC_POSITIONS crystal
p     0.20215849     0.67676788     0.29628223
p     0.79784154     0.32323210     0.70371779
p     0.79784391     0.17682218     0.20371810
p     0.20215613     0.82317780     0.79628191
h     0.26903292     0.52294452     0.32867142
h     0.73096712     0.47705547     0.67132860
h     0.73096375     0.02300187     0.17133091
h     0.26903629     0.97699811     0.82866910
o     0.31075226     0.98722139     0.34008140
o     0.68924778     0.01277859     0.65991862
o     0.68924442     0.48728185     0.15992030
o     0.31075562     0.51271813     0.84007972
o     0.25103006     0.97031371     0.47879947
o     0.74896997     0.02968627     0.52120055
o     0.74896785     0.47039542     0.02120173
o     0.25103219     0.52960456     0.97879828
o     0.15329119     0.69128185     0.46307930
o     0.84670884     0.30871813     0.53692072
o     0.84670735     0.19136047     0.03692094
o     0.15329269     0.80863951     0.96307908
c     0.37816195     0.81754561     0.33931520
c     0.62183808     0.18245437     0.66068481
c     0.62183841     0.31760421     0.16068544
c     0.37816162     0.68239577     0.83931457
c     0.18573507     0.01516264     0.39751126
c     0.81426496     0.98483734     0.60248876
c     0.81426151     0.51523413     0.10249103
c     0.18573853     0.48476585     0.89750898
c     0.02740253     0.91086491     0.37653721
c     0.97259751     0.08913507     0.62346281
c     0.97259330     0.41093487     0.12346276
c     0.02740673     0.58906511     0.87653725
h     0.93492338     0.94348803     0.42014310
h     0.06507665     0.05651195     0.57985692
h     0.06507041     0.44355851     0.07985516
h     0.93492963     0.55644147     0.92014486
h     0.97419309     0.94337024     0.31485151
h     0.02580695     0.05662974     0.68514850
h     0.02580517     0.44343017     0.18514821
h     0.97419487     0.55656981     0.81485181
c     0.06777995     0.72357330     0.38317363
c     0.93222008     0.27642668     0.61682639
c     0.93221907     0.22364274     0.11682575
c     0.06778097     0.77635724     0.88317426
c     0.51986743     0.82274844     0.28314728
c     0.48013261     0.17725154     0.71685273
c     0.48013326     0.32279391     0.21685353
c     0.51986678     0.67720607     0.78314648
h     0.62239980     0.90187913     0.30976065
h     0.37760024     0.09812085     0.69023936
h     0.37759347     0.40191870     0.19024104
h     0.62240656     0.59808128     0.80975898
h     0.47496973     0.87435601     0.22354606
h     0.52503031     0.12564397     0.77645395
h     0.52502852     0.37439238     0.27645570
h     0.47497151     0.62560760     0.72354431
h     0.56899057     0.69678640     0.27286321
h     0.43100947     0.30321358     0.72713681
h     0.43102061     0.19682538     0.22713528
h     0.56897943     0.80317460     0.77286474
c     0.15217866     0.20149139     0.39714633
c     0.84782138     0.79850859     0.60285369
c     0.84782166     0.70156061     0.10285482
c     0.15217837     0.29843937     0.89714519
h     0.26834788     0.27035194     0.41360972
h     0.73165216     0.72964804     0.58639029
h     0.73165542     0.77042610     0.08638935
h     0.26834462     0.22957388     0.91361067
h     0.06010033     0.23199872     0.44098537
h     0.93989970     0.76800126     0.55901464
h     0.93990293     0.73206608     0.05901591
h     0.06009711     0.26793390     0.94098411
h     0.10189636     0.23979698     0.33594091
h     0.89810367     0.76020300     0.66405910
h     0.89810312     0.73986111     0.16406010
h     0.10189691     0.26013887     0.83593992
c     0.91216387     0.61399564     0.37792994
c     0.08783616     0.38600434     0.62207007
c     0.08784104     0.11407297     0.12206874
c     0.91215899     0.88592701     0.87793128
h     0.82783842     0.65289397     0.42420523
h     0.17216162     0.34710601     0.57579478
h     0.17216709     0.15298311     0.07579511
h     0.82783294     0.84701687     0.92420491
h     0.94560492     0.48251052     0.38919837
h     0.05439512     0.51748946     0.61080165
h     0.05440940     0.98258624     0.11079966
h     0.94559063     0.01741374     0.88920035
h     0.84511655     0.62396927     0.31725015
h     0.15488349     0.37603071     0.68274987
h     0.15488457     0.12404015     0.18274936
h     0.84511547     0.87595983     0.81725066
c     0.43638132     0.76670925     0.42669888
c     0.56361872     0.23329073     0.57330113
c     0.56361964     0.26678170     0.07330139
c     0.43638040     0.73321828     0.92669863
h     0.47510198     0.63467725     0.42875232
h     0.52489806     0.36532273     0.57124770
h     0.52490364     0.13474850     0.07124735
h     0.47509640     0.86525148     0.92875266
h     0.54421534     0.84405114     0.44888868
h     0.45578470     0.15594884     0.55111134
h     0.45578096     0.34411780     0.05111162
h     0.54421908     0.65588218     0.94888840
c     0.29643796     0.79511754     0.48396662
c     0.70356208     0.20488244     0.51603339
c     0.70356067     0.29520182     0.01603358
c     0.29643936     0.70479816     0.98396644
c     0.35070024     0.75932158     0.57247441
c     0.64929980     0.24067840     0.42752560
c     0.64930031     0.25940564     0.92752642
c     0.35069972     0.74059434     0.07247360
h     0.24786239     0.78455098     0.61119568
h     0.75213765     0.21544900     0.38880433
h     0.75213696     0.28463667     0.88880432
h     0.24786307     0.71536331     0.11119570
h     0.45815758     0.83780698     0.59291211
h     0.54184246     0.16219300     0.40708791
h     0.54183800     0.33788182     0.90708514
h     0.45816204     0.66211816     0.09291487
h     0.38605623     0.62695527     0.57922164
h     0.61394381     0.37304471     0.42077838
h     0.61394999     0.12703724     0.92078221
h     0.38605004     0.87296274     0.07921780

K_POINTS automatic
2 2 2 1 1 1

CELL_PARAMETERS cubic
   15.111973000000    -0.000006000000    -0.032620000000
   -0.000007000000    15.067440000000     0.000189000000
   -2.302799000000     0.000391000000    30.899995000000
