&control
 title='crystal',
 prefix='crystal',
 pseudo_dir='.',
 calculation='vc-relax',
/
&system
 ibrav=0,
 celldm(1)=1.0,
 nat=    92,
 ntyp=  4,
 ecutwfc=60.0,
 ecutrho=600.0,
 xdm=.true.,
 xdm_a1=0.4073,
 xdm_a2=2.4150,
/
&electrons
 conv_thr = 1d-8,
/
&ions
/
&cell
/
ATOMIC_SPECIES
h      1.007940 h.UPF
c     12.010700 c.UPF
n     14.006700 n.UPF
o     15.999400 o.UPF

ATOMIC_POSITIONS crystal
c     0.44820183     0.35260831     0.82961938
c     0.94820184     0.14739169     0.17038063
c     0.55179817     0.85260833     0.67038063
c     0.05179817     0.64739170     0.32961938
h     0.58977383     0.30541527     0.80860581
h     0.08977384     0.19458474     0.19139420
h     0.41022617     0.80541528     0.69139421
h     0.91022617     0.69458475     0.30860580
c     0.29850294     0.27065777     0.87036809
c     0.79850294     0.22934224     0.12963192
c     0.70149707     0.77065779     0.62963193
c     0.20149706     0.72934224     0.37036808
h     0.29531562     0.13158546     0.89469992
h     0.79531563     0.36841455     0.10530010
h     0.70468439     0.63158547     0.60530010
h     0.20468438     0.86841456     0.39469991
c     0.94438221     0.39783156     0.90734444
c     0.44438222     0.10216845     0.09265557
c     0.05561780     0.89783158     0.59265558
c     0.55561779     0.60216845     0.40734444
h     0.85679971     0.29522980     0.87500284
h     0.35679972     0.20477021     0.12499718
h     0.14320030     0.79522981     0.62499718
h     0.64320029     0.70477022     0.37500283
h     0.94397245     0.35276789     0.96798684
h     0.44397246     0.14723212     0.03201317
h     0.05602755     0.85276790     0.53201318
h     0.55602755     0.64723213     0.46798684
c     0.73422333     0.65015442     0.95951864
c     0.23422334     0.84984559     0.04048137
c     0.26577667     0.15015444     0.54048138
c     0.76577667     0.34984559     0.45951863
c     0.67415653     0.84597596     0.93714703
c     0.17415653     0.65402405     0.06285299
c     0.32584348     0.34597597     0.56285299
c     0.82584347     0.15402406     0.43714702
h     0.69730156     0.93792376     0.98677534
h     0.19730157     0.56207625     0.01322467
h     0.30269844     0.43792377     0.51322468
h     0.80269844     0.06207626     0.48677533
h     0.51635970     0.84614908     0.92385302
h     0.01635971     0.65385093     0.07614699
h     0.48364031     0.34614909     0.57614700
h     0.98364030     0.15385094     0.42385301
c     0.80245253     0.89685215     0.86750038
c     0.30245254     0.60314785     0.13249963
c     0.19754747     0.39685217     0.63249964
c     0.69754747     0.10314786     0.36750037
h     0.92486732     0.98539089     0.88541662
h     0.42486733     0.51460912     0.11458339
h     0.07513268     0.48539090     0.61458340
h     0.57513268     0.01460913     0.38541661
h     0.72025708     0.96710715     0.82188000
h     0.22025709     0.53289286     0.17812001
h     0.27974293     0.46710716     0.67812001
h     0.77974292     0.03289286     0.32188000
c     0.10133135     0.72133742     0.81361828
c     0.60133136     0.77866259     0.18638174
c     0.89866866     0.22133743     0.68638174
c     0.39866865     0.27866260     0.31361827
c     0.14631243     0.40592928     0.87416483
c     0.64631244     0.09407072     0.12583518
c     0.85368758     0.90592930     0.62583519
c     0.35368757     0.59407073     0.37416482
c     0.21368159     0.56076907     0.83521209
c     0.71368160     0.93923094     0.16478793
c     0.78631842     0.06076908     0.66478793
c     0.28631841     0.43923095     0.33521208
c     0.88649569     0.70989433     0.83859843
c     0.38649570     0.79010568     0.16140158
c     0.11350431     0.20989434     0.66140159
c     0.61350431     0.29010569     0.33859842
h     0.80673824     0.65891251     0.78730346
h     0.30673825     0.84108750     0.21269656
h     0.19326176     0.15891253     0.71269656
h     0.69326176     0.34108750     0.28730345
n     0.85503377     0.58169072     0.90355577
n     0.35503378     0.91830929     0.09644424
n     0.14496624     0.08169073     0.59644424
n     0.64496623     0.41830930     0.40355577
o     0.40130873     0.53007454     0.80809939
o     0.90130874     0.96992547     0.19190062
o     0.59869128     0.03007456     0.69190063
o     0.09869127     0.46992547     0.30809938
o     0.16233852     0.85198950     0.77350051
o     0.66233853     0.64801051     0.22649950
o     0.83766149     0.35198951     0.72649951
o     0.33766148     0.14801052     0.27350051
o     0.68347443     0.56444905     0.01844455
o     0.18347444     0.93555095     0.98155546
o     0.31652557     0.06444907     0.48155547
o     0.81652557     0.43555096     0.51844455

K_POINTS automatic
2 2 2 1 1 1

CELL_PARAMETERS cubic
   12.854700000000     0.000000000000     0.000000000000
    0.000000000000    13.571372000000     0.000000000000
    0.000000000000     0.000000000000    32.693280000000
