&control
 title='crystal',
 prefix='crystal',
 pseudo_dir='.',
 calculation='vc-relax',
/
&system
 ibrav=0,
 celldm(1)=1.0,
 nat=   104,
 ntyp=  4,
 ecutwfc=60.0,
 ecutrho=600.0,
 xdm=.true.,
 xdm_a1=0.4073,
 xdm_a2=2.4150,
/
&electrons
 conv_thr = 1d-8,
/
&ions
/
&cell
/
ATOMIC_SPECIES
h      1.007940 h.UPF
c     12.010700 c.UPF
n     14.006700 n.UPF
o     15.999400 o.UPF

ATOMIC_POSITIONS crystal
o     0.90497014     0.70359791     0.98887902
o     0.09502986     0.29640206     0.01112096
o     0.40497014     0.70359791     0.51112096
o     0.90497014     0.79640205     0.48887903
o     0.40497014     0.79640205     0.01112096
o     0.59502986     0.20359793     0.98887902
o     0.09502986     0.20359793     0.51112096
o     0.59502986     0.29640206     0.48887903
n     0.13765363     0.78772627     0.02298644
n     0.86234637     0.21227370     0.97701354
n     0.63765363     0.78772627     0.47701354
n     0.13765363     0.71227368     0.52298645
n     0.63765363     0.71227368     0.97701354
n     0.36234637     0.28772629     0.02298644
n     0.86234637     0.28772629     0.47701354
n     0.36234637     0.21227370     0.52298645
n     0.14671558     0.78781450     0.09153043
n     0.85328442     0.21218547     0.90846956
n     0.64671558     0.78781450     0.40846955
n     0.14671558     0.71218545     0.59153044
n     0.64671558     0.71218545     0.90846956
n     0.35328442     0.28781452     0.09153043
n     0.85328442     0.28781452     0.40846955
n     0.35328442     0.21218547     0.59153044
c     0.15242854     0.80375372     0.80335828
c     0.84757147     0.19624625     0.19664170
c     0.65242854     0.80375372     0.69664170
c     0.15242854     0.69624623     0.30335829
c     0.65242854     0.69624623     0.19664170
c     0.34757147     0.30375374     0.80335828
c     0.84757147     0.30375374     0.69664170
c     0.34757147     0.19624625     0.30335829
h     0.21475752     0.83250580     0.75374023
h     0.78524248     0.16749418     0.24625976
h     0.71475752     0.83250580     0.74625975
h     0.21475752     0.66749416     0.25374023
h     0.71475752     0.66749416     0.24625976
h     0.28524248     0.33250581     0.75374023
h     0.78524248     0.33250581     0.74625975
h     0.28524248     0.16749418     0.25374023
c     0.03105552     0.75084352     0.78631334
c     0.96894449     0.24915646     0.21368664
c     0.53105552     0.75084352     0.71368664
c     0.03105552     0.74915644     0.28631335
c     0.53105552     0.74915644     0.21368664
c     0.46894449     0.25084354     0.78631334
c     0.96894449     0.25084354     0.71368664
c     0.46894449     0.24915646     0.28631335
h     0.00294164     0.73819199     0.72302252
h     0.99705836     0.26180799     0.27697747
h     0.50294164     0.73819199     0.77697746
h     0.00294164     0.76180797     0.22302253
h     0.50294164     0.76180797     0.27697747
h     0.49705836     0.23819201     0.72302252
h     0.99705836     0.23819201     0.77697746
h     0.49705836     0.26180799     0.22302253
c     0.94841257     0.71457676     0.84658183
c     0.05158743     0.28542321     0.15341816
c     0.44841257     0.71457676     0.65341815
c     0.94841257     0.78542319     0.34658184
c     0.44841257     0.78542319     0.15341816
c     0.55158743     0.21457678     0.84658183
c     0.05158743     0.21457678     0.65341815
c     0.55158743     0.28542321     0.34658184
h     0.85620347     0.67306660     0.83199166
h     0.14379654     0.32693338     0.16800833
h     0.35620347     0.67306660     0.66800832
h     0.85620347     0.82693336     0.33199167
h     0.35620347     0.82693336     0.16800833
h     0.64379654     0.17306661     0.83199166
h     0.14379654     0.17306661     0.66800832
h     0.64379654     0.32693338     0.33199167
c     0.97764507     0.72896636     0.93187122
c     0.02235493     0.27103361     0.06812877
c     0.47764507     0.72896636     0.56812876
c     0.97764507     0.77103359     0.43187123
c     0.47764507     0.77103359     0.06812877
c     0.52235493     0.22896638     0.93187122
c     0.02235493     0.22896638     0.56812876
c     0.52235493     0.27103361     0.43187123
c     0.19078569     0.81673193     0.88234464
c     0.80921431     0.18326805     0.11765534
c     0.69078569     0.81673193     0.61765534
c     0.19078569     0.68326803     0.38234465
c     0.69078569     0.68326803     0.11765534
c     0.30921431     0.31673195     0.88234464
c     0.80921431     0.31673195     0.61765534
c     0.30921431     0.18326805     0.38234465
h     0.28305030     0.85072875     0.89909263
h     0.71694971     0.14927122     0.10090736
h     0.78305030     0.85072875     0.60090735
h     0.28305030     0.64927120     0.39909264
h     0.78305030     0.64927120     0.10090736
h     0.21694971     0.35072877     0.89909263
h     0.71694971     0.35072877     0.60090735
h     0.21694971     0.14927122     0.39909264
c     0.10626232     0.77975989     0.94541043
c     0.89373769     0.22024008     0.05458956
c     0.60626232     0.77975989     0.55458955
c     0.10626232     0.72024007     0.44541044
c     0.60626232     0.72024007     0.05458956
c     0.39373769     0.27975991     0.94541043
c     0.89373769     0.27975991     0.55458955
c     0.39373769     0.22024008     0.44541044

K_POINTS automatic
2 2 2 1 1 1

CELL_PARAMETERS cubic
   21.079199000000     0.000000000000     0.000000000000
    0.000000000000    11.804067000000     0.000000000000
    0.000000000000     0.000000000000    31.043598000000
