&control
 title='crystal',
 prefix='crystal',
 pseudo_dir='.',
 calculation='vc-relax',
/
&system
 ibrav=0,
 celldm(1)=1.0,
 nat=   104,
 ntyp=  4,
 ecutwfc=60.0,
 ecutrho=600.0,
 xdm=.true.,
 xdm_a1=0.4073,
 xdm_a2=2.4150,
/
&electrons
 conv_thr = 1d-8,
/
&ions
/
&cell
/
ATOMIC_SPECIES
h      1.007940 h.UPF
c     12.010700 c.UPF
n     14.006700 n.UPF
o     15.999400 o.UPF

ATOMIC_POSITIONS crystal
o     0.29315097     0.97894551     0.03124256
o     0.70684907     0.02105453     0.96875743
o     0.79313061     0.97895691     0.46876954
o     0.29315097     0.52105454     0.53124256
o     0.79313062     0.52104313     0.96876954
o     0.20686943     0.47895690     0.03123045
o     0.70684907     0.47894549     0.46875743
o     0.20686943     0.02104311     0.53123045
n     0.49044955     0.71612698     0.99488718
n     0.50955049     0.28387305     0.00511281
n     0.99042919     0.71613838     0.50512492
n     0.49044955     0.78387307     0.49488718
n     0.99042920     0.78386166     0.00512492
n     0.00957085     0.21613837     0.99487507
n     0.50955049     0.21612697     0.50511281
n     0.00957085     0.28386164     0.49487507
n     0.46994850     0.68493597     0.93449793
n     0.53005154     0.31506407     0.06550206
n     0.96992814     0.68494737     0.56551417
n     0.46994851     0.81506408     0.43449793
n     0.96992816     0.81505267     0.06551417
n     0.03007189     0.18494736     0.93448582
n     0.53005153     0.18493595     0.56550206
n     0.03007190     0.31505265     0.43448582
c     0.38890317     0.91562186     0.07913589
c     0.61109687     0.08437817     0.92086411
c     0.88888281     0.91563326     0.42087622
c     0.38890318     0.58437819     0.57913589
c     0.88888282     0.58436678     0.92087622
c     0.11111722     0.41563325     0.07912377
c     0.61109686     0.41562184     0.42086411
c     0.11111723     0.08436676     0.57912377
c     0.40598109     0.97360399     0.15438446
c     0.59401896     0.02639605     0.84561553
c     0.90596073     0.97361539     0.34562764
c     0.40598109     0.52639606     0.65438446
c     0.90596074     0.52638465     0.84562764
c     0.09403931     0.47361538     0.15437235
c     0.59401895     0.47360397     0.34561553
c     0.09403932     0.02638463     0.65437235
c     0.51703312     0.90311711     0.20447315
c     0.48296692     0.09688292     0.79552684
c     0.01701276     0.90312852     0.29553895
c     0.51703313     0.59688293     0.70447315
c     0.01701278     0.59687153     0.79553895
c     0.98298727     0.40312850     0.20446104
c     0.48296691     0.40311710     0.29552684
c     0.98298728     0.09687151     0.70446104
c     0.62246145     0.76647514     0.18582047
c     0.37753859     0.23352489     0.81417952
c     0.12244109     0.76648655     0.31419163
c     0.62246146     0.73352490     0.68582047
c     0.12244111     0.73351350     0.81419163
c     0.87755894     0.26648653     0.18580835
c     0.37753858     0.26647513     0.31417952
c     0.87755895     0.23351348     0.68580835
c     0.61331088     0.69970601     0.11615911
c     0.38668916     0.30029402     0.88384088
c     0.11329052     0.69971741     0.38385299
c     0.61331088     0.80029404     0.61615911
c     0.11329053     0.80028263     0.88385299
c     0.88670952     0.19971740     0.11614700
c     0.38668916     0.19970600     0.38384088
c     0.88670952     0.30028261     0.61614700
c     0.49922394     0.77155715     0.06394002
c     0.50077611     0.22844288     0.93605997
c     0.99920358     0.77156856     0.43607208
c     0.49922394     0.72844289     0.56394002
c     0.99920359     0.72843149     0.93607208
c     0.00079646     0.27156855     0.06392791
c     0.50077610     0.27155714     0.43605997
c     0.00079647     0.22843147     0.56392791
h     0.32701602     0.07896402     0.16908046
h     0.67298402     0.92103601     0.83091953
h     0.82699566     0.07897542     0.33093164
h     0.32701603     0.42103603     0.66908046
h     0.82699568     0.42102462     0.83093164
h     0.17300437     0.57897541     0.16906835
h     0.67298401     0.57896401     0.33091953
h     0.17300438     0.92102460     0.66906835
h     0.52483517     0.95357056     0.26039702
h     0.47516487     0.04642948     0.73960297
h     0.02481481     0.95358196     0.23961508
h     0.52483518     0.54642949     0.76039702
h     0.02481482     0.54641808     0.73961508
h     0.97518522     0.45358195     0.26038491
h     0.47516486     0.45357054     0.23960297
h     0.97518523     0.04641806     0.76038491
h     0.71226578     0.71664430     0.22624481
h     0.28773426     0.28335574     0.77375518
h     0.21224542     0.71665570     0.27376729
h     0.71226579     0.78335575     0.72624481
h     0.21224543     0.78334434     0.77376729
h     0.78775461     0.21665569     0.22623270
h     0.28773425     0.21664428     0.27375518
h     0.78775462     0.28334433     0.72623270
h     0.69147764     0.59589153     0.09885197
h     0.30852240     0.40410850     0.90114802
h     0.19145728     0.59590293     0.40116013
h     0.69147765     0.90410852     0.59885197
h     0.19145730     0.90409711     0.90116013
h     0.80854275     0.09590292     0.09883985
h     0.30852239     0.09589152     0.40114802
h     0.80854276     0.40409709     0.59883985

K_POINTS automatic
2 2 2 1 1 1

CELL_PARAMETERS cubic
   14.637662000000     0.000000000000     0.000002000000
    0.000000000000    15.422257000000     0.000000000000
   -0.000002000000     0.000000000000    34.055817000000
