&control
 title='crystal',
 prefix='crystal',
 pseudo_dir='.',
 calculation='vc-relax',
/
&system
 ibrav=0,
 celldm(1)=1.0,
 nat=   104,
 ntyp=  4,
 ecutwfc=60.0,
 ecutrho=600.0,
 xdm=.true.,
 xdm_a1=0.4073,
 xdm_a2=2.4150,
/
&electrons
 conv_thr = 1d-8,
/
&ions
/
&cell
/
ATOMIC_SPECIES
h      1.007940 h.UPF
c     12.010700 c.UPF
n     14.006700 n.UPF
o     15.999400 o.UPF

ATOMIC_POSITIONS crystal
o     0.90583746     0.79646755     0.48831142
o     0.09416253     0.20353248     0.51168858
o     0.40583746     0.79646755     0.01168858
o     0.90583746     0.70353250     0.98831142
o     0.40583746     0.70353250     0.51168858
o     0.59416252     0.29646753     0.48831142
o     0.09416253     0.29646753     0.01168858
o     0.59416252     0.20353248     0.98831142
n     0.13850587     0.71125578     0.52259943
n     0.86149412     0.28874425     0.47740057
n     0.63850588     0.71125578     0.97740057
n     0.13850587     0.78874427     0.02259943
n     0.63850588     0.78874427     0.47740057
n     0.36149411     0.21125577     0.52259943
n     0.86149412     0.21125577     0.97740057
n     0.36149411     0.28874425     0.02259943
n     0.14755091     0.71026474     0.59114773
n     0.85244908     0.28973530     0.40885227
n     0.64755092     0.71026474     0.90885227
n     0.14755091     0.78973531     0.09114773
n     0.64755092     0.78973531     0.40885227
n     0.35244907     0.21026472     0.59114773
n     0.85244908     0.21026472     0.90885227
n     0.35244907     0.28973530     0.09114773
c     0.94982054     0.78751369     0.34604096
c     0.05017945     0.21248634     0.65395904
c     0.44982055     0.78751369     0.15395904
c     0.94982054     0.71248636     0.84604096
c     0.44982055     0.71248636     0.65395904
c     0.55017944     0.28751368     0.34604096
c     0.05017945     0.28751368     0.15395904
c     0.55017944     0.21248634     0.84604096
h     0.85768415     0.82974694     0.33136637
h     0.14231584     0.17025309     0.66863363
h     0.35768416     0.82974694     0.16863363
h     0.85768415     0.67025311     0.83136637
h     0.35768416     0.67025311     0.66863363
h     0.64231583     0.32974692     0.33136637
h     0.14231584     0.32974692     0.16863363
h     0.64231583     0.17025309     0.83136637
c     0.03265092     0.75151218     0.28582740
c     0.96734907     0.24848785     0.71417260
c     0.53265093     0.75151218     0.21417260
c     0.03265092     0.74848787     0.78582740
c     0.53265093     0.74848787     0.71417260
c     0.46734906     0.25151217     0.28582740
c     0.96734907     0.25151217     0.21417260
c     0.46734906     0.24848785     0.78582740
h     0.00472075     0.76494073     0.22251380
h     0.99527924     0.23505930     0.77748620
h     0.50472075     0.76494073     0.27748620
h     0.00472075     0.73505932     0.72251380
h     0.50472075     0.73505932     0.77748620
h     0.49527924     0.26494072     0.22251380
h     0.99527924     0.26494072     0.27748620
h     0.49527924     0.23505930     0.72251380
c     0.15397468     0.69787574     0.30295589
c     0.84602531     0.30212429     0.69704411
c     0.65397469     0.69787574     0.19704411
c     0.15397468     0.80212431     0.80295589
c     0.65397469     0.80212431     0.69704411
c     0.34602530     0.19787572     0.30295589
c     0.84602531     0.19787572     0.19704411
c     0.34602530     0.30212429     0.80295589
h     0.21646834     0.66959953     0.25336811
h     0.78353165     0.33040051     0.74663189
h     0.71646834     0.66959953     0.24663189
h     0.21646834     0.83040052     0.75336811
h     0.71646834     0.83040052     0.74663189
h     0.28353164     0.16959951     0.25336811
h     0.78353165     0.16959951     0.24663189
h     0.28353164     0.33040051     0.75336811
c     0.19209252     0.68382185     0.38198223
c     0.80790747     0.31617819     0.61801777
c     0.69209253     0.68382185     0.11801777
c     0.19209252     0.81617820     0.88198223
c     0.69209253     0.81617820     0.61801777
c     0.30790746     0.18382183     0.38198223
c     0.80790747     0.18382183     0.11801777
c     0.30790746     0.31617819     0.88198223
h     0.28434572     0.64934716     0.39878950
h     0.71565427     0.35065287     0.60121050
h     0.78434573     0.64934716     0.10121050
h     0.28434572     0.85065289     0.89878950
h     0.78434573     0.85065289     0.60121050
h     0.21565426     0.14934715     0.39878950
h     0.71565427     0.14934715     0.10121050
h     0.21565426     0.35065287     0.89878950
c     0.10733907     0.72033858     0.44499085
c     0.89266092     0.27966146     0.55500915
c     0.60733907     0.72033858     0.05500915
c     0.10733907     0.77966147     0.94499085
c     0.60733907     0.77966147     0.55500915
c     0.39266091     0.22033856     0.44499085
c     0.89266092     0.22033856     0.05500915
c     0.39266091     0.27966146     0.94499085
c     0.97872359     0.77175522     0.43135735
c     0.02127640     0.22824481     0.56864265
c     0.47872360     0.77175522     0.06864265
c     0.97872359     0.72824483     0.93135735
c     0.47872360     0.72824483     0.56864265
c     0.52127639     0.27175520     0.43135735
c     0.02127640     0.27175520     0.06864265
c     0.52127639     0.22824481     0.93135735

K_POINTS automatic
2 2 2 1 1 1

CELL_PARAMETERS cubic
   21.065400000000     0.000000000000     0.000000000000
    0.000000000000    11.805718000000     0.000000000000
    0.000000000000     0.000000000000    31.040413000000
