&control
 title='crystal',
 prefix='crystal',
 pseudo_dir='.',
 calculation='vc-relax',
/
&system
 ibrav=0,
 celldm(1)=1.0,
 nat=    26,
 ntyp=  4,
 ecutwfc=60.0,
 ecutrho=600.0,
 xdm=.true.,
 xdm_a1=0.4073,
 xdm_a2=2.4150,
/
&electrons
 conv_thr = 1d-8,
/
&ions
/
&cell
/
ATOMIC_SPECIES
h      1.007940 h.UPF
c     12.010700 c.UPF
n     14.006700 n.UPF
o     15.999400 o.UPF

ATOMIC_POSITIONS crystal
c     0.34477397     0.94501501     0.97388333
c     0.65522610     0.44501500     0.02611668
c     0.50400848     0.90591536     0.80476569
c     0.49599160     0.40591534     0.19523432
c     0.12222967     0.04303808     0.93001979
c     0.87777041     0.54303807     0.06998021
c     0.45360465     0.95671163     0.62671999
c     0.54639543     0.45671161     0.37328002
c     0.07348274     0.09594068     0.74422445
c     0.92651734     0.59594067     0.25577555
c     0.23932084     0.05216441     0.59461039
c     0.76067924     0.55216439     0.40538962
o     0.38047234     0.90013741     0.13879656
o     0.61952774     0.40013740     0.86120345
n     0.96619766     0.07235461     0.08162326
n     0.03380241     0.57235459     0.91837675
n     0.86391875     0.08239234     0.22875492
n     0.13608132     0.58239233     0.77124508
h     0.66660795     0.82921601     0.82498023
h     0.33339213     0.32921599     0.17501978
h     0.57964907     0.92134484     0.50402432
h     0.42035100     0.42134483     0.49597568
h     0.20937350     0.08694313     0.44985610
h     0.79062658     0.58694311     0.55014390
h     0.90696471     0.16912665     0.72729300
h     0.09303536     0.66912663     0.27270700

K_POINTS automatic
2 2 2 1 1 1

CELL_PARAMETERS cubic
   10.576421000000     0.000000000000     0.369048000000
    0.000000000000    13.582596000000     0.000000000000
    0.982342000000     0.000000000000    13.335578000000
