&control
 title='crystal',
 prefix='crystal',
 pseudo_dir='.',
 calculation='vc-relax',
/
&system
 ibrav=0,
 celldm(1)=1.0,
 nat=    26,
 ntyp=  4,
 ecutwfc=60.0,
 ecutrho=600.0,
 xdm=.true.,
 xdm_a1=0.4073,
 xdm_a2=2.4150,
/
&electrons
 conv_thr = 1d-8,
/
&ions
/
&cell
/
ATOMIC_SPECIES
h      1.007940 h.UPF
c     12.010700 c.UPF
n     14.006700 n.UPF
o     15.999400 o.UPF

ATOMIC_POSITIONS crystal
h     0.98030001     0.44020452     0.67028223
h     0.01969992     0.94020452     0.32971780
h     0.44483949     0.84451651     0.49856658
h     0.55516045     0.34451651     0.50143346
h     0.14265957     0.60554536     0.44485129
h     0.85734037     0.10554536     0.55514874
h     0.58839885     0.91934667     0.78966308
h     0.41160109     0.41934667     0.21033696
c     0.36142213     0.72212692     0.88839288
c     0.63857780     0.22212692     0.11160716
c     0.11347323     0.54392887     0.69584113
c     0.88652670     0.04392887     0.30415890
c     0.37243613     0.77487836     0.60085306
c     0.62756380     0.27487836     0.39914697
c     0.20387278     0.63755692     0.57131153
c     0.79612715     0.13755692     0.42868850
c     0.45227589     0.81749569     0.75854066
c     0.54772404     0.31749569     0.24145937
c     0.17658894     0.57888376     0.86635379
c     0.82341099     0.07888376     0.13364624
n     0.43672582     0.75236793     0.04438535
n     0.56327411     0.25236793     0.95561468
n     0.46816281     0.74747585     0.18284798
n     0.53183712     0.24747585     0.81715206
o     0.08871967     0.50026262     0.98468825
o     0.91128026     0.00026262     0.01531178

K_POINTS automatic
2 2 2 1 1 1

CELL_PARAMETERS cubic
    7.129534000000     0.000000000000     0.049279000000
    0.000000000000    17.187188000000     0.000000000000
   -0.422459000000     0.000000000000    15.384038000000
