&control
 title='crystal',
 prefix='crystal',
 pseudo_dir='.',
 calculation='vc-relax',
/
&system
 ibrav=0,
 celldm(1)=1.0,
 nat=    26,
 ntyp=  4,
 ecutwfc=60.0,
 ecutrho=600.0,
 xdm=.true.,
 xdm_a1=0.4073,
 xdm_a2=2.4150,
/
&electrons
 conv_thr = 1d-8,
/
&ions
/
&cell
/
ATOMIC_SPECIES
h      1.007940 h.UPF
c     12.010700 c.UPF
n     14.006700 n.UPF
o     15.999400 o.UPF

ATOMIC_POSITIONS crystal
c     0.75469684     0.62634797     0.13756674
c     0.24530326     0.12634796     0.86243323
c     0.75307459     0.78776983     0.11705713
c     0.24692550     0.28776982     0.88294284
c     0.74863067     0.87043186     0.26604575
c     0.25136943     0.37043185     0.73395422
c     0.74691369     0.79797724     0.41089030
c     0.25308640     0.29797723     0.58910967
c     0.74908672     0.64428183     0.41480605
c     0.25091338     0.14428182     0.58519392
c     0.75299854     0.55946882     0.27718356
c     0.24700156     0.05946882     0.72281642
o     0.75537196     0.85360428     0.99280295
o     0.24462813     0.35360427     0.00719702
n     0.74668430     0.01902665     0.25684362
n     0.25331580     0.51902664     0.74315635
n     0.74547545     0.14496490     0.23301190
n     0.25452465     0.64496489     0.76698807
h     0.74784177     0.58657215     0.52352536
h     0.25215833     0.08657214     0.47647461
h     0.75464466     0.43684680     0.28184570
h     0.24535544     0.93684679     0.71815427
h     0.75826897     0.55755678     0.03571584
h     0.24173113     0.05755677     0.96428413
h     0.74415194     0.86565104     0.51402971
h     0.25584816     0.36565103     0.48597026

K_POINTS automatic
2 2 2 1 1 1

CELL_PARAMETERS cubic
    7.133358000000     0.000000000000    -0.025892000000
    0.000000000000    16.769494000000     0.000000000000
   -0.173803000000     0.000000000000    16.623070000000
