&control
 title='crystal',
 prefix='crystal',
 pseudo_dir='.',
 calculation='vc-relax',
/
&system
 ibrav=0,
 celldm(1)=1.0,
 nat=    26,
 ntyp=  4,
 ecutwfc=60.0,
 ecutrho=600.0,
 xdm=.true.,
 xdm_a1=0.4073,
 xdm_a2=2.4150,
/
&electrons
 conv_thr = 1d-8,
/
&ions
/
&cell
/
ATOMIC_SPECIES
h      1.007940 h.UPF
c     12.010700 c.UPF
n     14.006700 n.UPF
o     15.999400 o.UPF

ATOMIC_POSITIONS crystal
c     0.99230879     0.26654776     0.13481509
c     0.00769115     0.73345230     0.86518490
c     0.12094315     0.03113738     0.13642160
c     0.87905679     0.96886267     0.86357839
c     0.48078493     0.77597718     0.21814400
c     0.51921501     0.22402287     0.78185598
c     0.71753678     0.76163338     0.29646639
c     0.28246316     0.23836668     0.70353359
c     0.60200274     0.00330612     0.29758826
c     0.39799719     0.99669393     0.70241172
c     0.21677884     0.25286458     0.21104626
c     0.78322110     0.74713548     0.78895372
n     0.06893197     0.52124100     0.37580991
n     0.93106797     0.47875906     0.62419007
n     0.37144097     0.34009129     0.44469305
n     0.62855897     0.65990876     0.55530693
o     0.81669430     0.98929652     0.36546613
o     0.18330564     0.01070353     0.63453386
h     0.70475400     0.46255404     0.07182944
h     0.29524594     0.53744602     0.92817055
h     0.93483482     0.04967263     0.07450869
h     0.06516512     0.95032743     0.92549129
h     0.59083482     0.57535968     0.22910606
h     0.40916512     0.42464037     0.77089393
h     0.11202107     0.42939652     0.21071386
h     0.88797886     0.57060354     0.78928613

K_POINTS automatic
2 2 2 1 1 1

CELL_PARAMETERS cubic
    8.869169000000    -0.267631000000     1.131985000000
    2.429709000000    10.961637000000     2.910742000000
  -12.179595000000    19.432331000000    23.489999000000
