&control
 title='crystal',
 prefix='crystal',
 pseudo_dir='.',
 calculation='vc-relax',
/
&system
 ibrav=0,
 celldm(1)=1.0,
 nat=   104,
 ntyp=  4,
 ecutwfc=60.0,
 ecutrho=600.0,
 xdm=.true.,
 xdm_a1=0.4073,
 xdm_a2=2.4150,
/
&electrons
 conv_thr = 1d-8,
/
&ions
/
&cell
/
ATOMIC_SPECIES
h      1.007940 h.UPF
c     12.010700 c.UPF
n     14.006700 n.UPF
o     15.999400 o.UPF

ATOMIC_POSITIONS crystal
c     0.68315503     0.51479237     0.74999999
c     0.18314849     0.51478507     0.75000000
c     0.18315573     0.98520370     0.24999999
c     0.68314918     0.98519640     0.25000000
c     0.31683801     0.01479166     0.74999997
c     0.81683146     0.01478436     0.74999998
c     0.81683843     0.48520030     0.24999999
c     0.31683188     0.48519300     0.25000000
c     0.69530307     0.38587375     0.75000000
c     0.19529653     0.38586645     0.75000000
c     0.19529896     0.11413931     0.25000000
c     0.69529242     0.11413201     0.25000000
c     0.30470077     0.88586336     0.74999997
c     0.80469422     0.88585606     0.74999998
c     0.80469724     0.61412811     0.24999998
c     0.30469069     0.61412080     0.24999999
c     0.63171721     0.30232652     0.74999999
c     0.13171066     0.30231922     0.75000000
c     0.13170890     0.19766144     0.25000000
c     0.63170236     0.19765414     0.25000000
c     0.36828674     0.80232689     0.74999997
c     0.86828020     0.80231958     0.74999998
c     0.86828478     0.69767634     0.24999999
c     0.36827824     0.69766904     0.25000000
c     0.55350665     0.34222036     0.74999999
c     0.05350011     0.34221306     0.75000000
c     0.05351376     0.15779416     0.25000000
c     0.55350722     0.15778686     0.25000000
c     0.44649411     0.84222201     0.74999996
c     0.94648756     0.84221471     0.74999997
c     0.94649362     0.65778743     0.24999999
c     0.44648708     0.65778012     0.25000000
c     0.53778230     0.46440382     0.74999999
c     0.03777576     0.46439652     0.75000000
c     0.03776881     0.03558289     0.24999999
c     0.53776227     0.03557558     0.25000000
c     0.46222407     0.96440385     0.74999996
c     0.96221752     0.96439654     0.74999997
c     0.96223551     0.53559891     0.24999999
c     0.46222897     0.53559160     0.25000000
c     0.59863001     0.54616753     0.74999999
c     0.09862347     0.54616022     0.75000000
c     0.09863500     0.95383422     0.24999999
c     0.59862845     0.95382692     0.25000000
c     0.40136753     0.04617706     0.74999997
c     0.90136099     0.04616976     0.74999998
c     0.90136146     0.45381760     0.24999999
c     0.40135492     0.45381029     0.25000000
n     0.77224096     0.35374689     0.74999999
n     0.27223442     0.35373958     0.75000000
n     0.27224139     0.14625765     0.24999999
n     0.77223484     0.14625034     0.25000000
n     0.22775544     0.85374135     0.74999996
n     0.72774889     0.85373405     0.74999997
n     0.72775677     0.64625562     0.24999998
n     0.22775023     0.64624831     0.24999999
n     0.84050659     0.34525523     0.74999998
n     0.34050005     0.34524793     0.74999999
n     0.34051033     0.15472873     0.25000000
n     0.84050379     0.15472143     0.25000000
n     0.15949174     0.84528150     0.74999997
n     0.65948520     0.84527419     0.74999998
n     0.65949399     0.65474185     0.24999999
n     0.15948744     0.65473455     0.25000000
o     0.74064877     0.58592811     0.74999998
o     0.24064223     0.58592080     0.74999999
o     0.24064192     0.91408365     0.24999998
o     0.74063538     0.91407635     0.24999999
o     0.25935900     0.08591298     0.74999997
o     0.75935245     0.08590568     0.74999998
o     0.75936199     0.41407958     0.24999999
o     0.25935545     0.41407227     0.25000000
h     0.64740618     0.20994010     0.74999998
h     0.14739964     0.20993280     0.74999999
h     0.14740649     0.29007004     0.24999999
h     0.64739995     0.29006274     0.25000000
h     0.35259508     0.70993370     0.74999997
h     0.85258854     0.70992640     0.74999998
h     0.85259334     0.79006079     0.24999999
h     0.35258680     0.79005349     0.25000000
h     0.50336398     0.28077853     0.74999997
h     0.00335744     0.28077122     0.74999998
h     0.00336267     0.21921673     0.25000000
h     0.50335612     0.21920942     0.25000000
h     0.49663799     0.78078317     0.74999996
h     0.99663145     0.78077587     0.74999997
h     0.99663450     0.71922231     0.25000000
h     0.49662796     0.71921501     0.25000000
h     0.47503862     0.49386392     0.74999997
h     0.97503208     0.49385661     0.74999998
h     0.97504200     0.00613458     0.25000000
h     0.47503545     0.00612728     0.25000000
h     0.52496036     0.99386960     0.74999997
h     0.02495382     0.99386230     0.74999998
h     0.02495640     0.50614175     0.24999999
h     0.52494986     0.50613444     0.25000000
h     0.58520588     0.63931998     0.74999997
h     0.08519934     0.63931267     0.74999998
h     0.08520360     0.86067879     0.24999999
h     0.58519705     0.86067148     0.25000000
h     0.41479313     0.13931669     0.74999998
h     0.91478659     0.13930938     0.74999999
h     0.91479586     0.36068547     0.25000000
h     0.41478932     0.36067816     0.25000000

K_POINTS automatic
2 2 2 1 1 1

CELL_PARAMETERS cubic
   31.192291000000    -0.000156000000     0.000000000000
   -0.000134000000    21.590940000000     0.000000000000
    0.000000000000     0.000000000000    11.537925000000
