&control
 title='crystal',
 prefix='crystal',
 pseudo_dir='.',
 calculation='vc-relax',
/
&system
 ibrav=0,
 celldm(1)=1.0,
 nat=    26,
 ntyp=  4,
 ecutwfc=60.0,
 ecutrho=600.0,
 xdm=.true.,
 xdm_a1=0.4073,
 xdm_a2=2.4150,
/
&electrons
 conv_thr = 1d-8,
/
&ions
/
&cell
/
ATOMIC_SPECIES
h      1.007940 h.UPF
c     12.010700 c.UPF
n     14.006700 n.UPF
o     15.999400 o.UPF

ATOMIC_POSITIONS crystal
c     0.76774835     0.82032709     0.88683092
c     0.76774836     0.17967289     0.38683093
c     0.86815120     0.93153603     0.99480145
c     0.86815120     0.06846395     0.49480145
c     0.07707370     0.88863757     0.12831507
c     0.07707370     0.11136241     0.62831507
c     0.18768929     0.73151100     0.15226729
c     0.18768929     0.26848898     0.65226730
c     0.08289877     0.61438944     0.04233103
c     0.08289877     0.38561054     0.54233104
c     0.85604395     0.65010508     0.90235682
c     0.85604395     0.34989490     0.40235682
o     0.75507636     0.54221354     0.81134482
o     0.75507637     0.45778644     0.31134483
n     0.17896179     0.46005472     0.05839599
n     0.17896179     0.53994526     0.55839599
n     0.23726269     0.32558817     0.05094350
n     0.23726270     0.67441181     0.55094351
h     0.60726198     0.85574410     0.78557224
h     0.60726198     0.14425589     0.28557224
h     0.78544074     0.05785219     0.97803612
h     0.78544074     0.94214779     0.47803612
h     0.14951649     0.98108651     0.21071279
h     0.14951650     0.01891347     0.71071279
h     0.35535197     0.69228651     0.25026397
h     0.35535197     0.30771347     0.75026398

K_POINTS automatic
2 2 2 1 1 1

CELL_PARAMETERS cubic
    7.091613000000     0.000000000000     0.013889000000
    0.000000000000    15.536903000000     0.000000000000
   -2.154212000000     0.000000000000    17.301648000000
