&control
 title='crystal',
 prefix='crystal',
 pseudo_dir='.',
 calculation='vc-relax',
/
&system
 ibrav=0,
 celldm(1)=1.0,
 nat=   104,
 ntyp=  4,
 ecutwfc=60.0,
 ecutrho=600.0,
 xdm=.true.,
 xdm_a1=0.4073,
 xdm_a2=2.4150,
/
&electrons
 conv_thr = 1d-8,
/
&ions
/
&cell
/
ATOMIC_SPECIES
h      1.007940 h.UPF
c     12.010700 c.UPF
n     14.006700 n.UPF
o     15.999400 o.UPF

ATOMIC_POSITIONS crystal
c     0.80949124     0.86543079     0.21703752
c     0.19050876     0.13456926     0.78296247
c     0.30949125     0.86543077     0.28296248
c     0.69050876     0.13456927     0.71703752
c     0.30949056     0.63456552     0.78295652
c     0.69050944     0.36543452     0.21704347
c     0.80949057     0.63456551     0.71704348
c     0.19050944     0.36543454     0.28295652
c     0.79270100     0.96961806     0.08063811
c     0.20729900     0.03038199     0.91936188
c     0.29270101     0.96961804     0.41936189
c     0.70729900     0.03038200     0.58063810
c     0.29270136     0.53037877     0.91935877
c     0.70729864     0.46962128     0.08064122
c     0.79270137     0.53037875     0.58064123
c     0.20729864     0.46962129     0.41935877
c     0.84465416     0.08244633     0.01716157
c     0.15534584     0.91755372     0.98283842
c     0.34465417     0.08244631     0.48283843
c     0.65534583     0.91755374     0.51716157
c     0.34465029     0.41755033     0.98283351
c     0.65534971     0.58244972     0.01716648
c     0.84465029     0.41755032     0.51716649
c     0.15534971     0.58244973     0.48283350
c     0.92022942     0.10360527     0.08320479
c     0.07977058     0.89639478     0.91679520
c     0.42022942     0.10360525     0.41679521
c     0.57977058     0.89639479     0.58320478
c     0.42023011     0.39639331     0.91679435
c     0.57976989     0.60360674     0.08320565
c     0.92023012     0.39639330     0.58320565
c     0.07976988     0.60360675     0.41679434
c     0.87909148     0.87854170     0.29130552
c     0.12090852     0.12145835     0.70869448
c     0.37909149     0.87854168     0.20869448
c     0.62090852     0.12145836     0.79130551
c     0.37909390     0.62146166     0.70868844
c     0.62090610     0.37853838     0.29131155
c     0.87909390     0.62146165     0.79131156
c     0.12090610     0.37853840     0.20868843
c     0.93325180     0.99537335     0.22754513
c     0.06674820     0.00462669     0.77245487
c     0.43325181     0.99537334     0.27245487
c     0.56674819     0.00462671     0.72754512
c     0.43325304     0.50464409     0.77245744
c     0.56674696     0.49535595     0.22754255
c     0.93325305     0.50464408     0.72754256
c     0.06674696     0.49535597     0.27245744
h     0.76786810     0.77301955     0.26004397
h     0.23213190     0.22698050     0.73995602
h     0.26786810     0.77301954     0.23995603
h     0.73213190     0.22698051     0.76004396
h     0.26786994     0.72697878     0.73995832
h     0.73213006     0.27302126     0.26004167
h     0.76786994     0.72697877     0.76004168
h     0.23213006     0.27302128     0.23995832
h     0.73664973     0.95916593     0.02455299
h     0.26335027     0.04083412     0.97544700
h     0.23664974     0.95916592     0.47544701
h     0.76335026     0.04083413     0.52455299
h     0.23665086     0.54083286     0.97545277
h     0.76334914     0.45916719     0.02454722
h     0.73665086     0.54083284     0.52454723
h     0.26334914     0.45916721     0.47545276
h     0.83127709     0.15944207     0.91122019
h     0.16872291     0.84055798     0.08877981
h     0.33127710     0.15944206     0.58877981
h     0.66872290     0.84055799     0.41122018
h     0.33127698     0.34055606     0.08878315
h     0.66872302     0.65944398     0.91121685
h     0.83127698     0.34055605     0.41121685
h     0.16872302     0.65944400     0.58878314
h     0.89486531     0.80088383     0.39496426
h     0.10513469     0.19911621     0.60503573
h     0.39486531     0.80088382     0.10503574
h     0.60513469     0.19911623     0.89496425
h     0.39486428     0.69911771     0.60502610
h     0.60513572     0.30088233     0.39497390
h     0.89486428     0.69911770     0.89497390
h     0.10513572     0.30088235     0.10502609
o     0.96998328     0.20080521     0.02606856
o     0.03001672     0.79919484     0.97393144
o     0.46998329     0.20080520     0.47393144
o     0.53001672     0.79919485     0.52606855
o     0.46998004     0.29920308     0.97392291
o     0.53001996     0.70079697     0.02607708
o     0.96998004     0.29920307     0.52607709
o     0.03001996     0.70079698     0.47392290
n     0.00275679     0.00633508     0.29007368
n     0.99724321     0.99366497     0.70992631
n     0.50275680     0.00633506     0.20992632
n     0.49724321     0.99366498     0.79007367
n     0.50274982     0.49365993     0.70991310
n     0.49725018     0.50634012     0.29008689
n     0.00274982     0.49365991     0.79008690
n     0.99725018     0.50634013     0.20991309
n     0.06385186     0.02817075     0.32801563
n     0.93614814     0.97182930     0.67198436
n     0.56385186     0.02817074     0.17198437
n     0.43614814     0.97182931     0.82801562
n     0.56385890     0.47182636     0.67201321
n     0.43614110     0.52817369     0.32798678
n     0.06385890     0.47182635     0.82798679
n     0.93614110     0.52817370     0.17201321

K_POINTS automatic
2 2 2 1 1 1

CELL_PARAMETERS cubic
   33.131177000000    -0.000178000000     0.000000000000
   -0.000081000000    14.777074000000     0.000000000000
    0.000000000000     0.000000000000    15.619595000000
