&control
 title='crystal',
 prefix='crystal',
 pseudo_dir='.',
 calculation='vc-relax',
/
&system
 ibrav=0,
 celldm(1)=1.0,
 nat=   104,
 ntyp=  4,
 ecutwfc=60.0,
 ecutrho=600.0,
 xdm=.true.,
 xdm_a1=0.4073,
 xdm_a2=2.4150,
/
&electrons
 conv_thr = 1d-8,
/
&ions
/
&cell
/
ATOMIC_SPECIES
h      1.007940 h.UPF
c     12.010700 c.UPF
n     14.006700 n.UPF
o     15.999400 o.UPF

ATOMIC_POSITIONS crystal
c     0.51523163     0.36474155     0.03603943
c     0.48476837     0.63525844     0.96396054
c     0.01523163     0.36474155     0.46396056
c     0.51523163     0.13525845     0.53603941
c     0.01523163     0.13525845     0.96396054
c     0.98476837     0.86474153     0.03603943
c     0.48476837     0.86474153     0.46396056
c     0.98476837     0.63525844     0.53603941
c     0.49480784     0.38960421     0.25754622
c     0.50519216     0.61039578     0.74245375
c     0.99480784     0.38960421     0.24245377
c     0.49480784     0.11039578     0.75754621
c     0.99480784     0.11039578     0.74245375
c     0.00519217     0.88960419     0.25754622
c     0.50519216     0.88960419     0.24245377
c     0.00519217     0.61039578     0.75754621
c     0.39256792     0.41782498     0.29147424
c     0.60743208     0.58217500     0.70852574
c     0.89256792     0.41782498     0.20852575
c     0.39256792     0.08217501     0.79147422
c     0.89256792     0.08217501     0.70852574
c     0.10743208     0.91782497     0.29147424
c     0.60743208     0.91782497     0.20852575
c     0.10743208     0.58217500     0.79147422
c     0.32320909     0.41561512     0.13626746
c     0.67679091     0.58438487     0.86373252
c     0.82320909     0.41561512     0.36373254
c     0.32320909     0.08438488     0.63626744
c     0.82320909     0.08438488     0.86373252
c     0.17679092     0.91561510     0.13626746
c     0.67679091     0.91561510     0.36373254
c     0.17679092     0.58438487     0.63626744
c     0.34718270     0.38919768     0.92769632
c     0.65281730     0.61080231     0.07230366
c     0.84718270     0.38919768     0.57230368
c     0.34718270     0.11080232     0.42769630
c     0.84718270     0.11080232     0.07230366
c     0.15281731     0.88919766     0.92769632
c     0.65281730     0.88919766     0.57230368
c     0.15281731     0.61080231     0.42769630
c     0.44260942     0.36510374     0.87590633
c     0.55739058     0.63489624     0.12409365
c     0.94260942     0.36510374     0.62409366
c     0.44260942     0.13489625     0.37590631
c     0.94260942     0.13489625     0.12409365
c     0.05739058     0.86510373     0.87590633
c     0.55739058     0.86510373     0.62409366
c     0.05739058     0.63489624     0.37590631
h     0.37310609     0.44153079     0.44826595
h     0.62689391     0.55846919     0.55173403
h     0.87310609     0.44153079     0.05173405
h     0.37310609     0.05846920     0.94826593
h     0.87310609     0.05846920     0.55173403
h     0.12689392     0.94153078     0.44826595
h     0.62689391     0.94153078     0.05173405
h     0.12689392     0.55846919     0.94826593
h     0.24641045     0.43460305     0.17211095
h     0.75358955     0.56539693     0.82788903
h     0.74641045     0.43460305     0.32788905
h     0.24641045     0.06539694     0.67211093
h     0.74641045     0.06539694     0.82788903
h     0.25358955     0.93460304     0.17211095
h     0.75358955     0.93460304     0.32788905
h     0.25358955     0.56539693     0.67211093
h     0.28947493     0.38791579     0.81043508
h     0.71052507     0.61208420     0.18956490
h     0.78947493     0.38791579     0.68956492
h     0.28947493     0.11208421     0.31043506
h     0.78947493     0.11208421     0.18956490
h     0.21052507     0.88791577     0.81043508
h     0.71052507     0.88791577     0.68956492
h     0.21052507     0.61208420     0.31043506
h     0.46571336     0.34834587     0.71755310
h     0.53428664     0.65165411     0.28244688
h     0.96571336     0.34834587     0.78244689
h     0.46571336     0.15165412     0.21755308
h     0.96571336     0.15165412     0.28244688
h     0.03428665     0.84834586     0.71755310
h     0.53428664     0.84834586     0.78244689
h     0.03428665     0.65165411     0.21755308
o     0.55974138     0.38428501     0.39521860
o     0.44025862     0.61571497     0.60478137
o     0.05974138     0.38428501     0.10478139
o     0.55974138     0.11571498     0.89521858
o     0.05974138     0.11571498     0.60478137
o     0.94025863     0.88428500     0.39521860
o     0.44025862     0.88428500     0.10478139
o     0.94025863     0.61571497     0.89521858
n     0.60775971     0.33901936     0.99266158
n     0.39224029     0.66098062     0.00733839
n     0.10775971     0.33901936     0.50733841
n     0.60775971     0.16098063     0.49266157
n     0.10775971     0.16098063     0.00733839
n     0.89224029     0.83901935     0.99266158
n     0.39224029     0.83901935     0.50733841
n     0.89224029     0.66098062     0.49266157
n     0.68891062     0.31811920     0.97656094
n     0.31108938     0.68188079     0.02343904
n     0.18891062     0.31811920     0.52343905
n     0.68891062     0.18188080     0.47656092
n     0.18891062     0.18188080     0.02343904
n     0.81108938     0.81811918     0.97656094
n     0.31108938     0.81811918     0.52343905
n     0.81108938     0.68188079     0.47656092

K_POINTS automatic
2 2 2 1 1 1

CELL_PARAMETERS cubic
   25.517484000000     0.000000000000     0.000000000000
    0.000000000000    24.051758000000     0.000000000000
    0.000000000000     0.000000000000    12.177190000000
