&control
 title='crystal',
 prefix='crystal',
 pseudo_dir='.',
 calculation='vc-relax',
/
&system
 ibrav=0,
 celldm(1)=1.0,
 nat=    52,
 ntyp=  4,
 ecutwfc=60.0,
 ecutrho=600.0,
 xdm=.true.,
 xdm_a1=0.4073,
 xdm_a2=2.4150,
/
&electrons
 conv_thr = 1d-8,
/
&ions
/
&cell
/
ATOMIC_SPECIES
h      1.007940 h.UPF
c     12.010700 c.UPF
n     14.006700 n.UPF
o     15.999400 o.UPF

ATOMIC_POSITIONS crystal
c     0.37998282     0.18454565     0.39540804
c     0.62001722     0.81545434     0.60459199
c     0.62001914     0.68454701     0.10459176
c     0.37998090     0.31545298     0.89540827
c     0.21191683     0.21477335     0.42416746
c     0.78808322     0.78522664     0.57583257
c     0.78808410     0.71477637     0.07583248
c     0.21191594     0.28522362     0.92416755
c     0.08388934     0.12780420     0.36164357
c     0.91611070     0.87219579     0.63835646
c     0.91611883     0.62780444     0.13836013
c     0.08388122     0.37219556     0.86163990
c     0.10696267     0.00092843     0.26437797
c     0.89303737     0.99907156     0.73562206
c     0.89303813     0.50093105     0.23562448
c     0.10696191     0.49906895     0.76437555
c     0.26181264     0.96251766     0.22832064
c     0.73818740     0.03748233     0.77167939
c     0.73819610     0.46251979     0.27167991
c     0.26180394     0.53748021     0.72832012
c     0.39518057     0.05239610     0.28946107
c     0.60481947     0.94760389     0.71053896
c     0.60482414     0.55239651     0.21053936
c     0.39517590     0.44760349     0.78946067
o     0.50105567     0.25848187     0.45311531
o     0.49894437     0.74151812     0.54688472
o     0.49894829     0.75848046     0.04688535
o     0.50105175     0.24151954     0.95311468
n     0.54751362     0.02527650     0.25346132
n     0.45248642     0.97472350     0.74653871
n     0.45248868     0.52527464     0.24653867
n     0.54751136     0.47472536     0.75346136
n     0.68385725     0.02519349     0.23974084
n     0.31614279     0.97480651     0.76025919
n     0.31614979     0.52519003     0.26025720
n     0.68385025     0.47480996     0.73974283
h     0.19128851     0.31018721     0.50087019
h     0.80871153     0.68981278     0.49912984
h     0.80871497     0.81018787     0.99913139
h     0.19128507     0.18981213     0.00086863
h     0.95966697     0.15589161     0.38880910
h     0.04033308     0.84410839     0.61119093
h     0.04033682     0.65589385     0.11119434
h     0.95966322     0.34410615     0.88880569
h     0.00184071     0.93472381     0.22001756
h     0.99815934     0.06527618     0.77998247
h     0.99816564     0.43472622     0.27998644
h     0.00183440     0.56527377     0.72001359
h     0.28835129     0.86690099     0.15498840
h     0.71164875     0.13309901     0.84501163
h     0.71165545     0.36690097     0.34501342
h     0.28834459     0.63309902     0.65498661

K_POINTS automatic
2 2 2 1 1 1

CELL_PARAMETERS cubic
   15.458150000000    -0.000008000000    -0.006741000000
   -0.000009000000    17.925585000000    -0.000002000000
   -1.489637000000    -0.000001000000    13.741954000000
