&control
 title='crystal',
 prefix='crystal',
 pseudo_dir='.',
 calculation='vc-relax',
/
&system
 ibrav=0,
 celldm(1)=1.0,
 nat=    42,
 ntyp=  4,
 ecutwfc=60.0,
 ecutrho=600.0,
 xdm=.true.,
 xdm_a1=0.4073,
 xdm_a2=2.4150,
/
&electrons
 conv_thr = 1d-8,
/
&ions
/
&cell
/
ATOMIC_SPECIES
h      1.007940 h.UPF
c     12.010700 c.UPF
n     14.006700 n.UPF
o     15.999400 o.UPF

ATOMIC_POSITIONS crystal
o     0.37414833     0.11490419     0.60965944
o     0.62585165     0.61490418     0.39034053
o     0.51026443     0.96861858     0.84933749
o     0.48973555     0.46861857     0.15066249
n     0.39915522     0.35004593     0.82484824
n     0.60084476     0.85004592     0.17515174
c     0.43479324     0.13537792     0.77264883
c     0.56520674     0.63537791     0.22735114
c     0.29199464     0.49026155     0.69906747
c     0.70800534     0.99026154     0.30093250
c     0.30687386     0.34372835     0.54835147
c     0.69312611     0.84372834     0.45164850
c     0.11781908     0.51722375     0.73351104
c     0.88218090     0.01722374     0.26648893
c     0.08056213     0.71768192     0.81700429
c     0.91943784     0.21768191     0.18299568
c     0.92504944     0.74218259     0.85963578
c     0.07495053     0.24218259     0.14036419
c     0.80482726     0.56573909     0.81891267
c     0.19517272     0.06573909     0.18108730
c     0.84091596     0.36526557     0.73570944
c     0.15908402     0.86526556     0.26429054
c     0.99623437     0.34103264     0.69291216
c     0.00376561     0.84103263     0.30708781
h     0.43004342     0.40031239     0.94485945
h     0.56995655     0.90031238     0.05514053
h     0.34707095     0.66594212     0.69344892
h     0.65292902     0.16594211     0.30655105
h     0.18755487     0.31236592     0.46652698
h     0.81244510     0.81236591     0.53347300
h     0.39553595     0.42250990     0.48195934
h     0.60446402     0.92250989     0.51804063
h     0.17488185     0.85443415     0.85076196
h     0.82511812     0.35443414     0.14923801
h     0.89792218     0.89939755     0.92401999
h     0.10207779     0.39939754     0.07597999
h     0.68290870     0.58645671     0.85009606
h     0.31709127     0.08645670     0.14990391
h     0.74801566     0.22626275     0.70493309
h     0.25198431     0.72626274     0.29506689
h     0.02277977     0.18285617     0.62870011
h     0.97722021     0.68285616     0.37129986

K_POINTS automatic
2 2 2 1 1 1

CELL_PARAMETERS cubic
   15.446992000000     0.000000000000    -0.106624000000
    0.000000000000    10.686218000000     0.000000000000
   -3.060393000000     0.000000000000    15.651908000000
