%nprocs=4
%mem=4GB
#p pbepbe aug-cc-pvtz output=wfx scf=(conver=6) int=(grid=ultrafine)

title

0 1
o 0.000000000000000 0.000000000000000 -0.389361108094511
h 0.762984383606364 0.000000000000000 0.194680554047253
h -0.762984383606364 0.000000000000000 0.194680554047253

H2O.wfx

