%nprocs=4
%mem=4GB
#p pbepbe aug-cc-pvtz output=wfx scf=(conver=6) int=(grid=ultrafine)

title

0 1
o -1.292452318137398 1.943142290117031 1.222649716837000
o 0.000000000000000 0.000000000000000 2.191018047047322
o 2.329036745477918 0.147725395628554 1.222649716837000
o -1.036584427340520 -2.090867685745591 1.222649716837000
o -0.117373799318471 -2.366639610742707 -1.181146557576014
o 0.000000000000000 0.000000000000000 -2.128149993240744
o 2.108256924164933 1.081671113422860 -1.181146557576014
o -1.990883124846462 1.284968497319847 -1.181146557576014
h -1.612133201138188 1.710804084892126 0.290226124405133
h -2.032992052658122 2.326808840020167 1.697714463237243
h -2.747183641579046 0.696987617945899 -1.244697902740968
h -0.998579538878608 -2.924027183303890 1.697714463237243
h -0.675533197845675 -2.251550348916062 0.290226124405133
h -1.203646789332624 0.774631517169146 -1.609099983468409
h -0.557543341386500 0.790630999502632 1.832941568819279
h -0.405934859895511 -0.878162197102882 1.832941568819279
h 1.977200804053873 2.030637013495546 -1.244697902740968
h -0.069027177774248 -1.429704455330203 -1.609099983468409
h 0.963478201282011 0.087531197600250 1.832941568819279
h 0.769982837525173 -2.727624631441445 -1.244697902740968
h 0.000000000000000 0.000000000000000 -3.088630342346383
h 1.272673967106877 0.655072938161057 -1.609099983468409
h 3.031571591536730 0.597218343283723 1.697714463237243
h 2.287666398983863 0.540746264023935 0.290226124405133

H3OpH2O6OHm.wfx

