%nprocs=4
%mem=4GB
#p pbepbe aug-cc-pvtz output=wfx scf=(conver=6) int=(grid=ultrafine)

title

-1 1
h 1.501277432508132 -0.388198687365643 -0.068744294368020
h 0.069544980800418 -2.003145000334233 -0.093697413177783
h -1.297486913993456 -0.375853477954496 0.320735987054140
o 0.093992249634306 1.974966319913622 -1.170230881828152
o 1.937020411723603 -0.243457944269637 -0.953572562162550
o -0.155523198464042 -2.513446025993349 -0.910740274205606
o -1.961692352311483 -0.060019653019475 -0.328931911957316
h 0.775718567116603 1.282418552947499 -1.265048277305454
h 1.561487439636173 -0.972249039506992 -1.462769617874331
h -0.948701320630200 -2.048714328160621 -1.203638600234637
h -1.471823165677782 0.633693733891056 -0.799796219497533
o 0.333005238233614 -0.718435871613640 1.140086067971912
h 0.554923367648326 -1.189018689167290 1.946559399503897
o -0.112411290520442 1.819087767348881 1.734214829632532
h 0.084517550086241 2.134098342323178 -0.209161567670250
h -1.073600814672611 1.822590007181832 1.748315418959950
h 0.109751818882589 0.845683993779325 1.576419917159205

OHmH2O5.wfx

