&control
 title='crystal',
 prefix='crystal',
 pseudo_dir='.',
 calculation='vc-relax',
/
&system
 ibrav=0,
 celldm(1)=1.0,
 nat=    92,
 ntyp=  4,
 ecutwfc=60.0,
 ecutrho=600.0,
 xdm=.true.,
 xdm_a1=0.4073,
 xdm_a2=2.4150,
/
&electrons
 conv_thr = 1d-8,
/
&ions
/
&cell
/
ATOMIC_SPECIES
h      1.007940 h.UPF
c     12.010700 c.UPF
n     14.006700 n.UPF
o     15.999400 o.UPF

ATOMIC_POSITIONS crystal
c     0.15106811     0.00570280     0.67589818
c     0.84893190     0.99429723     0.32410187
c     0.65106814     0.49429724     0.17589819
c     0.34893188     0.50570278     0.82410186
c     0.32208679     0.02164543     0.62845465
c     0.67791322     0.97835459     0.37154540
c     0.82208682     0.47835460     0.12845466
c     0.17791320     0.52164542     0.87154539
h     0.43647751     0.03253747     0.72599443
h     0.56352250     0.96746255     0.27400562
h     0.93647754     0.46746256     0.22599444
h     0.06352248     0.53253746     0.77400561
h     0.31289893     0.10145588     0.56487031
h     0.68710108     0.89854414     0.43512973
h     0.81289896     0.39854416     0.06487032
h     0.18710106     0.60145586     0.93512972
c     0.33994629     0.90877056     0.54840091
c     0.66005372     0.09122947     0.45159913
c     0.83994632     0.59122948     0.04840092
c     0.16005370     0.40877054     0.95159913
h     0.48106558     0.87947638     0.56955028
h     0.51893443     0.12052365     0.43044977
h     0.98106561     0.62052366     0.06955029
h     0.01893441     0.37947636     0.93044976
h     0.28219251     0.91871275     0.43202886
h     0.71780750     0.08128727     0.56797118
h     0.78219254     0.58128729     0.93202887
h     0.21780748     0.41871274     0.06797118
c     0.22686706     0.81928444     0.60463177
c     0.77313295     0.18071558     0.39536828
c     0.72686709     0.68071560     0.10463178
c     0.27313292     0.31928442     0.89536827
h     0.31484145     0.76780423     0.69418546
h     0.68515856     0.23219579     0.30581459
h     0.81484148     0.73219580     0.19418546
h     0.18515853     0.26780422     0.80581458
c     0.12693843     0.72808129     0.49525687
c     0.87306157     0.27191874     0.50474318
c     0.62693846     0.77191875     0.99525687
c     0.37306155     0.22808127     0.00474317
c     0.96013890     0.69065487     0.52270209
c     0.03986111     0.30934515     0.47729795
c     0.46013893     0.80934517     0.02270210
c     0.53986109     0.19065486     0.97729795
c     0.73102412     0.57705690     0.52472771
c     0.26897588     0.42294313     0.47527234
c     0.23102415     0.92294314     0.02472772
c     0.76897586     0.07705688     0.97527233
h     0.64715472     0.50075955     0.48900103
h     0.35284529     0.49924047     0.51099901
h     0.14715475     0.99924049     0.98900104
h     0.85284527     0.00075954     0.01099901
c     0.73359716     0.66216121     0.62466420
c     0.26640285     0.33783882     0.37533585
c     0.23359719     0.83783883     0.12466420
c     0.76640283     0.16216119     0.87533584
h     0.64115721     0.66862292     0.69071462
h     0.35884280     0.33137710     0.30928543
h     0.14115724     0.83137712     0.19071462
h     0.85884278     0.16862290     0.80928542
c     0.88237704     0.73605386     0.62330436
c     0.11762297     0.26394616     0.37669568
c     0.38237707     0.76394618     0.12330437
c     0.61762295     0.23605385     0.87669568
c     0.95756122     0.84092209     0.71021747
c     0.04243879     0.15907793     0.28978257
c     0.45756125     0.65907795     0.21021748
c     0.54243877     0.34092208     0.78978257
h     0.85317380     0.90762833     0.70590461
h     0.14682621     0.09237169     0.29409543
h     0.35317383     0.59237171     0.20590462
h     0.64682619     0.40762832     0.79409543
h     0.00984740     0.81660922     0.82457509
h     0.99015261     0.18339081     0.17542496
h     0.50984743     0.68339082     0.32457509
h     0.49015258     0.31660920     0.67542495
n     0.10051340     0.89163901     0.65710495
n     0.89948661     0.10836101     0.34289509
n     0.60051343     0.60836102     0.15710496
n     0.39948659     0.39163900     0.84289509
o     0.07163476     0.08126344     0.72731391
o     0.92836525     0.91873658     0.27268614
o     0.57163479     0.41873659     0.22731391
o     0.42836522     0.58126343     0.77268613
o     0.19325373     0.68696465     0.40360851
o     0.80674628     0.31303537     0.59639153
o     0.69325376     0.81303539     0.90360852
o     0.30674625     0.18696464     0.09639153
o     0.86586369     0.59298922     0.46016171
o     0.13413632     0.40701081     0.53983834
o     0.36586372     0.90701082     0.96016171
o     0.63413630     0.09298920     0.03983833

K_POINTS automatic
2 2 2 1 1 1

CELL_PARAMETERS cubic
   14.444883000000     0.000000000000    -0.039259000000
    0.000000000000    21.650436000000     0.000000000000
   -5.152327000000     0.000000000000    17.600804000000
