&control
 title='crystal',
 prefix='crystal',
 pseudo_dir='.',
 calculation='vc-relax',
/
&system
 ibrav=0,
 celldm(1)=1.0,
 nat=    88,
 ntyp=  4,
 ecutwfc=60.0,
 ecutrho=600.0,
 xdm=.true.,
 xdm_a1=0.4073,
 xdm_a2=2.4150,
/
&electrons
 conv_thr = 1d-8,
/
&ions
/
&cell
/
ATOMIC_SPECIES
h      1.007940 h.UPF
c     12.010700 c.UPF
o     15.999400 o.UPF
f     18.998403 f.UPF

ATOMIC_POSITIONS crystal
o     0.15245584     0.84845815     0.64853386
o     0.84754414     0.34845816     0.35146614
o     0.05507340     0.52691879     0.57764616
o     0.94492658     0.02691880     0.42235384
h     0.02445108     0.51914732     0.64998825
h     0.97554891     0.01914733     0.35001175
f     0.25017936     0.30281267     0.49831170
f     0.74982062     0.80281268     0.50168830
c     0.18437263     0.72763920     0.47644393
c     0.81562735     0.22763921     0.52355607
h     0.22173636     0.90503601     0.46660445
h     0.77826362     0.40503602     0.53339555
c     0.25247922     0.51211017     0.43804933
c     0.74752076     0.01211018     0.56195067
c     0.14371174     0.58060791     0.38066305
c     0.85628824     0.08060792     0.61933695
h     0.07280374     0.46174053     0.39120322
h     0.92719624     0.96174054     0.60879678
h     0.14453354     0.66767739     0.30490745
h     0.85546644     0.16767739     0.69509255
c     0.12874406     0.70526058     0.57433503
c     0.87125592     0.20526059     0.42566497
c     0.36365590     0.55259277     0.39630128
c     0.63634408     0.05259278     0.60369872
c     0.44906092     0.37865425     0.41241006
c     0.55093906     0.87865426     0.58758994
h     0.43498393     0.21647155     0.45750281
h     0.56501606     0.71647156     0.54249719
c     0.55242872     0.41340587     0.37081391
c     0.44757126     0.91340588     0.62918609
h     0.61811391     0.27697678     0.38388545
h     0.38188607     0.77697679     0.61611455
c     0.57239792     0.62180200     0.31366754
c     0.42760206     0.12180201     0.68633246
h     0.65401282     0.64798912     0.28298568
h     0.34598716     0.14798913     0.71701432
c     0.48748725     0.79603760     0.29792747
c     0.51251273     0.29603761     0.70207253
h     0.50136866     0.95985212     0.25353285
h     0.49863132     0.45985213     0.74646715
c     0.38378529     0.76179992     0.33864917
c     0.61621469     0.26179993     0.66135083
h     0.31888575     0.89976791     0.32460705
h     0.68111423     0.39976792     0.67539295
o     0.97349215     0.50295246     0.75706237
o     0.02650783     0.00295247     0.24293763
o     0.05054973     0.85777968     0.81677811
o     0.94945025     0.35777969     0.18322189
h     0.09141339     0.84856130     0.74835625
h     0.90858659     0.34856131     0.25164375
f     0.74867820     0.69363787     0.79754818
f     0.25132179     0.19363788     0.20245182
c     0.92144518     0.66452432     0.91833361
c     0.07855480     0.16452433     0.08166639
h     0.95913689     0.76727282     0.98452458
h     0.04086309     0.26727283     0.01547542
c     0.79166833     0.68492969     0.90156172
c     0.20833166     0.18492970     0.09843828
c     0.84456358     0.45203809     0.93647196
c     0.15543640     0.95203810     0.06352804
h     0.84352216     0.31064699     0.87736702
h     0.15647782     0.81064700     0.12263298
h     0.83635846     0.39266439     0.01611753
h     0.16364152     0.89266440     0.98388247
c     0.98448296     0.66627138     0.82399873
c     0.01551703     0.16627139     0.17600127
c     0.73131058     0.85040827     0.96905934
c     0.26868940     0.35040828     0.03094066
c     0.64638027     0.00229376     0.92391304
c     0.35361971     0.50229377     0.07608696
h     0.62297575     0.99280089     0.84043113
h     0.37702423     0.49280089     0.15956887
c     0.59298816     0.16806897     0.98530232
c     0.40701182     0.66806898     0.01469768
h     0.52742867     0.28584987     0.94916111
h     0.47257131     0.78584988     0.05083889
c     0.62374565     0.18424837     0.09227300
c     0.37625433     0.68424838     0.90772700
h     0.58305515     0.31585360     0.13993657
h     0.41694483     0.81585361     0.86006343
c     0.70735949     0.03033778     0.13785405
c     0.29264049     0.53033779     0.86214595
h     0.73164921     0.04177646     0.22133094
h     0.26835077     0.54177647     0.77866906
c     0.76076463     0.86345419     0.07708000
c     0.23923536     0.36345420     0.92292000
h     0.82592549     0.74536966     0.11410018
h     0.17407449     0.24536967     0.88589982

K_POINTS automatic
2 2 2 1 1 1

CELL_PARAMETERS cubic
   22.481776000000     0.000000000000    -0.053440000000
    0.000000000000    10.415197000000     0.000000000000
   -1.986209000000     0.000000000000    24.187217000000
