%nprocs=8
%mem=4GB
#p b3lyp aug-cc-pvqz output=wfx scf=(conver=6) int=(grid=ultrafine)

title

0 1
C   -2.46891156    0.12607812    0.00000000
H   -3.57918367    0.18293782    0.00000000
O   -1.78100213    1.15283979    0.00000000
N   -1.94185120   -1.13321981    0.00000000
H   -0.92564680   -1.24163694    0.00000000
H   -2.53922912   -1.94924812    0.00000000
C    2.52454538   -0.12964879    0.00000000
H    3.62661434   -0.18608839    0.00000000
N    1.74484282   -1.17452020    0.00000000
H    2.32376341   -2.02083242    0.00000000
N    2.00367207    1.13832154    0.00000000
H    0.99293782    1.25860595    0.00000000
H    2.60169997    1.95068341    0.00000000

HBC6_5_1.25_dimer.wfx

