%nprocs=8
%mem=4GB
#p b3lyp aug-cc-pvqz output=wfx scf=(conver=6) int=(grid=ultrafine)

title

0 1
C    2.19018321   -0.20760327    0.00000000
H    3.28964362   -0.31181902    0.00000000
O    1.41218943   -1.15341758    0.00000000
O    1.81652565    1.08773186    0.00000000
H    0.83371879    1.11760094    0.00000000

HBC6_1_1.22_monomerA.wfx

