%nprocs=8
%mem=4GB
#p b3lyp aug-cc-pvqz output=wfx scf=(conver=6) int=(grid=ultrafine)

title

0 1
C   -2.19607517    0.13136009    0.00000000
H   -3.30472871    0.19767514    0.00000000
O   -1.49802227    1.15698038    0.00000000
N   -1.68120383   -1.12742404    0.00000000
H   -0.66343356   -1.24723827    0.00000000
H   -2.29010119   -1.93517379    0.00000000

HBC6_2_1.1_monomerB.wfx

