%nprocs=8
%mem=4GB
#p b3lyp aug-cc-pvqz output=wfx scf=(conver=6) int=(grid=ultrafine)

title

0 1
C    2.08997101   -0.20499428    0.00000000
H    3.18887965   -0.31278045    0.00000000
O    1.31635032   -1.15775239    0.00000000
O    1.71259791    1.08444718    0.00000000
H    0.72653811    1.11533705    0.00000000

HBC6_1_1.17_monomerA.wfx

