%nprocs=8
%mem=4GB
#p b3lyp aug-cc-pvqz output=wfx scf=(conver=6) int=(grid=ultrafine)

title

0 1
C   -3.49547568    0.17791547    0.00000000
H   -4.60006941    0.23413795    0.00000000
O   -2.74388512    1.13278853    0.00000000
O   -3.10454835   -1.12465267    0.00000000
H   -2.12977769   -1.12626632    0.00000000

HBC6_1_1.94_monomerB.wfx

