%nprocs=8
%mem=4GB
#p b3lyp aug-cc-pvqz output=wfx scf=(conver=6) int=(grid=ultrafine)

title

0 1
C   -1.85851203    0.15849692    0.00000000
H   -2.96318957    0.25525336    0.00000000
O   -1.17920577    1.19001178    0.00000000
O   -1.44984324   -1.09154980    0.00000000
H   -0.40704328   -1.13449846    0.00000000
C    1.92699581   -0.17306795    0.00000000
H    3.02703743   -0.26941835    0.00000000
N    1.13373794   -1.21065729    0.00000000
H    1.67232278   -2.07790126    0.00000000
N    1.51877490    1.11463167    0.00000000
H    0.51255074    1.32398473    0.00000000
H    2.21287037    1.84762526    0.00000000

HBC6_6_1.06_dimer.wfx

