%nprocs=8
%mem=4GB
#p b3lyp aug-cc-pvqz output=wfx scf=(conver=6) int=(grid=ultrafine)

title

0 1
C   -2.46965740    0.18532900    0.00000000
H   -3.57215472    0.26340833    0.00000000
O   -1.71425854    1.14365130    0.00000000
O   -2.07552238   -1.10913287    0.00000000
H   -1.09609784   -1.11892804    0.00000000
C    2.51785158   -0.16788849    0.00000000
H    3.62685662   -0.24642870    0.00000000
O    1.78274154   -1.15890784    0.00000000
N    2.05645986    1.11912237    0.00000000
H    1.05236659    1.28627334    0.00000000
H    2.69518733    1.90341149    0.00000000

HBC6_4_1.32_dimer.wfx

