%nprocs=8
%mem=4GB
#p b3lyp aug-cc-pvqz output=wfx scf=(conver=6) int=(grid=ultrafine)

title

0 1
C   -2.37053947    0.18335144    0.00000000
H   -3.47255698    0.26439714    0.00000000
O   -1.61858011    1.14618338    0.00000000
O   -1.96882669   -1.10687094    0.00000000
H   -0.98773609   -1.11271132    0.00000000
C    2.41653317   -0.16870436    0.00000000
H    3.52489949   -0.25021697    0.00000000
O    1.67809174   -1.15922822    0.00000000
N    1.95399445    1.11666331    0.00000000
H    0.94841269    1.28120182    0.00000000
H    2.59207415    1.90149404    0.00000000

HBC6_4_1.26_dimer.wfx

