%nprocs=8
%mem=4GB
#p b3lyp aug-cc-pvqz output=wfx scf=(conver=6) int=(grid=ultrafine)

title

0 1
C   -2.66850366    0.18514825    0.00000000
H   -3.77181125    0.25702537    0.00000000
O   -1.91234427    1.14028296    0.00000000
O   -2.28050679   -1.11367376    0.00000000
H   -1.30314992   -1.12550085    0.00000000
C    2.72007445   -0.16590118    0.00000000
H    3.83020333   -0.23822269    0.00000000
O    1.98935069   -1.15730079    0.00000000
N    2.26253222    1.12413593    0.00000000
H    1.26110058    1.29739823    0.00000000
H    2.90434733    1.90588628    0.00000000

HBC6_4_1.42_dimer.wfx

