%nprocs=8
%mem=4GB
#p b3lyp aug-cc-pvqz output=wfx scf=(conver=6) int=(grid=ultrafine)

title

0 1
C   -2.37053947    0.18335144    0.00000000
H   -3.47255698    0.26439714    0.00000000
O   -1.61858011    1.14618338    0.00000000
O   -1.96882669   -1.10687094    0.00000000
H   -0.98773609   -1.11271132    0.00000000

HBC6_4_1.26_monomerA.wfx

