%nprocs=8
%mem=4GB
#p b3lyp aug-cc-pvqz output=wfx scf=(conver=6) int=(grid=ultrafine)

title

0 1
C   -3.95866293    0.16221564    0.00000000
H   -5.06397335    0.20411777    0.00000000
O   -3.22210995    1.12855078    0.00000000
O   -3.54823170   -1.13429286    0.00000000
H   -2.57357553   -1.11984997    0.00000000

HBC6_4_2.11_monomerA.wfx

