%nprocs=8
%mem=4GB
#p b3lyp aug-cc-pvqz output=wfx scf=(conver=6) int=(grid=ultrafine)

title

0 1
C   -2.49138346    0.20738986    0.00000000
H   -3.59280864    0.29907564    0.00000000
O   -1.71273443    1.14581025    0.00000000
O   -2.12758466   -1.09795049    0.00000000
H   -1.14991023   -1.12938889    0.00000000

HBC6_1_1.39_monomerB.wfx

