%nprocs=8
%mem=4GB
#p b3lyp aug-cc-pvqz output=wfx scf=(conver=6) int=(grid=ultrafine)

title

0 1
C    2.89724776   -0.12632587    0.00000000
H    4.00054647   -0.17443193    0.00000000
N    2.12821587   -1.17451446    0.00000000
H    2.71529330   -2.01553546    0.00000000
N    2.37424699    1.14355972    0.00000000
H    1.36542121    1.26070273    0.00000000
H    2.97042339    1.95703238    0.00000000
C   -2.89724776    0.12632587    0.00000000
H   -4.00054647    0.17443193    0.00000000
N   -2.12821587    1.17451446    0.00000000
H   -2.71529330    2.01553546    0.00000000
N   -2.37424699   -1.14355972    0.00000000
H   -1.36542121   -1.26070273    0.00000000
H   -2.97042339   -1.95703238    0.00000000

HBC6_3_1.41_dimer.wfx

