%nprocs=8
%mem=4GB
#p b3lyp aug-cc-pvqz output=wfx scf=(conver=6) int=(grid=ultrafine)

title

0 1
C   -2.02654503    0.16495904    0.00000000
H   -3.12746053    0.25719799    0.00000000
O   -1.31615809    1.16794329    0.00000000
O   -1.58476587   -1.09656137    0.00000000
H   -0.58990682   -1.08671689    0.00000000
C    2.05914052   -0.17735549    0.00000000
H    3.16555405   -0.27005509    0.00000000
O    1.30164029   -1.16302967    0.00000000
N    1.62857259    1.10890330    0.00000000
H    0.62159334    1.29571943    0.00000000
H    2.29594551    1.86920816    0.00000000

HBC6_4_1.08_dimer.wfx

