%nprocs=8
%mem=4GB
#p b3lyp aug-cc-pvqz output=wfx scf=(conver=6) int=(grid=ultrafine)

title

0 1
C    1.87381606   -0.17308101    0.00000000
H    2.97427347   -0.27204647    0.00000000
N    1.09844368   -1.22316593    0.00000000
H    1.64649981   -2.08331650    0.00000000
N    1.48635545    1.11647699    0.00000000
H    0.48139283    1.34214247    0.00000000
H    2.19917472    1.83148239    0.00000000

HBC6_6_1.03_monomerB.wfx

