%nprocs=8
%mem=4GB
#p b3lyp aug-cc-pvqz output=wfx scf=(conver=6) int=(grid=ultrafine)

title

0 1
C    1.94550597   -0.13231698    0.00000000
H    3.05506108   -0.20777961    0.00000000
O    1.27444696   -1.17984091    0.00000000
N    1.46671040    1.12708677    0.00000000
H    0.44465999    1.27731960    0.00000000
H    2.11884877    1.90053586    0.00000000

HBC6_2_0.97_monomerA.wfx

