%nprocs=8
%mem=4GB
#p b3lyp aug-cc-pvqz output=wfx scf=(conver=6) int=(grid=ultrafine)

title

0 1
C    4.99755344   -0.15642268    0.00000000
H    6.10311728   -0.19102667    0.00000000
O    4.26634092   -1.12629100    0.00000000
O    4.57854479    1.13834246    0.00000000
H    3.60431482    1.11461219    0.00000000

HBC6_1_2.78_monomerA.wfx

