%nprocs=8
%mem=4GB
#p b3lyp aug-cc-pvqz output=wfx scf=(conver=6) int=(grid=ultrafine)

title

0 1
C   -3.95119391    0.13180726    0.00000000
H   -5.06421494    0.16795264    0.00000000
O   -3.25700879    1.14506295    0.00000000
N   -3.45900266   -1.14786697    0.00000000
H   -2.45511963   -1.29313383    0.00000000
H   -4.07950006   -1.94648494    0.00000000

HBC6_5_2.0_monomerA.wfx

