%nprocs=8
%mem=4GB
#p b3lyp aug-cc-pvqz output=wfx scf=(conver=6) int=(grid=ultrafine)

title

0 1
C    2.29604573   -0.13481753    0.00000000
H    3.40501312   -0.19993307    0.00000000
O    1.59337012   -1.15484644    0.00000000
N    1.78457816    1.12819246    0.00000000
H    0.76947608    1.25110815    0.00000000
H    2.39273653    1.93641581    0.00000000
C   -2.29604573    0.13481753    0.00000000
H   -3.40501312    0.19993307    0.00000000
O   -1.59337012    1.15484644    0.00000000
N   -1.78457816   -1.12819246    0.00000000
H   -0.76947608   -1.25110815    0.00000000
H   -2.39273653   -1.93641581    0.00000000

HBC6_2_1.15_dimer.wfx

