%nprocs=8
%mem=4GB
#p b3lyp aug-cc-pvqz output=wfx scf=(conver=6) int=(grid=ultrafine)

title

0 1
C    1.84665575   -0.11119213    0.00000000
H    2.95429208   -0.17788590    0.00000000
N    1.19156721   -1.24220748    0.00000000
H    1.86789891   -2.00737666    0.00000000
N    1.41335406    1.15979090    0.00000000
H    0.38141976    1.36618041    0.00000000
H    2.12308262    1.87905403    0.00000000

HBC6_3_0.9_monomerA.wfx

