%nprocs=8
%mem=4GB
#p b3lyp aug-cc-pvqz output=wfx scf=(conver=6) int=(grid=ultrafine)

title

0 1
C    2.01860067   -0.10816415    0.00000000
H    3.12111663   -0.17197486    0.00000000
N    1.30940050   -1.20735856    0.00000000
H    1.94334630   -2.01030940    0.00000000
N    1.49223980    1.13988904    0.00000000
H    0.46948873    1.25930607    0.00000000
H    2.10902806    1.93883512    0.00000000

HBC6_5_1.0_monomerB.wfx

