%nprocs=8
%mem=4GB
#p b3lyp aug-cc-pvqz output=wfx scf=(conver=6) int=(grid=ultrafine)

title

0 1
C   -2.69240165    0.20242478    0.00000000
H   -3.79490134    0.28531481    0.00000000
O   -1.91833290    1.14219531    0.00000000
O   -2.32770522   -1.10482267    0.00000000
H   -1.35155974   -1.13337052    0.00000000

HBC6_1_1.5_monomerB.wfx

