%nprocs=8
%mem=4GB
#p b3lyp aug-cc-pvqz output=wfx scf=(conver=6) int=(grid=ultrafine)

title

0 1
C   -2.17188140    0.11988045    0.00000000
H   -3.28175966    0.17894887    0.00000000
O   -1.48523553    1.15415106    0.00000000
N   -1.64740473   -1.13310658    0.00000000
H   -0.62269709   -1.24587569    0.00000000
H   -2.25726874   -1.94034051    0.00000000

HBC6_5_1.1_monomerA.wfx

