%nprocs=8
%mem=4GB
#p b3lyp aug-cc-pvqz output=wfx scf=(conver=6) int=(grid=ultrafine)

title

0 1
C   -1.90625728    0.15789816    0.00000000
H   -3.00992908    0.25165586    0.00000000
O   -1.21798842    1.18183546    0.00000000
O   -1.48225867   -1.09353763    0.00000000
H   -0.45272461   -1.11834425    0.00000000

HBC6_6_1.08_monomerA.wfx

