%nprocs=8
%mem=4GB
#p b3lyp aug-cc-pvqz output=wfx scf=(conver=6) int=(grid=ultrafine)

title

0 1
C   -3.42232127    0.16653527    0.00000000
H   -4.52734265    0.21545352    0.00000000
O   -2.68394725    1.13198626    0.00000000
O   -3.01424928   -1.12993738    0.00000000
H   -2.03892166   -1.11784311    0.00000000
C    3.57083085   -0.14304496    0.00000000
H    4.67461743   -0.19190855    0.00000000
N    2.78161679   -1.17225021    0.00000000
H    3.34675787   -2.02791543    0.00000000
N    3.07956461    1.14215114    0.00000000
H    2.07713948    1.28822281    0.00000000
H    3.69667809    1.93998571    0.00000000

HBC6_6_1.94_dimer.wfx

