%nprocs=8
%mem=4GB
#p b3lyp aug-cc-pvqz output=wfx scf=(conver=6) int=(grid=ultrafine)

title

0 1
C    1.86213779   -0.12252360    0.00000000
H    2.96689030   -0.20048072    0.00000000
N    1.19568826   -1.24658561    0.00000000
H    1.86217213   -2.02059464    0.00000000
N    1.41233657    1.14451863    0.00000000
H    0.39516324    1.32705396    0.00000000
H    2.09724900    1.88616308    0.00000000

HBC6_5_0.93_monomerB.wfx

