%nprocs=8
%mem=4GB
#p b3lyp aug-cc-pvqz output=wfx scf=(conver=6) int=(grid=ultrafine)

title

0 1
C    5.04698843   -0.13094494    0.00000000
H    6.16016561   -0.16252342    0.00000000
O    4.35243631   -1.14332963    0.00000000
N    4.55565401    1.14984957    0.00000000
H    3.55239498    1.29639409    0.00000000
H    5.17702398    1.94785550    0.00000000

HBC6_4_2.63_monomerB.wfx

