%nprocs=8
%mem=4GB
#p b3lyp aug-cc-pvqz output=wfx scf=(conver=6) int=(grid=ultrafine)

title

0 1
C   -2.05155512    0.15829850    0.00000000
H   -3.15369321    0.24486622    0.00000000
O   -1.34536667    1.16523819    0.00000000
O   -1.60135034   -1.09941548    0.00000000
H   -0.59665904   -1.08819693    0.00000000

HBC6_6_1.17_monomerA.wfx

