%nprocs=8
%mem=4GB
#p b3lyp aug-cc-pvqz output=wfx scf=(conver=6) int=(grid=ultrafine)

title

0 1
C    2.00784676   -0.17861908    0.00000000
H    3.11415420   -0.27330577    0.00000000
O    1.25185521   -1.16673528    0.00000000
N    1.58801714    1.10829528    0.00000000
H    0.58149375    1.30380344    0.00000000
H    2.26561575    1.85952935    0.00000000

HBC6_4_1.05_monomerB.wfx

