%nprocs=8
%mem=4GB
#p b3lyp aug-cc-pvqz output=wfx scf=(conver=6) int=(grid=ultrafine)

title

0 1
C   -1.92862050    0.16119369    0.00000000
H   -3.03011644    0.25790262    0.00000000
O   -1.23743130    1.18028070    0.00000000
O   -1.49236998   -1.09274175    0.00000000
H   -0.48861382   -1.09313129    0.00000000

HBC6_4_1.03_monomerA.wfx

