%nprocs=8
%mem=4GB
#p b3lyp aug-cc-pvqz output=wfx scf=(conver=6) int=(grid=ultrafine)

title

0 1
C    2.29747604   -0.10772948    0.00000000
H    3.39968456   -0.15941244    0.00000000
N    1.54604150   -1.17743388    0.00000000
H    2.14951038   -2.00594097    0.00000000
N    1.74263302    1.14129835    0.00000000
H    0.72137666    1.23384217    0.00000000
H    2.32599570    1.96451573    0.00000000
C   -2.29747604    0.10772948    0.00000000
H   -3.39968456    0.15941244    0.00000000
N   -1.54604150    1.17743388    0.00000000
H   -2.14951038    2.00594097    0.00000000
N   -1.74263302   -1.14129835    0.00000000
H   -0.72137666   -1.23384217    0.00000000
H   -2.32599570   -1.96451573    0.00000000

HBC6_3_1.12_dimer.wfx

