%nprocs=8
%mem=4GB
#p b3lyp aug-cc-pvqz output=wfx scf=(conver=6) int=(grid=ultrafine)

title

0 1
C   -2.24680225    0.16448460    0.00000000
H   -3.34889590    0.24405206    0.00000000
O   -1.52408934    1.15343926    0.00000000
O   -1.80181709   -1.10653912    0.00000000
H   -0.81274434   -1.08325157    0.00000000
C    2.34125676   -0.16675788    0.00000000
H    3.44152405   -0.24619349    0.00000000
N    1.51181334   -1.17441280    0.00000000
H    2.03873187   -2.05311586    0.00000000
N    1.86930785    1.11945644    0.00000000
H    0.86293152    1.27779567    0.00000000
H    2.49986583    1.90702451    0.00000000

HBC6_6_1.28_dimer.wfx

