%nprocs=8
%mem=4GB
#p b3lyp aug-cc-pvqz output=wfx scf=(conver=6) int=(grid=ultrafine)

title

0 1
C    2.03202506   -0.17151568    0.00000000
H    3.13158097   -0.26227695    0.00000000
N    1.21422382   -1.19144395    0.00000000
H    1.73970852   -2.06839079    0.00000000
N    1.59233540    1.11373305    0.00000000
H    0.58444574    1.29777092    0.00000000
H    2.25678662    1.87343146    0.00000000

HBC6_6_1.11_monomerB.wfx

