%nprocs=8
%mem=4GB
#p b3lyp aug-cc-pvqz output=wfx scf=(conver=6) int=(grid=ultrafine)

title

0 1
C   -1.73857937    0.19960660    0.00000000
H   -2.84972331    0.32717722    0.00000000
O   -1.07441392    1.24725582    0.00000000
N   -1.42842301   -1.10192478    0.00000000
H   -0.43552514   -1.39016691    0.00000000
H   -2.20654586   -1.74794356    0.00000000

HBC6_2_0.88_monomerB.wfx

