%nprocs=8
%mem=4GB
#p b3lyp aug-cc-pvqz output=wfx scf=(conver=6) int=(grid=ultrafine)

title

0 1
C   -3.19679060    0.14329444    0.00000000
H   -4.30890404    0.19314433    0.00000000
O   -2.49028966    1.14973005    0.00000000
N   -2.71746327   -1.13986108    0.00000000
H   -1.71465256   -1.29686270    0.00000000
H   -3.34615668   -1.93211051    0.00000000

HBC6_2_1.6_monomerB.wfx

