%nprocs=8
%mem=4GB
#p b3lyp aug-cc-pvqz output=wfx scf=(conver=6) int=(grid=ultrafine)

title

0 1
C   -3.45655227    0.13564152    0.00000000
H   -4.56921064    0.17826784    0.00000000
O   -2.75931575    1.14757333    0.00000000
N   -2.96668321   -1.14421239    0.00000000
H   -1.96251864   -1.29094605    0.00000000
H   -3.58850495   -1.94176941    0.00000000

HBC6_5_1.75_monomerA.wfx

