%nprocs=8
%mem=4GB
#p b3lyp aug-cc-pvqz output=wfx scf=(conver=6) int=(grid=ultrafine)

title

0 1
C   -2.19748298    0.10521494    0.00000000
H   -3.29994728    0.15800065    0.00000000
N   -1.45477374    1.18214133    0.00000000
H   -2.06523281    2.00494056    0.00000000
N   -1.64750275   -1.14225070    0.00000000
H   -0.62306965   -1.24181216    0.00000000
H   -2.24041883   -1.95893145    0.00000000

HBC6_3_1.07_monomerB.wfx

