%nprocs=8
%mem=4GB
#p b3lyp aug-cc-pvqz output=wfx scf=(conver=6) int=(grid=ultrafine)

title

0 1
C   -2.86354863    0.13635439    0.00000000
H   -3.97519119    0.18862454    0.00000000
O   -2.16694926    1.15157613    0.00000000
N   -2.36429186   -1.13776075    0.00000000
H   -1.35648460   -1.27362001    0.00000000
H   -2.97920858   -1.94060039    0.00000000

HBC6_5_1.45_monomerA.wfx

