%nprocs=8
%mem=4GB
#p b3lyp aug-cc-pvqz output=wfx scf=(conver=6) int=(grid=ultrafine)

title

0 1
C   -3.16535897    0.17586134    0.00000000
H   -4.26988030    0.23307508    0.00000000
O   -2.41665650    1.13403709    0.00000000
O   -2.77135326   -1.12414764    0.00000000
H   -1.79587783   -1.12655724    0.00000000
C    3.22607312   -0.15521212    0.00000000
H    4.33781868   -0.21280006    0.00000000
O    2.50723536   -1.15220261    0.00000000
N    2.76274851    1.13469399    0.00000000
H    1.76253556    1.30519593    0.00000000
H    3.40173066    1.91872273    0.00000000

HBC6_4_1.68_dimer.wfx

