%nprocs=8
%mem=4GB
#p b3lyp aug-cc-pvqz output=wfx scf=(conver=6) int=(grid=ultrafine)

title

0 1
C   -1.97758328    0.16248610    0.00000000
H   -3.07869694    0.25672827    0.00000000
O   -1.27661752    1.17355076    0.00000000
O   -1.53599418   -1.09470560    0.00000000
H   -0.53703710   -1.08809981    0.00000000

HBC6_4_1.05_monomerA.wfx

