%nprocs=8
%mem=4GB
#p b3lyp aug-cc-pvqz output=wfx scf=(conver=6) int=(grid=ultrafine)

title

0 1
C   -3.91213194    0.16018637    0.00000000
H   -5.01752318    0.20105168    0.00000000
O   -3.17868840    1.12881552    0.00000000
O   -3.49736776   -1.13502496    0.00000000
H   -2.52261475   -1.11615900    0.00000000

HBC6_6_2.22_monomerA.wfx

