%nprocs=8
%mem=4GB
#p b3lyp aug-cc-pvqz output=wfx scf=(conver=6) int=(grid=ultrafine)

title

0 1
C    2.29051747   -0.20864206    0.00000000
H    3.39063528   -0.30885122    0.00000000
O    1.51085984   -1.15029332    0.00000000
O    1.92095251    1.09113093    0.00000000
H    0.94036724    1.12135540    0.00000000
C   -2.29051747    0.20864206    0.00000000
H   -3.39063528    0.30885122    0.00000000
O   -1.51085984    1.15029332    0.00000000
O   -1.92095251   -1.09113093    0.00000000
H   -0.94036724   -1.12135540    0.00000000

HBC6_1_1.28_dimer.wfx

