%nprocs=8
%mem=4GB
#p b3lyp aug-cc-pvqz output=wfx scf=(conver=6) int=(grid=ultrafine)

title

0 1
C   -2.86735875    0.18206412    0.00000000
H   -3.97126829    0.24767419    0.00000000
O   -2.11347561    1.13744992    0.00000000
O   -2.47888370   -1.11819686    0.00000000
H   -1.50260023   -1.12749792    0.00000000

HBC6_4_1.53_monomerA.wfx

