%nprocs=8
%mem=4GB
#p b3lyp aug-cc-pvqz output=wfx scf=(conver=6) int=(grid=ultrafine)

title

0 1
C    5.10495503   -0.12588632    0.00000000
H    6.20955485   -0.15655909    0.00000000
N    4.33254137   -1.16667991    0.00000000
H    4.91019302   -2.01389087    0.00000000
N    4.59328914    1.15218338    0.00000000
H    3.58879137    1.28039339    0.00000000
H    5.19724654    1.95996355    0.00000000

HBC6_6_2.78_monomerB.wfx

