%nprocs=8
%mem=4GB
#p b3lyp aug-cc-pvqz output=wfx scf=(conver=6) int=(grid=ultrafine)

title

0 1
C   -1.83088576    0.16446589    0.00000000
H   -2.93370803    0.26905294    0.00000000
O   -1.15951512    1.19856960    0.00000000
O   -1.42420415   -1.08772422    0.00000000
H   -0.40924981   -1.11532142    0.00000000

HBC6_4_0.97_monomerA.wfx

