&control
 title='crystal',
 prefix='crystal',
 pseudo_dir='.',
 calculation='vc-relax',
/
&system
 ibrav=0,
 celldm(1)=1.0,
 nat=    76,
 ntyp=  4,
 ecutwfc=60.0,
 ecutrho=600.0,
 xdm=.true.,
 xdm_a1=0.4073,
 xdm_a2=2.4150,
/
&electrons
 conv_thr = 1d-8,
/
&ions
/
&cell
/
ATOMIC_SPECIES
h      1.007940 h.UPF
c     12.010700 c.UPF
n     14.006700 n.UPF
o     15.999400 o.UPF

ATOMIC_POSITIONS crystal
o     0.09406150     0.25051637     0.98618435
o     0.90593853     0.74948363     0.01381568
o     0.09406148     0.24948363     0.48618434
o     0.90593855     0.75051638     0.51381570
o     0.83408805     0.00946941     0.72652840
o     0.16591199     0.99053060     0.27347164
o     0.83408802     0.49053059     0.22652838
o     0.16591201     0.50946942     0.77347165
n     0.03516024     0.12586949     0.72269204
n     0.96483979     0.87413052     0.27730799
n     0.03516021     0.37413052     0.22269203
n     0.96483982     0.62586949     0.77730801
n     0.12678592     0.15309963     0.19567203
n     0.87321411     0.84690038     0.80432801
n     0.12678589     0.34690038     0.69567201
n     0.87321414     0.65309963     0.30432803
c     0.19680501     0.11839852     0.90767496
c     0.80319502     0.88160148     0.09232507
c     0.19680499     0.38160148     0.40767495
c     0.80319505     0.61839853     0.59232509
c     0.13088845     0.17923858     0.03344060
c     0.86911158     0.82076142     0.96655943
c     0.13088843     0.32076142     0.53344059
c     0.86911161     0.67923859     0.46655945
c     0.86719766     0.07044135     0.64413247
c     0.13280238     0.92955865     0.35586757
c     0.86719763     0.42955865     0.14413245
c     0.13280240     0.57044136     0.85586758
c     0.72179245     0.08519397     0.44894064
c     0.27820758     0.91480603     0.55105940
c     0.72179243     0.41480603     0.94894062
c     0.27820761     0.58519398     0.05105941
c     0.46715185     0.12943724     0.91363325
c     0.53284818     0.87056277     0.08636679
c     0.46715183     0.37056277     0.41363324
c     0.53284821     0.62943724     0.58636680
h     0.05624304     0.17389413     0.64543672
h     0.94375699     0.82610588     0.35456332
h     0.05624302     0.32610588     0.14543670
h     0.94375702     0.67389413     0.85456333
h     0.10608987     0.19248389     0.29276655
h     0.89391016     0.80751611     0.70723349
h     0.10608985     0.30751611     0.79276653
h     0.89391019     0.69248390     0.20723350
h     0.14823142     0.09409691     0.22739297
h     0.85176862     0.90590309     0.77260706
h     0.14823139     0.40590309     0.72739296
h     0.85176864     0.59409692     0.27260708
h     0.16815346     0.05902334     0.95489687
h     0.83184658     0.94097667     0.04510317
h     0.16815343     0.44097667     0.45489685
h     0.83184660     0.55902334     0.54510318
h     0.71881982     0.14776437     0.41206709
h     0.28118021     0.85223563     0.58793295
h     0.71881980     0.35223563     0.91206708
h     0.28118024     0.64776438     0.08793296
h     0.53421665     0.06292615     0.42522684
h     0.46578339     0.93707386     0.57477320
h     0.53421662     0.43707385     0.92522682
h     0.46578341     0.56292616     0.07477321
h     0.80636193     0.05171409     0.36041730
h     0.19363811     0.94828592     0.63958274
h     0.80636190     0.44828592     0.86041728
h     0.19363813     0.55171409     0.13958275
h     0.49551434     0.18718153     0.85794013
h     0.50448569     0.81281848     0.14205990
h     0.49551432     0.31281848     0.35794012
h     0.50448572     0.68718153     0.64205992
h     0.58732018     0.12604350     0.05387891
h     0.41267986     0.87395651     0.94612113
h     0.58732015     0.37395651     0.55387890
h     0.41267988     0.62604350     0.44612114
h     0.52244474     0.08300746     0.83440060
h     0.47755530     0.91699255     0.16559943
h     0.52244471     0.41699255     0.33440059
h     0.47755532     0.58300746     0.66559945

K_POINTS automatic
2 2 2 1 1 1

CELL_PARAMETERS cubic
   10.733640000000     0.000000000000    -0.056580000000
    0.000000000000    31.977410000000     0.000000000000
   -4.180939000000     0.000000000000    13.915643000000
