&control
 title='crystal',
 prefix='crystal',
 pseudo_dir='.',
 calculation='vc-relax',
/
&system
 ibrav=0,
 celldm(1)=1.0,
 nat=    32,
 ntyp=  5,
 ecutwfc=60.0,
 ecutrho=600.0,
 xdm=.true.,
 xdm_a1=0.4073,
 xdm_a2=2.4150,
/
&electrons
 conv_thr = 1d-8,
/
&ions
/
&cell
/
ATOMIC_SPECIES
h      1.007940 h.UPF
c     12.010700 c.UPF
n     14.006700 n.UPF
o     15.999400 o.UPF
cl    35.453000 cl.UPF

ATOMIC_POSITIONS crystal
cl    0.66115350     0.20384888     0.43515938
cl    0.33884653     0.79615110     0.56484062
c     0.81965476     0.19754700     0.18731261
c     0.18034527     0.80245299     0.81268738
c     0.85030422     0.37185118     0.21324869
c     0.14969581     0.62814880     0.78675131
c     0.11068430     0.37217306     0.28965209
c     0.88931574     0.62782693     0.71034790
c     0.34273420     0.19816053     0.34081292
c     0.65726584     0.80183946     0.65918708
c     0.31183235     0.02267393     0.31465763
c     0.68816769     0.97732606     0.68534237
c     0.05049442     0.02385387     0.23774070
c     0.94950562     0.97614612     0.76225930
n     0.53171651     0.18611962     0.10833661
n     0.46828353     0.81388037     0.89166338
n     0.63566353     0.56547323     0.16063796
n     0.36433651     0.43452676     0.83936204
o     0.60680319     0.05634856     0.07735891
o     0.39319684     0.94365143     0.92264109
o     0.23606038     0.30536681     0.08241573
o     0.76393965     0.69463318     0.91758426
o     0.63773949     0.61086604     0.09269682
o     0.36226054     0.38913395     0.90730318
o     0.48707302     0.66939009     0.19328073
o     0.51292702     0.33060990     0.80671926
h     0.13862975     0.50848046     0.30931031
h     0.86137029     0.49151953     0.69068969
h     0.02347146     0.89028698     0.21600579
h     0.97652858     0.10971301     0.78399421
cl    0.59143116     0.80399165     0.37651229
cl    0.40856888     0.19600834     0.62348771

K_POINTS automatic
2 2 2 1 1 1

CELL_PARAMETERS cubic
    7.283353000000    -0.356788000000     0.611639000000
    1.908608000000    13.186661000000    -0.049894000000
  -14.529141000000     8.595155000000    29.779832000000
