&control
 title='crystal',
 prefix='crystal',
 pseudo_dir='.',
 calculation='vc-relax',
/
&system
 ibrav=0,
 celldm(1)=1.0,
 nat=    64,
 ntyp=  5,
 ecutwfc=60.0,
 ecutrho=600.0,
 xdm=.true.,
 xdm_a1=0.4073,
 xdm_a2=2.4150,
/
&electrons
 conv_thr = 1d-8,
/
&ions
/
&cell
/
ATOMIC_SPECIES
h      1.007940 h.UPF
c     12.010700 c.UPF
n     14.006700 n.UPF
o     15.999400 o.UPF
cl    35.453000 cl.UPF

ATOMIC_POSITIONS crystal
cl    0.24382051     0.22346032     0.38003379
cl    0.75617949     0.72346033     0.11996620
cl    0.25618234     0.77654089     0.88003724
cl    0.74381766     0.27654089     0.61996274
cl    0.86577066     0.15295427     0.25986213
cl    0.13422934     0.65295428     0.24013786
cl    0.63423671     0.84704674     0.75986439
cl    0.36576329     0.34704674     0.74013559
o     0.36989854     0.11998832     0.14027299
o     0.63010146     0.61998832     0.35972700
o     0.13010629     0.88000503     0.64028081
o     0.86989371     0.38000503     0.85971917
o     0.93942788     0.11810039     0.97310643
o     0.06057212     0.61810040     0.52689355
o     0.56057676     0.88190494     0.47309642
o     0.43942324     0.38190494     0.02690357
o     0.22672775     0.08146090     0.92164020
o     0.77327225     0.58146090     0.57835979
o     0.27327897     0.91853594     0.42163317
o     0.72672103     0.41853595     0.07836681
o     0.56430910     0.98260115     0.14772045
o     0.43569090     0.48260116     0.35227953
o     0.93568969     0.01739913     0.64771111
o     0.06431031     0.51739913     0.85228887
n     0.08568705     0.06670475     0.97984214
n     0.91431295     0.56670475     0.52015784
n     0.41433233     0.93328480     0.47986875
n     0.58566767     0.43328481     0.02013124
n     0.40751772     0.02266254     0.13592455
n     0.59248228     0.52266254     0.36407543
n     0.09247852     0.97734422     0.63592804
n     0.90752148     0.47734423     0.86407194
c     0.26232798     0.84800426     0.17719061
c     0.73767202     0.34800426     0.32280938
c     0.23768020     0.15198872     0.67718270
c     0.76231980     0.65198873     0.82281728
c     0.93875148     0.90511584     0.05951227
c     0.06124852     0.40511585     0.44048771
c     0.56126011     0.09489005     0.55950323
c     0.43873989     0.59489005     0.94049675
c     0.09166717     0.97369744     0.05901365
c     0.90833283     0.47369744     0.44098633
c     0.40831863     0.02630372     0.55901269
c     0.59168137     0.52630372     0.94098729
c     0.25162555     0.94648629     0.12075434
c     0.74837445     0.44648630     0.37924564
c     0.24836601     0.05352133     0.62075756
c     0.75163399     0.55352134     0.87924242
c     0.05314068     0.30700242     0.38106989
c     0.94685932     0.80700243     0.11893009
c     0.44685817     0.69299442     0.88106113
c     0.55314183     0.19299442     0.61893886
c     0.88830755     0.27648347     0.32523188
c     0.11169245     0.77648347     0.17476810
c     0.61170657     0.72351966     0.82523660
c     0.38829343     0.22351966     0.67476338
h     0.38658340     0.82757654     0.22523870
h     0.61341660     0.32757654     0.27476128
h     0.11341358     0.17242262     0.72523503
h     0.88658642     0.67242263     0.77476495
h     0.81463343     0.92737051     0.01206808
h     0.18536657     0.42737051     0.48793190
h     0.68537645     0.07262854     0.51206835
h     0.31462355     0.57262854     0.98793163

K_POINTS automatic
2 2 2 1 1 1

CELL_PARAMETERS cubic
   13.569222000000     0.000000000000     0.000155000000
    0.000000000000    23.271227000000     0.000000000000
    0.000375000000     0.000000000000    22.218905000000
