&control
 title='crystal',
 prefix='crystal',
 pseudo_dir='.',
 calculation='vc-relax',
/
&system
 ibrav=0,
 celldm(1)=1.0,
 nat=    32,
 ntyp=  5,
 ecutwfc=60.0,
 ecutrho=600.0,
 xdm=.true.,
 xdm_a1=0.4073,
 xdm_a2=2.4150,
/
&electrons
 conv_thr = 1d-8,
/
&ions
/
&cell
/
ATOMIC_SPECIES
h      1.007940 h.UPF
c     12.010700 c.UPF
n     14.006700 n.UPF
o     15.999400 o.UPF
cl    35.453000 cl.UPF

ATOMIC_POSITIONS crystal
cl    0.69649127     0.01183258     0.26727269
cl    0.30350878     0.98816743     0.73272729
c     0.02629187     0.74339180     0.86301416
c     0.97370817     0.25660821     0.13698581
c     0.09106556     0.63680105     0.75756973
c     0.90893448     0.36319896     0.24243025
c     0.98808022     0.71955233     0.57395009
c     0.01191983     0.28044768     0.42604988
c     0.82167042     0.90955684     0.49374542
c     0.17832963     0.09044317     0.50625456
c     0.75904697     0.01646393     0.59964166
c     0.24095308     0.98353608     0.40035831
c     0.86166602     0.93239373     0.78406302
c     0.13833402     0.06760628     0.21593695
n     0.11214178     0.66506121     0.05758682
n     0.88785826     0.33493880     0.94241315
n     0.27901829     0.43644975     0.83084127
n     0.72098175     0.56355026     0.16915870
o     0.12865385     0.75322557     0.14143733
o     0.87134619     0.24677444     0.85856264
o     0.15498823     0.52033219     0.12381765
o     0.84501181     0.47966782     0.87618232
o     0.46058549     0.36803618     0.95864369
o     0.53941455     0.63196383     0.04135629
o     0.24473997     0.35093916     0.75411863
o     0.75526008     0.64906085     0.24588134
h     0.03820267     0.63656989     0.49256801
h     0.96179737     0.36343012     0.50743196
h     0.81224617     0.01458187     0.86620915
h     0.18775387     0.98541814     0.13379082
cl    0.55579134     0.24966061     0.50232311
cl    0.44420871     0.75033940     0.49767686

K_POINTS automatic
2 2 2 1 1 1

CELL_PARAMETERS cubic
   14.078470000000     0.008617000000     0.085564000000
   10.734900000000    14.891502000000     0.200121000000
   -3.259120000000     5.505766000000    14.264758000000
