&control
 title='crystal',
 prefix='crystal',
 pseudo_dir='.',
 calculation='vc-relax',
/
&system
 ibrav=0,
 celldm(1)=1.0,
 nat=    64,
 ntyp=  5,
 ecutwfc=60.0,
 ecutrho=600.0,
 xdm=.true.,
 xdm_a1=0.4073,
 xdm_a2=2.4150,
/
&electrons
 conv_thr = 1d-8,
/
&ions
/
&cell
/
ATOMIC_SPECIES
h      1.007940 h.UPF
c     12.010700 c.UPF
n     14.006700 n.UPF
o     15.999400 o.UPF
cl    35.453000 cl.UPF

ATOMIC_POSITIONS crystal
cl    0.35291560     0.18034705     0.94924523
cl    0.64708441     0.81965297     0.05075478
cl    0.35291560     0.31965296     0.44924523
cl    0.64708441     0.68034707     0.55075478
cl    0.10811229     0.14865411     0.97652937
cl    0.89188772     0.85134592     0.02347064
cl    0.10811229     0.35134590     0.47652937
cl    0.89188772     0.64865413     0.52347064
o     0.07399074     0.75987985     0.29879938
o     0.92600927     0.24012018     0.70120063
o     0.07399074     0.74012016     0.79879938
o     0.92600927     0.25987986     0.20120063
o     0.19383374     0.00919360     0.26545969
o     0.80616627     0.99080643     0.73454032
o     0.19383374     0.49080641     0.76545969
o     0.80616627     0.50919362     0.23454032
o     0.44725797     0.93652963     0.19526460
o     0.55274204     0.06347040     0.80473541
o     0.44725797     0.56347038     0.69526460
o     0.55274204     0.43652965     0.30473541
o     0.38758938     0.80584743     0.35331028
o     0.61241063     0.19415260     0.64668973
o     0.38758938     0.69415258     0.85331028
o     0.61241063     0.30584744     0.14668973
n     0.15436368     0.82015128     0.25589947
n     0.84563633     0.17984875     0.74410054
n     0.15436368     0.67984873     0.75589947
n     0.84563633     0.32015129     0.24410054
n     0.38773229     0.81833358     0.24617783
n     0.61226772     0.18166644     0.75382218
n     0.38773229     0.68166642     0.74617783
n     0.61226772     0.31833360     0.25382218
c     0.20558008     0.65697907     0.18581969
c     0.79441993     0.34302096     0.81418032
c     0.20558008     0.84302094     0.68581969
c     0.79441993     0.15697908     0.31418032
c     0.31405228     0.66979908     0.17339939
c     0.68594773     0.33020095     0.82660062
c     0.31405228     0.83020093     0.67339939
c     0.68594773     0.16979909     0.32660062
c     0.35878848     0.52519838     0.09906884
c     0.64121153     0.47480165     0.90093117
c     0.35878848     0.97480163     0.59906884
c     0.64121153     0.02519840     0.40093117
h     0.44346305     0.53318139     0.09204463
h     0.55653696     0.46681863     0.90795538
h     0.44346305     0.96681861     0.59204463
h     0.55653696     0.03318141     0.40795538
c     0.29552263     0.36283428     0.03735778
c     0.70447738     0.63716575     0.96264223
c     0.29552263     0.13716573     0.53735778
c     0.70447738     0.86283430     0.46264223
c     0.18676546     0.34843689     0.05068175
c     0.81323455     0.65156314     0.94931826
c     0.18676546     0.15156312     0.55068175
c     0.81323455     0.84843691     0.44931826
c     0.14209084     0.49618977     0.12488625
c     0.85790917     0.50381025     0.87511376
c     0.14209084     0.00381024     0.62488625
c     0.85790917     0.99618979     0.37511376
h     0.05800948     0.48674796     0.13558339
h     0.94199053     0.51325207     0.86441662
h     0.05800948     0.01325205     0.63558339
h     0.94199053     0.98674798     0.36441662

K_POINTS automatic
2 2 2 1 1 1

CELL_PARAMETERS cubic
   23.920671000000     0.000000000000    -0.021801000000
    0.000000000000    11.299929000000     0.000000000000
   -2.581821000000     0.000000000000    21.540819000000
