&control
 title='crystal',
 prefix='crystal',
 pseudo_dir='.',
 calculation='vc-relax',
/
&system
 ibrav=0,
 celldm(1)=1.0,
 nat=    64,
 ntyp=  5,
 ecutwfc=60.0,
 ecutrho=600.0,
 xdm=.true.,
 xdm_a1=0.4073,
 xdm_a2=2.4150,
/
&electrons
 conv_thr = 1d-8,
/
&ions
/
&cell
/
ATOMIC_SPECIES
h      1.007940 h.UPF
c     12.010700 c.UPF
n     14.006700 n.UPF
o     15.999400 o.UPF
cl    35.453000 cl.UPF

ATOMIC_POSITIONS crystal
c     0.71691086     0.15090430     0.41039332
c     0.28308915     0.84909571     0.58960672
c     0.71691087     0.34909571     0.91039334
c     0.28308914     0.65090431     0.08960670
c     0.63560704     0.09992725     0.31637764
c     0.36439297     0.90007276     0.68362240
c     0.63560705     0.40007276     0.81637766
c     0.36439296     0.59992725     0.18362238
c     0.72450444     0.07113086     0.12751007
c     0.27549557     0.92886915     0.87248997
c     0.72450445     0.42886915     0.62751009
c     0.27549556     0.57113086     0.37248995
c     0.89504746     0.09353643     0.02989640
c     0.10495255     0.90646358     0.97010364
c     0.89504747     0.40646358     0.52989642
c     0.10495254     0.59353644     0.47010362
c     0.97883166     0.14421159     0.12752449
c     0.02116835     0.85578842     0.87247555
c     0.97883166     0.35578842     0.62752451
c     0.02116835     0.64421159     0.37247553
c     0.88985969     0.17227122     0.32049712
c     0.11014031     0.82772879     0.67950292
c     0.88985970     0.32772878     0.82049714
c     0.11014031     0.67227123     0.17950290
n     0.61494811     0.18654039     0.58856606
n     0.38505190     0.81345962     0.41143398
n     0.61494812     0.31345961     0.08856608
n     0.38505189     0.68654040     0.91143396
o     0.43741687     0.19351467     0.55480643
o     0.56258313     0.80648534     0.44519361
o     0.43741688     0.30648534     0.05480645
o     0.56258313     0.69351468     0.94519359
o     0.71645187     0.20854235     0.75476821
o     0.28354814     0.79145766     0.24523183
o     0.71645188     0.29145766     0.25476823
o     0.28354813     0.70854235     0.74523181
h     0.66271058     0.03097366     0.05863011
h     0.33728942     0.96902635     0.94136993
h     0.66271059     0.46902634     0.55863013
h     0.33728942     0.53097367     0.44136991
h     0.95178073     0.21192634     0.39397506
h     0.04821928     0.78807367     0.60602498
h     0.95178074     0.28807367     0.89397508
h     0.04821927     0.71192635     0.10602496
n     0.46849846     0.07199428     0.43032197
n     0.53150155     0.92800573     0.56967807
n     0.46849847     0.42800573     0.93032199
n     0.53150154     0.57199428     0.06967805
o     0.46181999     0.07493210     0.65531204
o     0.53818002     0.92506791     0.34468800
o     0.46182000     0.42506790     0.15531206
o     0.53818001     0.57493211     0.84468798
o     0.35000259     0.04584647     0.29593735
o     0.64999742     0.95415354     0.70406269
o     0.35000260     0.45415354     0.79593737
o     0.64999741     0.54584647     0.20406267
cl    0.18243907     0.17424942     0.00445280
cl    0.81756094     0.82575059     0.99554724
cl    0.18243908     0.32575058     0.50445282
cl    0.81756093     0.67424943     0.49554722
cl    0.99897017     0.05924888     0.78889518
cl    0.00102984     0.94075113     0.21110486
cl    0.99897018     0.44075112     0.28889520
cl    0.00102983     0.55924889     0.71110484

K_POINTS automatic
2 2 2 1 1 1

CELL_PARAMETERS cubic
   12.885288000000     0.000000000000     0.171801000000
    0.000000000000    43.888399000000     0.000000000000
   -0.465741000000     0.000000000000    10.320973000000
