&control
 title='crystal',
 prefix='crystal',
 pseudo_dir='.',
 calculation='vc-relax',
/
&system
 ibrav=0,
 celldm(1)=1.0,
 nat=    64,
 ntyp=  5,
 ecutwfc=60.0,
 ecutrho=600.0,
 xdm=.true.,
 xdm_a1=0.4073,
 xdm_a2=2.4150,
/
&electrons
 conv_thr = 1d-8,
/
&ions
/
&cell
/
ATOMIC_SPECIES
h      1.007940 h.UPF
c     12.010700 c.UPF
n     14.006700 n.UPF
o     15.999400 o.UPF
cl    35.453000 cl.UPF

ATOMIC_POSITIONS crystal
c     0.64210142     0.49579586     0.12496057
c     0.35789859     0.50420418     0.87503945
c     0.64210143     0.00420416     0.62496058
c     0.35789859     0.99579588     0.37503945
c     0.70538086     0.65690747     0.18599446
c     0.29461916     0.34309258     0.81400556
c     0.70538087     0.84309256     0.68599446
c     0.29461915     0.15690749     0.31400556
c     0.68711220     0.34835899     0.05082685
c     0.31288782     0.65164106     0.94917317
c     0.68711221     0.15164104     0.55082686
c     0.31288781     0.84835900     0.44917317
h     0.55792292     0.48577791     0.13554622
h     0.44207710     0.51422213     0.86445380
h     0.55792293     0.01422211     0.63554623
h     0.44207709     0.98577793     0.36445380
c     0.81394965     0.67052771     0.17363252
c     0.18605037     0.32947233     0.82636750
c     0.81394966     0.82947231     0.67363252
c     0.18605036     0.17052773     0.32636750
n     0.65382762     0.81960673     0.25615218
n     0.34617240     0.18039331     0.74384784
n     0.65382763     0.68039330     0.75615218
n     0.34617239     0.31960675     0.24384784
c     0.79597754     0.36353101     0.03759594
c     0.20402248     0.63646904     0.96240408
c     0.79597755     0.13646902     0.53759594
c     0.20402247     0.86353103     0.46240408
cl    0.60876570     0.14783399     0.97675269
cl    0.39123432     0.85216605     0.02324733
cl    0.60876571     0.35216604     0.47675270
cl    0.39123431     0.64783401     0.52324733
c     0.85900636     0.52638392     0.09930640
c     0.14099366     0.47361612     0.90069363
c     0.85900637     0.97361611     0.59930640
c     0.14099365     0.02638394     0.40069362
n     0.88739895     0.81930733     0.24650778
n     0.11260107     0.18069272     0.75349224
n     0.88739896     0.68069270     0.74650779
n     0.11260106     0.31930735     0.25349223
o     0.57350381     0.75818858     0.29893940
o     0.42649621     0.24181147     0.70106062
o     0.57350382     0.74181145     0.79893941
o     0.42649620     0.25818859     0.20106062
o     0.69294624     0.00935036     0.26590471
o     0.30705378     0.99064968     0.73409531
o     0.69294625     0.49064966     0.76590472
o     0.30705377     0.50935038     0.23409531
cl    0.85376938     0.18123239     0.94964177
cl    0.14623064     0.81876766     0.05035826
cl    0.85376939     0.31876764     0.44964177
cl    0.14623063     0.68123240     0.55035825
h     0.94374476     0.53516922     0.09226412
h     0.05625526     0.46483083     0.90773590
h     0.94374477     0.96483081     0.59226412
h     0.05625525     0.03516923     0.40773590
o     0.88702713     0.80605309     0.35328781
o     0.11297289     0.19394695     0.64671221
o     0.88702714     0.69394694     0.85328782
o     0.11297288     0.30605311     0.14671220
o     0.94698591     0.93843201     0.19604017
o     0.05301411     0.06156803     0.80395985
o     0.94698592     0.56156802     0.69604018
o     0.05301410     0.43843203     0.30395985

K_POINTS automatic
2 2 2 1 1 1

CELL_PARAMETERS cubic
   23.897953000000     0.000000000000    -0.018590000000
    0.000000000000    11.276868000000     0.000000000000
   -2.568441000000     0.000000000000    21.601626000000
