&control
 title='crystal',
 prefix='crystal',
 pseudo_dir='.',
 calculation='vc-relax',
/
&system
 ibrav=0,
 celldm(1)=1.0,
 nat=    64,
 ntyp=  5,
 ecutwfc=60.0,
 ecutrho=600.0,
 xdm=.true.,
 xdm_a1=0.4073,
 xdm_a2=2.4150,
/
&electrons
 conv_thr = 1d-8,
/
&ions
/
&cell
/
ATOMIC_SPECIES
h      1.007940 h.UPF
c     12.010700 c.UPF
n     14.006700 n.UPF
o     15.999400 o.UPF
cl    35.453000 cl.UPF

ATOMIC_POSITIONS crystal
cl    0.93554143     0.31906769     0.05890974
cl    0.56445977     0.68091620     0.55891036
cl    0.43555506     0.18089670     0.94109916
cl    0.06446472     0.81910453     0.44109595
cl    0.80420058     0.31796754     0.17674368
cl    0.69578336     0.68203140     0.67674376
cl    0.30426415     0.18201963     0.82326166
cl    0.19573640     0.81798175     0.32325707
o     0.79541824     0.92950403     0.11232396
o     0.70462018     0.07051362     0.61233082
o     0.29543261     0.57051901     0.88767660
o     0.20454403     0.42950237     0.38767686
o     0.65787965     0.81981633     0.22626094
o     0.84212211     0.18017114     0.72626683
o     0.15786646     0.68020798     0.77373066
o     0.34211556     0.31977775     0.27373057
o     0.57200156     0.88640985     0.03892788
o     0.92798860     0.11359231     0.53893142
o     0.07207942     0.61359211     0.96107408
o     0.42790999     0.38641863     0.46107618
o     0.35073478     0.00753109     0.18996602
o     0.14923866     0.99244928     0.68997203
o     0.85085281     0.49242383     0.81004085
o     0.64916020     0.50757534     0.31003802
n     0.60414694     0.85844368     0.08475368
n     0.89586914     0.14156929     0.58475053
n     0.10402956     0.64150964     0.91524498
n     0.39597038     0.35850733     0.41524175
n     0.46592682     0.86303766     0.19448106
n     0.03405212     0.13696871     0.69448781
n     0.96588166     0.63695836     0.80550276
n     0.53413706     0.36302233     0.30550122
c     0.09236790     0.47370914     0.09783520
c     0.40764051     0.52628109     0.59783624
c     0.59249386     0.02634981     0.90215092
c     0.90751884     0.97365128     0.40214842
c     0.03710427     0.47186366     0.15046253
c     0.46289755     0.52812593     0.65046292
c     0.53704409     0.02804908     0.84952658
c     0.96294948     0.97193867     0.34952656
c     0.27765648     0.60203660     0.07696545
c     0.22233984     0.39795528     0.57696493
c     0.77759065     0.89796484     0.92304458
c     0.72241619     0.10205791     0.42303982
c     0.17068387     0.59742663     0.18164741
c     0.32932825     0.40257392     0.68165311
c     0.67073389     0.90250609     0.81835469
c     0.82927246     0.09747585     0.31835307
c     0.40448569     0.72843283     0.10804541
c     0.09550663     0.27157915     0.60804802
c     0.90455531     0.77161515     0.89195524
c     0.59544649     0.22839572     0.39195154
c     0.35154329     0.72540390     0.16028341
c     0.14844269     0.27459147     0.66028469
c     0.85164274     0.77458863     0.83970993
c     0.64836509     0.22541827     0.33970936
h     0.12793461     0.59579790     0.22219152
h     0.37203566     0.40420262     0.72219608
h     0.62800600     0.90421597     0.77781194
h     0.87198440     0.09577409     0.27781360
h     0.32438015     0.60397374     0.03651294
h     0.17563868     0.39601805     0.53651158
h     0.82444329     0.89599763     0.96350001
h     0.67556595     0.10401972     0.46349315

K_POINTS automatic
2 2 2 1 1 1

CELL_PARAMETERS cubic
    8.248428000000    -0.000065000000    -0.000052000000
   -0.000329000000    14.570318000000     0.000039000000
   -0.000315000000     0.000144000000    49.835211000000
