&control
 title='crystal',
 prefix='crystal',
 pseudo_dir='.',
 calculation='vc-relax',
/
&system
 ibrav=0,
 celldm(1)=1.0,
 nat=    64,
 ntyp=  5,
 ecutwfc=60.0,
 ecutrho=600.0,
 xdm=.true.,
 xdm_a1=0.4073,
 xdm_a2=2.4150,
/
&electrons
 conv_thr = 1d-8,
/
&ions
/
&cell
/
ATOMIC_SPECIES
h      1.007940 h.UPF
c     12.010700 c.UPF
n     14.006700 n.UPF
o     15.999400 o.UPF
cl    35.453000 cl.UPF

ATOMIC_POSITIONS crystal
c     0.16354031     0.44410561     0.42827869
c     0.83645973     0.55589435     0.57172132
c     0.16354033     0.05589437     0.92827869
c     0.83645971     0.94410559     0.07172132
c     0.21271747     0.25370555     0.39908112
c     0.78728257     0.74629441     0.60091889
c     0.21271749     0.24629443     0.89908111
c     0.78728255     0.75370553     0.10091889
c     0.06426118     0.16086888     0.34797985
c     0.93573887     0.83913108     0.65202016
c     0.06426119     0.33913110     0.84797984
c     0.93573884     0.66086886     0.15202016
c     0.86520554     0.25471398     0.32668937
c     0.13479451     0.74528598     0.67331064
c     0.86520555     0.24528600     0.82668937
c     0.13479448     0.75471396     0.17331064
c     0.81395489     0.44673220     0.35564796
c     0.18604516     0.55326777     0.64435204
c     0.81395490     0.05326778     0.85564796
c     0.18604513     0.94673218     0.14435204
c     0.96433731     0.54228078     0.40653407
c     0.03566274     0.45771918     0.59346594
c     0.96433732     0.95771920     0.90653407
c     0.03566271     0.04228076     0.09346594
n     0.41606736     0.13912394     0.42738676
n     0.58393269     0.86087603     0.57261325
n     0.41606737     0.36087605     0.92738676
n     0.58393266     0.63912392     0.07261325
n     0.11722714     0.97788264     0.31232803
n     0.88277290     0.02211732     0.68767198
n     0.11722715     0.52211734     0.81232803
n     0.88277288     0.47788262     0.18767198
o     0.56903695     0.27041452     0.44709162
o     0.43096310     0.72958544     0.55290839
o     0.56903696     0.22958546     0.94709162
o     0.43096307     0.77041450     0.05290839
o     0.41776251     0.91955029     0.43131171
o     0.58223753     0.08044967     0.56868830
o     0.41776252     0.58044969     0.93131170
o     0.58223751     0.41955027     0.06868830
o     0.29055146     0.99022789     0.30802030
o     0.70944858     0.00977207     0.69197971
o     0.29055147     0.50977209     0.80802030
o     0.70944856     0.49022787     0.19197971
o     0.98261168     0.82826420     0.28773338
o     0.01738836     0.17173576     0.71226663
o     0.98261169     0.67173578     0.78773338
o     0.01738834     0.32826418     0.21226663
h     0.27799656     0.51374306     0.46843732
h     0.72200348     0.48625690     0.53156269
h     0.27799657     0.98625692     0.96843732
h     0.72200346     0.01374304     0.03156269
h     0.75228866     0.18372280     0.28647975
h     0.24771138     0.81627716     0.71352026
h     0.75228868     0.31627718     0.78647975
h     0.24771135     0.68372279     0.21352026
cl    0.90585169     0.78000138     0.44258663
cl    0.09414835     0.21999858     0.55741338
cl    0.90585171     0.71999860     0.94258663
cl    0.09414833     0.28000136     0.05741338
cl    0.57123920     0.56963337     0.32741242
cl    0.42876084     0.43036659     0.67258759
cl    0.57123922     0.93036661     0.82741242
cl    0.42876082     0.06963335     0.17258759

K_POINTS automatic
2 2 2 1 1 1

CELL_PARAMETERS cubic
   12.983000000000     0.000000000000    -0.029662000000
    0.000000000000    10.578450000000     0.000000000000
  -15.935792000000     0.000000000000    42.867653000000
