&control
 title='crystal',
 prefix='crystal',
 pseudo_dir='.',
 calculation='vc-relax',
/
&system
 ibrav=0,
 celldm(1)=1.0,
 nat=    32,
 ntyp=  5,
 ecutwfc=60.0,
 ecutrho=600.0,
 xdm=.true.,
 xdm_a1=0.4073,
 xdm_a2=2.4150,
/
&electrons
 conv_thr = 1d-8,
/
&ions
/
&cell
/
ATOMIC_SPECIES
h      1.007940 h.UPF
c     12.010700 c.UPF
n     14.006700 n.UPF
o     15.999400 o.UPF
cl    35.453000 cl.UPF

ATOMIC_POSITIONS crystal
cl    0.43526751     0.76420373     0.72605491
cl    0.56473250     0.23579629     0.27394509
c     0.18593536     0.01708124     0.04584829
c     0.81406465     0.98291877     0.95415171
c     0.21296324     0.16126335     0.07542125
c     0.78703677     0.83873667     0.92457875
c     0.29005117     0.08102386     0.97815505
c     0.70994884     0.91897616     0.02184495
c     0.34086217     0.85623605     0.85134259
c     0.65913784     0.14376396     0.14865741
c     0.31387557     0.71057949     0.82442558
c     0.68612444     0.28942053     0.17557442
c     0.23624757     0.79285244     0.92063422
c     0.76375244     0.20714758     0.07936578
n     0.10602522     0.08737534     0.16325989
n     0.89397479     0.91262467     0.83674011
n     0.16140803     0.40696453     0.18190447
n     0.83859198     0.59303548     0.81809553
o     0.07583449     0.99089753     0.01538387
o     0.92416552     0.00910249     0.98461613
o     0.07860450     0.23182543     0.40750551
o     0.92139551     0.76817459     0.59249449
o     0.09463125     0.52091199     0.04012285
o     0.90536876     0.47908803     0.95987715
o     0.19360235     0.47729731     0.39664198
o     0.80639766     0.52270270     0.60335802
h     0.31036814     0.19486476     0.99535349
h     0.68963187     0.80513525     0.00464651
h     0.21359030     0.68459528     0.89874690
h     0.78640971     0.31540474     0.10125310
cl    0.37559636     0.43023032     0.67442430
cl    0.62440365     0.56976969     0.32557570

K_POINTS automatic
2 2 2 1 1 1

CELL_PARAMETERS cubic
   37.828495000000     1.405406000000    -1.257285000000
    7.156377000000    11.322562000000     0.779247000000
   -0.355102000000    -1.053113000000     7.193286000000
