&control
 title='crystal',
 prefix='crystal',
 pseudo_dir='.',
 calculation='vc-relax',
/
&system
 ibrav=0,
 celldm(1)=1.0,
 nat=    32,
 ntyp=  5,
 ecutwfc=60.0,
 ecutrho=600.0,
 xdm=.true.,
 xdm_a1=0.4073,
 xdm_a2=2.4150,
/
&electrons
 conv_thr = 1d-8,
/
&ions
/
&cell
/
ATOMIC_SPECIES
h      1.007940 h.UPF
c     12.010700 c.UPF
n     14.006700 n.UPF
o     15.999400 o.UPF
cl    35.453000 cl.UPF

ATOMIC_POSITIONS crystal
c     0.74394547     0.66405033     0.54978195
c     0.25605449     0.33594965     0.45021806
c     0.92691694     0.70802613     0.46901939
c     0.07308302     0.29197385     0.53098061
c     0.03120093     0.79192152     0.57317948
c     0.96879903     0.20807846     0.42682053
c     0.95052102     0.83618721     0.75612898
c     0.04947895     0.16381277     0.24387102
c     0.76533142     0.79442502     0.83801763
c     0.23466855     0.20557496     0.16198237
c     0.66232413     0.70578104     0.73511174
c     0.33767584     0.29421894     0.26488827
n     0.99785782     0.67648976     0.26816458
n     0.00214214     0.32351022     0.73183543
n     0.23207650     0.82341866     0.50222223
n     0.76792346     0.17658132     0.49777778
o     0.95526498     0.54635770     0.20891118
o     0.04473498     0.45364228     0.79108883
o     0.08948549     0.78529829     0.17146714
o     0.91051447     0.21470169     0.82853287
o     0.32902138     0.71451773     0.41064569
o     0.67097858     0.28548225     0.58935431
o     0.29107286     0.95368812     0.54470370
o     0.70892710     0.04631186     0.45529631
h     0.66348515     0.60120994     0.46657448
h     0.33651481     0.39879004     0.53342553
h     0.03416132     0.89854717     0.83647769
h     0.96583865     0.10145281     0.16352231
cl    0.43589200     0.65031906     0.83343006
cl    0.56410796     0.34968092     0.16656995
cl    0.66729673     0.85027935     0.06445481
cl    0.33270323     0.14972063     0.93554519

K_POINTS automatic
2 2 2 1 1 1

CELL_PARAMETERS cubic
   13.848742000000     0.215224000000    -0.102915000000
    0.062713000000    15.486358000000     0.191453000000
    3.359649000000     0.073079000000    13.440953000000
