&control
 title='crystal',
 prefix='crystal',
 pseudo_dir='.',
 calculation='vc-relax',
/
&system
 ibrav=0,
 celldm(1)=1.0,
 nat=    32,
 ntyp=  5,
 ecutwfc=60.0,
 ecutrho=600.0,
 xdm=.true.,
 xdm_a1=0.4073,
 xdm_a2=2.4150,
/
&electrons
 conv_thr = 1d-8,
/
&ions
/
&cell
/
ATOMIC_SPECIES
h      1.007940 h.UPF
c     12.010700 c.UPF
n     14.006700 n.UPF
o     15.999400 o.UPF
cl    35.453000 cl.UPF

ATOMIC_POSITIONS crystal
cl    0.16309346     0.93115602     0.14999766
cl    0.83690660     0.06884397     0.85000231
cl    0.93115606     0.16309338     0.35000233
cl    0.06884399     0.83690661     0.64999763
o     0.82667953     0.58894466     0.28566918
o     0.17332053     0.41105533     0.71433078
o     0.58895040     0.82668541     0.21432339
o     0.41104966     0.17331458     0.78567657
o     0.79025535     0.45183120     0.04720957
o     0.20974470     0.54816879     0.95279040
o     0.45183413     0.79025136     0.45278229
o     0.54816592     0.20974863     0.54721767
n     0.73024746     0.49568897     0.17701118
n     0.26975259     0.50431102     0.82298878
n     0.49568040     0.73024515     0.32300281
n     0.50431965     0.26975485     0.67699715
c     0.52872920     0.42418058     0.20828010
c     0.47127086     0.57581942     0.79171986
c     0.42418223     0.52872965     0.29171863
c     0.57581783     0.47127034     0.70828133
c     0.26181802     0.15810373     0.20629679
c     0.73818204     0.84189626     0.79370317
c     0.15810396     0.26181790     0.29370285
c     0.84189610     0.73818209     0.70629711
c     0.44792352     0.24012573     0.16518652
c     0.55207653     0.75987426     0.83481344
c     0.24012448     0.44792349     0.33481353
c     0.75987557     0.55207650     0.66518643
h     0.53189584     0.15943180     0.10336831
h     0.46810422     0.84056820     0.89663165
h     0.15943219     0.53189561     0.39663131
h     0.84056787     0.46810439     0.60336865

K_POINTS automatic
2 2 2 1 1 1

CELL_PARAMETERS cubic
   13.851098000000    -0.035114000000     0.083154000000
   -3.310483000000    13.449700000000    -0.083201000000
   -0.310774000000     0.244138000000    15.466188000000
