&control
 title='crystal',
 prefix='crystal',
 pseudo_dir='.',
 calculation='vc-relax',
/
&system
 ibrav=0,
 celldm(1)=1.0,
 nat=    32,
 ntyp=  5,
 ecutwfc=60.0,
 ecutrho=600.0,
 xdm=.true.,
 xdm_a1=0.4073,
 xdm_a2=2.4150,
/
&electrons
 conv_thr = 1d-8,
/
&ions
/
&cell
/
ATOMIC_SPECIES
h      1.007940 h.UPF
c     12.010700 c.UPF
n     14.006700 n.UPF
o     15.999400 o.UPF
cl    35.453000 cl.UPF

ATOMIC_POSITIONS crystal
cl    0.36423866     0.59617985     0.83515573
cl    0.63576134     0.40382019     0.16484431
cl    0.59617284     0.36425808     0.66484075
cl    0.40382716     0.63574197     0.33515929
o     0.71978719     0.06217545     0.92532753
o     0.28021280     0.93782459     0.07467251
o     0.06216126     0.71981719     0.57468733
o     0.93783874     0.28018285     0.42531271
o     0.69786371     0.92586473     0.68841789
o     0.30213629     0.07413531     0.31158215
o     0.92579774     0.69783456     0.81158550
o     0.07420226     0.30216548     0.18841454
n     0.78783910     0.02102366     0.80161316
n     0.21216090     0.97897639     0.19838688
n     0.02112448     0.78779066     0.69844384
n     0.97887552     0.21220938     0.30155620
c     0.99111959     0.09740420     0.78257687
c     0.00888041     0.90259584     0.21742317
c     0.09735319     0.99112792     0.71730168
c     0.90264681     0.00887212     0.28269836
c     0.07255349     0.28432565     0.81745933
c     0.92744651     0.71567439     0.18254071
c     0.28430697     0.07255010     0.68255589
c     0.71569303     0.92744994     0.31744415
h     0.98759907     0.36695972     0.86416253
h     0.01240093     0.63304032     0.13583751
h     0.36693113     0.98762298     0.63583735
h     0.63306887     0.01237707     0.36416269
c     0.26201701     0.36699775     0.78578209
c     0.73798298     0.63300229     0.21421794
c     0.36700833     0.26199948     0.71425035
c     0.63299167     0.73800056     0.28574968

K_POINTS automatic
2 2 2 1 1 1

CELL_PARAMETERS cubic
   14.028326000000    -0.126416000000     0.144118000000
   -3.859723000000    13.487736000000    -0.145221000000
   -0.833461000000     0.632820000000    15.313957000000
