&control
 title='crystal',
 prefix='crystal',
 pseudo_dir='.',
 calculation='vc-relax',
/
&system
 ibrav=0,
 celldm(1)=1.0,
 nat=    64,
 ntyp=  5,
 ecutwfc=60.0,
 ecutrho=600.0,
 xdm=.true.,
 xdm_a1=0.4073,
 xdm_a2=2.4150,
/
&electrons
 conv_thr = 1d-8,
/
&ions
/
&cell
/
ATOMIC_SPECIES
h      1.007940 h.UPF
c     12.010700 c.UPF
n     14.006700 n.UPF
o     15.999400 o.UPF
cl    35.453000 cl.UPF

ATOMIC_POSITIONS crystal
cl    0.20328215     0.22988722     0.95217572
cl    0.79671777     0.77011278     0.04782434
cl    0.79674918     0.72988768     0.54784269
cl    0.20325074     0.27011232     0.45215737
cl    0.47768837     0.16487339     0.23466951
cl    0.52231155     0.83512661     0.76533054
cl    0.52240373     0.66485415     0.26532833
cl    0.47759619     0.33514585     0.73467173
o     0.10338187     0.02889011     0.72564649
o     0.89661806     0.97110989     0.27435356
o     0.89645690     0.52890191     0.77435130
o     0.10354302     0.47109809     0.22564876
o     0.01546137     0.13683537     0.53708161
o     0.98453855     0.86316463     0.46291844
o     0.98451114     0.63685157     0.96289678
o     0.01548878     0.36314843     0.03710327
o     0.65652189     0.07757644     0.51649839
o     0.34347803     0.92242356     0.48350166
o     0.34332558     0.57757995     0.98349145
o     0.65667435     0.42242005     0.01650860
o     0.23124110     0.03828185     0.96779459
o     0.76875882     0.96171815     0.03220547
o     0.76874900     0.53827931     0.53217879
o     0.23125092     0.46172069     0.46782126
n     0.08337627     0.05067806     0.85458028
n     0.91662365     0.94932194     0.14541977
n     0.91656735     0.55068177     0.64541321
n     0.08343258     0.44931823     0.35458684
n     0.81157900     0.11008272     0.58814972
n     0.18842093     0.88991728     0.41185034
n     0.18835768     0.61008166     0.91185106
n     0.81164225     0.38991834     0.08814900
c     0.45608814     0.17806303     0.92419349
c     0.54391179     0.82193697     0.07580656
c     0.54393493     0.67805737     0.57582735
c     0.45606499     0.32194263     0.42417271
c     0.58134953     0.14972451     0.05059201
c     0.41865039     0.85027549     0.94940805
c     0.41870782     0.64971590     0.44940224
c     0.58129211     0.35028410     0.55059781
c     0.78773957     0.10844373     0.02576425
c     0.21226036     0.89155627     0.97423581
c     0.21225526     0.60843631     0.47422676
c     0.78774466     0.39156369     0.52577330
c     0.53450632     0.16423348     0.77413965
c     0.46549360     0.83576652     0.22586040
c     0.46546969     0.66424157     0.72585967
c     0.53453024     0.33575843     0.27414039
c     0.86595772     0.09485900     0.87606442
c     0.13404221     0.90514100     0.12393563
c     0.13399838     0.59486379     0.62391304
c     0.86600154     0.40513621     0.37608702
c     0.73738084     0.12230372     0.75075465
c     0.26261908     0.87769628     0.24924540
c     0.26256880     0.62230522     0.74924336
c     0.73743112     0.37769478     0.25075669
h     0.43413861     0.18575218     0.67691211
h     0.56586132     0.81424782     0.32308794
h     0.56585104     0.68575780     0.82310223
h     0.43414889     0.31424220     0.17689783
h     0.88485087     0.08597327     0.12241754
h     0.11514905     0.91402673     0.87758251
h     0.11516542     0.58595929     0.37756108
h     0.88483451     0.41404071     0.62243898

K_POINTS automatic
2 2 2 1 1 1

CELL_PARAMETERS cubic
    8.965704000000    -0.000296000000     0.036214000000
   -0.000728000000    43.949143000000    -0.000915000000
   -0.228760000000    -0.000214000000    16.392046000000
