&control
 title='crystal',
 prefix='crystal',
 pseudo_dir='.',
 calculation='vc-relax',
/
&system
 ibrav=0,
 celldm(1)=1.0,
 nat=    64,
 ntyp=  5,
 ecutwfc=60.0,
 ecutrho=600.0,
 xdm=.true.,
 xdm_a1=0.4073,
 xdm_a2=2.4150,
/
&electrons
 conv_thr = 1d-8,
/
&ions
/
&cell
/
ATOMIC_SPECIES
h      1.007940 h.UPF
c     12.010700 c.UPF
n     14.006700 n.UPF
o     15.999400 o.UPF
cl    35.453000 cl.UPF

ATOMIC_POSITIONS crystal
cl    0.36655775     0.79453141     0.34622131
cl    0.63344225     0.20546858     0.65377869
cl    0.36655775     0.70546858     0.84622131
cl    0.63344226     0.29453141     0.15377869
cl    0.13364084     0.79483666     0.15250233
cl    0.86635916     0.20516334     0.84749767
cl    0.13364084     0.70516334     0.65250233
cl    0.86635917     0.29483666     0.34749767
c     0.19683657     0.22404678     0.21200290
c     0.80316344     0.77595322     0.78799710
c     0.19683656     0.27595322     0.71200290
c     0.80316344     0.72404678     0.28799710
c     0.30140326     0.22377527     0.29315812
c     0.69859675     0.77622472     0.70684188
c     0.30140325     0.27622472     0.79315812
c     0.69859675     0.72377527     0.20684188
c     0.35327493     0.09135030     0.33454950
c     0.64672507     0.90864969     0.66545050
c     0.35327493     0.40864969     0.83454950
c     0.64672508     0.59135030     0.16545050
c     0.30150412     0.95737276     0.29318260
c     0.69849588     0.04262723     0.70681740
c     0.30150412     0.54262723     0.79318260
c     0.69849589     0.45737276     0.20681740
c     0.19778820     0.95759314     0.20801699
c     0.80221181     0.04240686     0.79198301
c     0.19778819     0.54240686     0.70801699
c     0.80221181     0.45759314     0.29198301
c     0.14541750     0.09178048     0.16872570
c     0.85458250     0.90821951     0.83127430
c     0.14541750     0.40821951     0.66872570
c     0.85458251     0.59178048     0.33127430
n     0.13268210     0.36126630     0.18299517
n     0.86731791     0.63873369     0.81700483
n     0.13268209     0.13873369     0.68299517
n     0.86731791     0.86126630     0.31700483
n     0.36611520     0.36047843     0.32280168
n     0.63388481     0.63952157     0.67719832
n     0.36611519     0.13952157     0.82280168
n     0.63388481     0.86047843     0.17719832
o     0.08052675     0.37079675     0.05432101
o     0.91947326     0.62920324     0.94567899
o     0.08052674     0.12920324     0.55432101
o     0.91947326     0.87079675     0.44567899
o     0.13213594     0.45560617     0.29239422
o     0.86786406     0.54439383     0.70760578
o     0.13213594     0.04439383     0.79239422
o     0.86786407     0.95560617     0.20760578
o     0.36847299     0.45415140     0.21273663
o     0.63152702     0.54584859     0.78726337
o     0.36847298     0.04584859     0.71273663
o     0.63152702     0.95415140     0.28726336
o     0.41719901     0.36980406     0.45235816
o     0.58280100     0.63019593     0.54764184
o     0.41719900     0.13019593     0.95235816
o     0.58280100     0.86980406     0.04764184
h     0.43580642     0.09239411     0.39406848
h     0.56419359     0.90760588     0.60593152
h     0.43580641     0.40760588     0.89406848
h     0.56419359     0.59239411     0.10593152
h     0.06293445     0.09275631     0.10905899
h     0.93706556     0.90724369     0.89094101
h     0.06293444     0.40724369     0.60905899
h     0.93706556     0.59275631     0.39094101

K_POINTS automatic
2 2 2 1 1 1

CELL_PARAMETERS cubic
   21.890881000000     0.000000000000     0.316145000000
    0.000000000000    17.051665000000     0.000000000000
    0.213472000000     0.000000000000    15.462625000000
