&control
 title='crystal',
 prefix='crystal',
 pseudo_dir='.',
 calculation='vc-relax',
/
&system
 ibrav=0,
 celldm(1)=1.0,
 nat=   128,
 ntyp=  5,
 ecutwfc=60.0,
 ecutrho=600.0,
 xdm=.true.,
 xdm_a1=0.4073,
 xdm_a2=2.4150,
/
&electrons
 conv_thr = 1d-8,
/
&ions
/
&cell
/
ATOMIC_SPECIES
h      1.007940 h.UPF
c     12.010700 c.UPF
n     14.006700 n.UPF
o     15.999400 o.UPF
cl    35.453000 cl.UPF

ATOMIC_POSITIONS crystal
c     0.08703043     0.20720854     0.19791824
c     0.91296958     0.79279147     0.80208175
c     0.58703044     0.20720854     0.30208176
c     0.08703043     0.29279146     0.69791824
c     0.58703044     0.29279146     0.80208175
c     0.41296958     0.70720854     0.19791824
c     0.91296958     0.70720854     0.30208176
c     0.41296958     0.79279147     0.69791824
c     0.14242583     0.21084224     0.08962845
c     0.85757419     0.78915776     0.91037154
c     0.64242584     0.21084224     0.41037155
c     0.14242583     0.28915776     0.58962845
c     0.64242584     0.28915776     0.91037154
c     0.35757418     0.71084225     0.08962845
c     0.85757419     0.71084225     0.41037155
c     0.35757418     0.78915776     0.58962845
c     0.17955874     0.14243213     0.03370530
c     0.82044128     0.85756788     0.96629470
c     0.67955875     0.14243213     0.46629470
c     0.17955874     0.35756788     0.53370530
c     0.67955875     0.35756788     0.96629470
c     0.32044127     0.64243213     0.03370530
c     0.82044128     0.64243213     0.46629470
c     0.32044127     0.85756788     0.53370530
c     0.15915110     0.06984984     0.08478759
c     0.84084892     0.93015017     0.91521240
c     0.65915111     0.06984984     0.41521241
c     0.15915110     0.43015017     0.58478759
c     0.65915111     0.43015017     0.91521240
c     0.34084891     0.56984984     0.08478759
c     0.84084892     0.56984984     0.41521241
c     0.34084891     0.93015017     0.58478759
c     0.09477302     0.06614317     0.19140551
c     0.90522699     0.93385683     0.80859448
c     0.59477303     0.06614317     0.30859449
c     0.09477302     0.43385683     0.69140551
c     0.59477303     0.43385683     0.80859448
c     0.40522699     0.56614318     0.19140551
c     0.90522699     0.56614318     0.30859449
c     0.40522699     0.93385683     0.69140551
c     0.06118764     0.13535092     0.24777514
c     0.93881237     0.86464908     0.75222486
c     0.56118765     0.13535092     0.25222486
c     0.06118764     0.36464908     0.74777514
c     0.56118765     0.36464908     0.75222486
c     0.43881237     0.63535093     0.24777514
c     0.93881237     0.63535093     0.25222486
c     0.43881237     0.86464908     0.74777514
n     0.07125283     0.27654303     0.26837439
n     0.92874719     0.72345698     0.73162561
n     0.57125284     0.27654303     0.23162561
n     0.07125283     0.22345697     0.76837439
n     0.57125284     0.22345697     0.73162561
n     0.42874718     0.77654303     0.26837439
n     0.92874719     0.77654303     0.23162561
n     0.42874718     0.72345698     0.76837439
o     0.96645095     0.27497943     0.33961697
o     0.03354906     0.72502058     0.66038303
o     0.46645096     0.27497943     0.16038303
o     0.96645095     0.22502058     0.83961697
o     0.46645096     0.22502058     0.66038303
o     0.53354906     0.77497943     0.33961697
o     0.03354906     0.77497943     0.16038303
o     0.53354906     0.72502058     0.83961697
o     0.16898435     0.32988104     0.25576194
o     0.83101566     0.67011897     0.74423805
o     0.66898437     0.32988104     0.24423806
o     0.16898435     0.17011897     0.75576194
o     0.66898437     0.17011897     0.74423805
o     0.33101565     0.82988104     0.25576194
o     0.83101566     0.82988104     0.24423806
o     0.33101565     0.67011897     0.75576194
h     0.21991281     0.14518139     0.94902615
h     0.78008720     0.85481862     0.05097385
h     0.71991282     0.14518139     0.55097385
h     0.21991281     0.35481862     0.44902615
h     0.71991282     0.35481862     0.05097385
h     0.28008720     0.64518139     0.94902615
h     0.78008720     0.64518139     0.55097385
h     0.28008720     0.85481862     0.44902615
h     0.01989469     0.13344701     0.33231154
h     0.98010532     0.86655299     0.66768846
h     0.51989470     0.13344701     0.16768846
h     0.01989469     0.36655299     0.83231154
h     0.51989470     0.36655299     0.66768846
h     0.48010532     0.63344702     0.33231154
h     0.98010532     0.63344702     0.16768846
h     0.48010532     0.86655299     0.83231154
n     0.14957664     0.28475145     0.02792696
n     0.85042337     0.71524856     0.97207304
n     0.64957666     0.28475145     0.47207304
n     0.14957664     0.21524856     0.52792696
n     0.64957666     0.21524856     0.97207304
n     0.35042336     0.78475145     0.02792696
n     0.85042337     0.78475145     0.47207304
n     0.35042336     0.71524856     0.52792696
o     0.04469613     0.33389269     0.04599615
o     0.95530389     0.66610732     0.95400385
o     0.54469614     0.33389269     0.45400385
o     0.04469613     0.16610732     0.54599615
o     0.54469614     0.16610732     0.95400385
o     0.45530388     0.83389269     0.04599615
o     0.95530389     0.83389269     0.45400385
o     0.45530388     0.66610732     0.54599615
o     0.25626688     0.29161212     0.95849572
o     0.74373313     0.70838788     0.04150427
o     0.75626690     0.29161212     0.54150428
o     0.25626688     0.20838788     0.45849572
o     0.75626690     0.20838788     0.04150427
o     0.24373312     0.79161213     0.95849572
o     0.74373313     0.79161213     0.54150428
o     0.24373312     0.70838788     0.45849572
cl    0.05654196     0.97849131     0.25395453
cl    0.94345805     0.02150869     0.74604547
cl    0.55654197     0.97849131     0.24604547
cl    0.05654196     0.52150869     0.75395453
cl    0.55654197     0.52150869     0.74604547
cl    0.44345805     0.47849132     0.25395453
cl    0.94345805     0.47849132     0.24604547
cl    0.44345805     0.02150869     0.75395453
cl    0.21266466     0.98606727     0.01668435
cl    0.78733536     0.01393274     0.98331565
cl    0.71266467     0.98606727     0.48331565
cl    0.21266466     0.51393274     0.51668435
cl    0.71266467     0.51393274     0.98331565
cl    0.28733535     0.48606727     0.01668435
cl    0.78733536     0.48606727     0.48331565
cl    0.28733535     0.01393274     0.51668435

K_POINTS automatic
2 2 2 1 1 1

CELL_PARAMETERS cubic
   15.812319000000     0.000000000000     0.000000000000
    0.000000000000    32.248156000000     0.000000000000
    0.000000000000     0.000000000000    23.012679000000
