&control
 title='crystal',
 prefix='crystal',
 pseudo_dir='.',
 calculation='vc-relax',
/
&system
 ibrav=0,
 celldm(1)=1.0,
 nat=    32,
 ntyp=  5,
 ecutwfc=60.0,
 ecutrho=600.0,
 xdm=.true.,
 xdm_a1=0.4073,
 xdm_a2=2.4150,
/
&electrons
 conv_thr = 1d-8,
/
&ions
/
&cell
/
ATOMIC_SPECIES
h      1.007940 h.UPF
c     12.010700 c.UPF
n     14.006700 n.UPF
o     15.999400 o.UPF
cl    35.453000 cl.UPF

ATOMIC_POSITIONS crystal
c     0.98391775     0.19327586     0.05751436
c     0.01608228     0.69327575     0.94248565
c     0.00461533     0.22262177     0.20676272
c     0.99538470     0.72262165     0.79323729
c     0.78218296     0.21630560     0.93563946
c     0.21781707     0.71630549     0.06436055
c     0.59883958     0.27263234     0.96529988
c     0.40116045     0.77263222     0.03470013
c     0.82124718     0.27553937     0.23575472
c     0.17875285     0.77553926     0.76424530
c     0.62128646     0.30288780     0.11538544
c     0.37871358     0.80288768     0.88461457
n     0.81986949     0.29044441     0.39039684
n     0.18013054     0.79044430     0.60960317
n     0.22819741     0.21266964     0.32695720
n     0.77180262     0.71266952     0.67304281
o     0.90173118     0.16376271     0.47828168
o     0.09826885     0.66376260     0.52171833
o     0.72704120     0.42342622     0.41551836
o     0.27295884     0.92342610     0.58448165
o     0.26668272     0.30407262     0.44226766
o     0.73331731     0.80407251     0.55773236
o     0.36326536     0.11869874     0.29885749
o     0.63673467     0.61869862     0.70114253
cl    0.76309161     0.17790567     0.75357070
cl    0.23690842     0.67790556     0.24642932
cl    0.34634382     0.30001646     0.82012938
cl    0.65365621     0.80001634     0.17987063
h     0.48077080     0.34413322     0.13995503
h     0.51922923     0.84413311     0.86004498
h     0.12790632     0.15400768     0.03612567
h     0.87209371     0.65400756     0.96387434

K_POINTS automatic
2 2 2 1 1 1

CELL_PARAMETERS cubic
   12.471244000000     0.000000000000     0.512505000000
    0.000000000000    13.931956000000     0.000000000000
   -7.654009000000     0.000000000000    16.257137000000
