&control
 title='crystal',
 prefix='crystal',
 pseudo_dir='.',
 calculation='vc-relax',
/
&system
 ibrav=0,
 celldm(1)=1.0,
 nat=    64,
 ntyp=  5,
 ecutwfc=60.0,
 ecutrho=600.0,
 xdm=.true.,
 xdm_a1=0.4073,
 xdm_a2=2.4150,
/
&electrons
 conv_thr = 1d-8,
/
&ions
/
&cell
/
ATOMIC_SPECIES
h      1.007940 h.UPF
c     12.010700 c.UPF
n     14.006700 n.UPF
o     15.999400 o.UPF
cl    35.453000 cl.UPF

ATOMIC_POSITIONS crystal
c     0.14184959     0.49475987     0.62434696
c     0.85815042     0.50524015     0.37565305
c     0.14184958     0.00524015     0.12434695
c     0.85815043     0.99475988     0.87565306
c     0.20510629     0.65596004     0.68541896
c     0.79489371     0.34403999     0.31458106
c     0.20510628     0.84403998     0.18541894
c     0.79489372     0.15596005     0.81458107
c     0.31375120     0.67019020     0.67308782
c     0.68624880     0.32980983     0.32691219
c     0.31375119     0.82980982     0.17308781
c     0.68624881     0.17019021     0.82691220
c     0.35890905     0.52671994     0.59867870
c     0.64109096     0.47328008     0.40132131
c     0.35890904     0.97328007     0.09867869
c     0.64109097     0.02671995     0.90132132
c     0.29588820     0.36390105     0.53685362
c     0.70411180     0.63609898     0.46314640
c     0.29588819     0.13609897     0.03685360
c     0.70411181     0.86390106     0.96314641
c     0.18695661     0.34800012     0.55011670
c     0.81304340     0.65199991     0.44988331
c     0.18695660     0.15199990     0.05011669
c     0.81304341     0.84800013     0.94988332
n     0.15350384     0.81807037     0.75561908
n     0.84649617     0.18192965     0.24438093
n     0.15350383     0.68192965     0.25561907
n     0.84649618     0.31807038     0.74438094
n     0.38721742     0.81897860     0.74621396
n     0.61278259     0.18102142     0.25378605
n     0.38721741     0.68102142     0.24621395
n     0.61278260     0.31897861     0.75378606
o     0.19261646     0.00732554     0.76541119
o     0.80738354     0.99267449     0.23458882
o     0.19261645     0.49267448     0.26541118
o     0.80738355     0.50732555     0.73458883
o     0.07317341     0.75673745     0.79840647
o     0.92682660     0.24326258     0.20159354
o     0.07317340     0.74326257     0.29840646
o     0.92682661     0.25673746     0.70159355
o     0.44631051     0.93883124     0.69567362
o     0.55368950     0.06116879     0.30432639
o     0.44631050     0.56116878     0.19567361
o     0.55368951     0.43883124     0.80432640
o     0.38734028     0.80498412     0.85326369
o     0.61265973     0.19501591     0.14673632
o     0.38734027     0.69501590     0.35326368
o     0.61265974     0.30498413     0.64673633
h     0.05762944     0.48411478     0.63499446
h     0.94237057     0.51588524     0.36500555
h     0.05762943     0.01588523     0.13499445
h     0.94237058     0.98411479     0.86500556
h     0.44371251     0.53602216     0.59163579
h     0.55628750     0.46397787     0.40836423
h     0.44371250     0.96397786     0.09163577
h     0.55628751     0.03602217     0.90836424
cl    0.10865254     0.14755428     0.47585562
cl    0.89134746     0.85244575     0.52414439
cl    0.10865253     0.35244574     0.97585561
cl    0.89134747     0.64755429     0.02414440
cl    0.35377277     0.18267379     0.44864745
cl    0.64622724     0.81732624     0.55135256
cl    0.35377276     0.31732623     0.94864744
cl    0.64622724     0.68267379     0.05135257

K_POINTS automatic
2 2 2 1 1 1

CELL_PARAMETERS cubic
   23.870417000000     0.000000000000    -0.098714000000
    0.000000000000    11.310907000000     0.000000000000
   -2.558026000000     0.000000000000    21.555876000000
