&control
 title='crystal',
 prefix='crystal',
 pseudo_dir='.',
 calculation='vc-relax',
/
&system
 ibrav=0,
 celldm(1)=1.0,
 nat=    64,
 ntyp=  5,
 ecutwfc=60.0,
 ecutrho=600.0,
 xdm=.true.,
 xdm_a1=0.4073,
 xdm_a2=2.4150,
/
&electrons
 conv_thr = 1d-8,
/
&ions
/
&cell
/
ATOMIC_SPECIES
h      1.007940 h.UPF
c     12.010700 c.UPF
n     14.006700 n.UPF
o     15.999400 o.UPF
cl    35.453000 cl.UPF

ATOMIC_POSITIONS crystal
c     0.26006574     0.84840793     0.85737494
c     0.73993427     0.15159208     0.14262512
c     0.26006575     0.65159208     0.35737492
c     0.73993426     0.34840793     0.64262513
n     0.36294312     0.81397063     0.03311860
n     0.63705689     0.18602938     0.96688146
n     0.36294313     0.68602938     0.53311858
n     0.63705687     0.31397062     0.46688148
o     0.54814088     0.80838474     0.00605583
o     0.45185913     0.19161527     0.99394422
o     0.54814089     0.69161527     0.50605581
o     0.45185911     0.30838474     0.49394424
o     0.25574395     0.79176878     0.19212249
o     0.74425607     0.20823122     0.80787757
o     0.25574396     0.70823123     0.69212247
o     0.74425605     0.29176878     0.30787759
c     0.34582608     0.89928456     0.76524018
c     0.65417393     0.10071545     0.23475988
c     0.34582609     0.60071545     0.26524016
c     0.65417391     0.39928456     0.73475990
n     0.51635778     0.92784283     0.87537449
n     0.48364223     0.07215718     0.12462557
n     0.51635779     0.57215718     0.37537447
n     0.48364222     0.42784282     0.62462559
o     0.51349263     0.92818715     0.09221033
o     0.48650738     0.07181286     0.90778972
o     0.51349264     0.57181286     0.59221032
o     0.48650737     0.42818715     0.40778974
o     0.64664473     0.95108194     0.74498378
o     0.35335528     0.04891807     0.25501628
o     0.64664474     0.54891807     0.24498376
o     0.35335527     0.45108194     0.75501630
c     0.25849589     0.92739299     0.58015584
c     0.74150412     0.07260702     0.41984421
c     0.25849590     0.57260702     0.08015582
c     0.74150410     0.42739299     0.91984423
h     0.32436561     0.96723990     0.51084109
h     0.67563440     0.03276010     0.48915896
h     0.32436562     0.53276011     0.01084107
h     0.67563438     0.46723990     0.98915898
c     0.08390705     0.90459497     0.48573794
c     0.91609297     0.09540504     0.51426212
c     0.08390706     0.59540504     0.98573792
c     0.91609295     0.40459497     0.01426213
cl    0.97893216     0.93905687     0.25406780
cl    0.02106786     0.06094314     0.74593226
cl    0.97893217     0.56094314     0.75406778
cl    0.02106784     0.43905687     0.24593227
c     0.99579850     0.85386564     0.58049895
c     0.00420152     0.14613436     0.41950111
c     0.99579850     0.64613437     0.08049893
c     0.00420150     0.35386564     0.91950113
cl    0.78818326     0.82327981     0.45981507
cl    0.21181676     0.17672020     0.54018499
cl    0.78818327     0.67672020     0.95981505
cl    0.21181674     0.32327981     0.04018501
c     0.08383158     0.82630840     0.76889653
c     0.91616844     0.17369161     0.23110353
c     0.08383158     0.67369161     0.26889651
c     0.91616842     0.32630839     0.73110355
h     0.01921898     0.78646035     0.83959440
h     0.98078103     0.21353965     0.16040565
h     0.01921899     0.71353966     0.33959438
h     0.98078102     0.28646035     0.66040567

K_POINTS automatic
2 2 2 1 1 1

CELL_PARAMETERS cubic
   12.459535000000     0.000000000000    -0.011470000000
    0.000000000000    43.727163000000     0.000000000000
    0.483549000000     0.000000000000    10.743573000000
