&control
 title='crystal',
 prefix='crystal',
 pseudo_dir='.',
 calculation='vc-relax',
/
&system
 ibrav=0,
 celldm(1)=1.0,
 nat=    32,
 ntyp=  5,
 ecutwfc=60.0,
 ecutrho=600.0,
 xdm=.true.,
 xdm_a1=0.4073,
 xdm_a2=2.4150,
/
&electrons
 conv_thr = 1d-8,
/
&ions
/
&cell
/
ATOMIC_SPECIES
h      1.007940 h.UPF
c     12.010700 c.UPF
n     14.006700 n.UPF
o     15.999400 o.UPF
cl    35.453000 cl.UPF

ATOMIC_POSITIONS crystal
c     0.10353089     0.23997464     0.39332080
c     0.89646901     0.76002531     0.60667935
c     0.89245244     0.20116183     0.67184857
c     0.10754747     0.79883811     0.32815158
c     0.79832278     0.31421691     0.66375654
c     0.20167712     0.68578303     0.33624360
c     0.91702058     0.46555110     0.37388695
c     0.08297933     0.53444885     0.62611320
c     0.13025041     0.49981932     0.09460901
c     0.86974950     0.50018063     0.90539114
c     0.22224113     0.38797055     0.10566631
c     0.77775878     0.61202940     0.89433383
n     0.20393703     0.14544460     0.38877729
n     0.79606287     0.85455535     0.61122285
o     0.39017843     0.08470084     0.18433845
o     0.60982147     0.91529910     0.81566170
o     0.09600253     0.14125825     0.58492996
o     0.90399738     0.85874169     0.41507018
h     0.63412301     0.28343602     0.88067470
h     0.36587690     0.71656393     0.11932545
h     0.38627373     0.41617040     0.89064079
h     0.61372617     0.58382954     0.10935936
n     0.76230746     0.02103812     0.99120012
n     0.23769245     0.97896182     0.00880002
o     0.79590647     0.69998779     0.13427497
o     0.20409343     0.30001215     0.86572517
o     0.62493790     0.20269277     0.09580212
o     0.37506200     0.79730717     0.90419802
cl    0.27776722     0.67681430     0.74097897
cl    0.72223268     0.32318565     0.25902117
cl    0.80203463     0.60603426     0.36152220
cl    0.19796527     0.39396569     0.63847794

K_POINTS automatic
2 2 2 1 1 1

CELL_PARAMETERS cubic
   44.189146000000     0.378069000000     0.248209000000
   17.394755000000     8.781558000000     0.104274000000
   32.069452000000     5.705400000000     7.783461000000
