&control
 title='crystal',
 prefix='crystal',
 pseudo_dir='.',
 calculation='vc-relax',
/
&system
 ibrav=0,
 celldm(1)=1.0,
 nat=    64,
 ntyp=  5,
 ecutwfc=60.0,
 ecutrho=600.0,
 xdm=.true.,
 xdm_a1=0.4073,
 xdm_a2=2.4150,
/
&electrons
 conv_thr = 1d-8,
/
&ions
/
&cell
/
ATOMIC_SPECIES
h      1.007940 h.UPF
c     12.010700 c.UPF
n     14.006700 n.UPF
o     15.999400 o.UPF
cl    35.453000 cl.UPF

ATOMIC_POSITIONS crystal
cl    0.52171006     0.51825331     0.86256949
cl    0.02170989     0.48174613     0.86256931
cl    0.97829009     0.51825387     0.36256930
cl    0.47828994     0.48174668     0.36256948
cl    0.69891678     0.49845864     0.09320835
cl    0.19891661     0.50154080     0.09320817
cl    0.80108337     0.49845920     0.59320816
cl    0.30108322     0.50154135     0.59320834
o     0.57488610     0.16300279     0.12110565
o     0.07488594     0.83699664     0.12110547
o     0.92511405     0.16300335     0.62110546
o     0.42511389     0.83699720     0.62110564
o     0.81571062     0.07387157     0.16396985
o     0.31571046     0.92612787     0.16396967
o     0.68428953     0.07387213     0.66396966
o     0.18428937     0.92612842     0.66396984
o     0.65180173     0.18330427     0.90030885
o     0.15180157     0.81669517     0.90030867
o     0.84819842     0.18330482     0.40030866
o     0.34819826     0.81669572     0.40030884
o     0.41783712     0.10023796     0.83725044
o     0.91783695     0.89976147     0.83725026
o     0.08216303     0.10023852     0.33725025
o     0.58216288     0.89976203     0.33725043
n     0.68400302     0.06822995     0.11507041
n     0.18400286     0.93176948     0.11507022
n     0.81599713     0.06823051     0.61507022
n     0.31599697     0.93177004     0.61507040
n     0.54517374     0.08746947     0.89118454
n     0.04517358     0.91252997     0.89118436
n     0.95482641     0.08747002     0.39118435
n     0.45482625     0.91253052     0.39118453
c     0.57337152     0.94407119     0.94610641
c     0.07337136     0.05592825     0.94610622
c     0.92662863     0.94407175     0.44610621
c     0.42662847     0.05592880     0.44610640
c     0.65230803     0.66755445     0.03580767
c     0.15230787     0.33244499     0.03580749
c     0.84769212     0.66755501     0.53580748
c     0.34769196     0.33244554     0.53580766
c     0.65248154     0.93551565     0.04765578
c     0.15248138     0.06448378     0.04765560
c     0.84751861     0.93551621     0.54765559
c     0.34751845     0.06448433     0.54765577
c     0.53203643     0.81529943     0.88975139
c     0.03203627     0.18470000     0.88975121
c     0.96796372     0.81529999     0.38975120
c     0.46796356     0.18470056     0.38975138
h     0.47257689     0.82275383     0.81013235
h     0.97257673     0.17724561     0.81013217
h     0.02742326     0.82275439     0.31013216
h     0.52742310     0.17724616     0.31013234
c     0.57133492     0.67623303     0.93397838
c     0.07133476     0.32376641     0.93397819
c     0.92866523     0.67623359     0.43397818
c     0.42866507     0.32376696     0.43397837
c     0.69238238     0.79805110     0.09223061
c     0.19238221     0.20194834     0.09223042
c     0.80761777     0.79805166     0.59223042
c     0.30761762     0.20194889     0.59223060
h     0.74974898     0.79245539     0.17243047
h     0.24974882     0.20754405     0.17243029
h     0.75025117     0.79245595     0.67243028
h     0.25025101     0.20754460     0.67243046

K_POINTS automatic
2 2 2 1 1 1

CELL_PARAMETERS cubic
   15.458783000000     0.000001000000     0.000000000000
    0.000002000000    16.937437000000     0.000000000000
    0.000000000000     0.000000000000    23.018502000000
