&control
 title='crystal',
 prefix='crystal',
 pseudo_dir='.',
 calculation='vc-relax',
/
&system
 ibrav=0,
 celldm(1)=1.0,
 nat=    64,
 ntyp=  5,
 ecutwfc=60.0,
 ecutrho=600.0,
 xdm=.true.,
 xdm_a1=0.4073,
 xdm_a2=2.4150,
/
&electrons
 conv_thr = 1d-8,
/
&ions
/
&cell
/
ATOMIC_SPECIES
h      1.007940 h.UPF
c     12.010700 c.UPF
n     14.006700 n.UPF
o     15.999400 o.UPF
cl    35.453000 cl.UPF

ATOMIC_POSITIONS crystal
c     0.22181230     0.62421957     0.66349325
c     0.72181233     0.87578040     0.33650674
c     0.77818774     0.12421958     0.83650674
c     0.27818772     0.37578041     0.16349325
c     0.39288519     0.68381124     0.71541595
c     0.89288522     0.81618873     0.28458404
c     0.60711485     0.18381125     0.78458404
c     0.10711483     0.31618874     0.21541596
c     0.08244957     0.55109604     0.72234742
c     0.58244960     0.94890393     0.27765258
c     0.91755047     0.05109605     0.77765257
c     0.41755045     0.44890393     0.22234742
h     0.19848039     0.63461541     0.57717759
h     0.69848041     0.86538456     0.42282240
h     0.80151965     0.13461542     0.92282240
h     0.30151963     0.36538457     0.07717760
c     0.42480836     0.67159447     0.82649182
c     0.92480838     0.82840550     0.17350817
c     0.57519168     0.17159447     0.67350816
c     0.07519166     0.32840551     0.32649183
n     0.55129004     0.75007298     0.64924981
n     0.05129006     0.74992699     0.35075018
n     0.44871000     0.25007299     0.85075018
n     0.94870998     0.24992700     0.14924981
c     0.11517130     0.53817432     0.83382633
c     0.61517132     0.96182565     0.16617367
c     0.88482874     0.03817432     0.66617366
c     0.38482872     0.46182566     0.33382633
cl    0.87238390     0.47725331     0.65717163
cl    0.37238393     0.02274666     0.34282836
cl    0.12761613     0.97725331     0.84282836
cl    0.62761612     0.52274667     0.15717163
c     0.28875200     0.59825777     0.88531931
c     0.78875203     0.90174220     0.11468068
c     0.71124804     0.09825778     0.61468067
c     0.21124802     0.40174221     0.38531932
n     0.58569328     0.74301342     0.88712157
n     0.08569331     0.75698655     0.11287842
n     0.41430675     0.24301343     0.61287841
n     0.91430674     0.25698656     0.38712158
o     0.47709799     0.79472961     0.56632926
o     0.97709801     0.70527036     0.43367073
o     0.52290205     0.29472962     0.93367073
o     0.02290203     0.20527037     0.06632927
o     0.75049236     0.75382217     0.67955426
o     0.25049238     0.74617780     0.32044574
o     0.24950768     0.25382217     0.82044573
o     0.74950766     0.24617781     0.17955426
cl    0.93970642     0.45264806     0.90790770
cl    0.43970645     0.04735191     0.09209229
cl    0.06029361     0.95264807     0.59209229
cl    0.56029360     0.54735192     0.40790770
h     0.31082178     0.59161885     0.97189222
h     0.81082181     0.90838112     0.02810777
h     0.68917825     0.09161886     0.52810777
h     0.18917823     0.40838113     0.47189223
o     0.58577303     0.84619993     0.86813858
o     0.08577306     0.65380004     0.13186141
o     0.41422701     0.34619994     0.63186140
o     0.91422699     0.15380004     0.36813859
o     0.70344675     0.69533311     0.95554006
o     0.20344678     0.80466686     0.04445993
o     0.29655329     0.19533312     0.54445992
o     0.79655327     0.30466687     0.45554007

K_POINTS automatic
2 2 2 1 1 1

CELL_PARAMETERS cubic
   11.134929000000     0.000000000000     0.000000000000
    0.000000000000    22.177833000000     0.000000000000
    0.000000000000     0.000000000000    23.476138000000
