&control
 title='crystal',
 prefix='crystal',
 pseudo_dir='.',
 calculation='vc-relax',
/
&system
 ibrav=0,
 celldm(1)=1.0,
 nat=    64,
 ntyp=  5,
 ecutwfc=60.0,
 ecutrho=600.0,
 xdm=.true.,
 xdm_a1=0.4073,
 xdm_a2=2.4150,
/
&electrons
 conv_thr = 1d-8,
/
&ions
/
&cell
/
ATOMIC_SPECIES
h      1.007940 h.UPF
c     12.010700 c.UPF
n     14.006700 n.UPF
o     15.999400 o.UPF
cl    35.453000 cl.UPF

ATOMIC_POSITIONS crystal
cl    0.13065956     0.28972934     0.20133921
cl    0.86934043     0.71027066     0.79866079
cl    0.13065955     0.21027066     0.70133920
cl    0.86934044     0.78972934     0.29866080
cl    0.36479065     0.27606632     0.50140829
cl    0.63520934     0.72393368     0.49859171
cl    0.36479065     0.22393368     0.00140827
cl    0.63520934     0.77606632     0.99859173
o     0.13661324     0.95680603     0.38315611
o     0.86338675     0.04319397     0.61684389
o     0.13661324     0.54319397     0.88315610
o     0.86338675     0.45680603     0.11684390
o     0.41179253     0.86413977     0.67347337
o     0.58820746     0.13586023     0.32652663
o     0.41179253     0.63586023     0.17347335
o     0.58820746     0.36413977     0.82652664
o     0.37177918     0.94566614     0.41126832
o     0.62822081     0.05433386     0.58873168
o     0.37177918     0.55433386     0.91126831
o     0.62822081     0.44566614     0.08873169
o     0.07557439     0.87655442     0.11973262
o     0.92442561     0.12344558     0.88026738
o     0.07557438     0.62344558     0.61973261
o     0.92442561     0.37655442     0.38026739
n     0.13164487     0.86262895     0.27118190
n     0.86835512     0.13737105     0.72881810
n     0.13164486     0.63737105     0.77118189
n     0.86835513     0.36262895     0.22881811
n     0.36507581     0.85317853     0.51860183
n     0.63492418     0.14682147     0.48139817
n     0.36507581     0.64682147     0.01860181
n     0.63492419     0.35317853     0.98139819
c     0.29904356     0.71531888     0.45450968
c     0.70095643     0.28468112     0.54549032
c     0.29904356     0.78468112     0.95450967
c     0.70095643     0.21531888     0.04549033
c     0.19379814     0.72070513     0.32410247
c     0.80620186     0.27929487     0.67589753
c     0.19379813     0.77929487     0.82410246
c     0.80620186     0.22070513     0.17589754
c     0.14085080     0.58926081     0.24876467
c     0.85914919     0.41073919     0.75123533
c     0.14085080     0.91073919     0.74876466
c     0.85914920     0.08926081     0.25123534
c     0.19376896     0.45087497     0.30241895
c     0.80623103     0.54912503     0.69758105
c     0.19376896     0.04912503     0.80241894
c     0.80623104     0.95087497     0.19758106
c     0.29819853     0.44513999     0.43645253
c     0.70180146     0.55486001     0.56354747
c     0.29819853     0.05486001     0.93645251
c     0.70180146     0.94513999     0.06354749
c     0.35027965     0.57835531     0.51300374
c     0.64972035     0.42164469     0.48699626
c     0.35027964     0.92164469     0.01300372
c     0.64972035     0.07835531     0.98699628
h     0.05764491     0.59400748     0.15073508
h     0.94235508     0.40599252     0.84926492
h     0.05764490     0.90599252     0.65073507
h     0.94235509     0.09400748     0.34926493
h     0.43232693     0.57503136     0.61379937
h     0.56767306     0.42496864     0.38620063
h     0.43232693     0.92496864     0.11379935
h     0.56767306     0.07503136     0.88620065

K_POINTS automatic
2 2 2 1 1 1

CELL_PARAMETERS cubic
   23.123325000000     0.000000000000    -0.239174000000
    0.000000000000    16.772542000000     0.000000000000
   -4.751811000000     0.000000000000    14.908268000000
