%nprocs=4
%mem=4GB
#p pbepbe aug-cc-pvtz output=wfx scf=(conver=6) int=(grid=ultrafine)

title

-1 1
cl 0.000025000024701 0.019526003984321 2.322500559008565
c 0.000513000261323 0.000486000052610 -0.000089000198004
h 0.761279624049660 -0.750733122282461 0.006377008705276
h -1.030450902971049 -0.282724036410588 0.002146998937780
h 0.270728118269061 1.034927742155721 -0.008697027423177
cl -0.000297000179144 -0.019784030791229 -2.322458224831878

clch3clts.wfx

