%nprocs=4
%mem=4GB
#p pbepbe aug-cc-pvtz output=wfx scf=(conver=6) int=(grid=ultrafine)

title

-1 1
f 0.000000000000000 0.000000000000000 -1.889936115352857
c 0.000000000000000 0.000000000000000 -0.481562725323088
h -0.512359956901010 0.887433477116350 -0.127802469608582
h -0.512359956901010 -0.887433477116350 -0.127802469608582
h 1.024719913802020 0.000000000000000 -0.127802469608582
cl 0.000000000000000 0.000000000000000 2.754906249501695

fch3clcomp2.wfx

