%nprocs=4
%mem=4GB
#p pbepbe aug-cc-pvtz output=wfx scf=(conver=6) int=(grid=ultrafine)

title

-1 1
f 0.000000000000000 0.000000000000000 -1.996808744399694
c 0.000000000000000 0.000000000000000 0.052747502190235
h -0.531042558250280 0.919792691870841 -0.073852853192836
h -0.531042558250280 -0.919792691870841 -0.073852853192836
h 1.062085116500559 0.000000000000000 -0.073852853192836
cl 0.000000000000000 0.000000000000000 2.165619801787957

fch3clts.wfx

