%nprocs=4
%mem=4GB
#p pbepbe aug-cc-pvtz output=wfx scf=(conver=6) int=(grid=ultrafine)

title

-1 1
f 1.823650496242858 0.000221999893370 0.000077000046445
c 0.000236000334778 -0.000386999992895 -0.000214000321508
h 0.000155999853561 -0.305186021383608 1.025037420127173
h 0.000378999891855 1.039880840828123 -0.248964118034172
h -0.000003000000847 -0.736556464864335 -0.776207713103984
f -1.823867458898380 0.000243000290893 0.000081000096964

fch3fts.wfx

