%nprocs=4
%mem=4GB
#p pbepbe aug-cc-pvtz output=wfx scf=(conver=6) int=(grid=ultrafine)

title

0 1
s 0.000000000000000 0.000000000000000 0.102519088151766
h 0.000000000000000 0.966251124024910 -0.820155880277383
h 0.000000000000000 -0.966251124024910 -0.820155880277383

H2S.wfx

