%nprocs=4
%mem=4GB
#p pbepbe aug-cc-pvtz output=wfx scf=(conver=6) int=(grid=ultrafine)

title

0 1
c 0.000000000000000 0.000000000000000 -0.500365097113900
n 0.000000000000000 0.000000000000000 0.652639543126133
h 0.000000000000000 0.000000000000000 -1.566290452617197

hcn.wfx

