%nprocs=4
%mem=4GB
#p pbepbe aug-cc-pvtz output=wfx scf=(conver=6) int=(grid=ultrafine)

title

0 1
c 0.080319045896999 0.620259189732511 0.000000000000000
n 0.080319045896999 -0.568092900509709 0.000000000000000
h -1.044146009129358 0.255121094856116 0.000000000000000

hcnts.wfx

