%nprocs=4
%mem=4GB
#p pbepbe aug-cc-pvtz output=wfx scf=(conver=6) int=(grid=ultrafine)

title

0 2
h 0.000000000000000 0.000000000000000 -2.231275700019735
f 0.000000000000000 0.000000000000000 -0.616216275858883
f 0.000000000000000 0.000000000000000 0.864135798083298

hf2ts.wfx

