%nprocs=4
%mem=4GB
#p pbepbe aug-cc-pvtz output=wfx scf=(conver=6) int=(grid=ultrafine)

title

0 1
c 0.000000000000000 0.000000000000000 -0.739255268628144
n 0.000000000000000 0.000000000000000 0.430082426155019
h 0.000000000000000 0.000000000000000 1.424952511974894

hnc.wfx

