%nprocs=4
%mem=4GB
#p pbepbe aug-cc-pvtz output=wfx scf=(conver=6) int=(grid=ultrafine)

title

0 1
n 0.000000000000000 0.000000000000000 -1.195675902809105
n 0.000000000000000 0.000000000000000 -0.075110883810056
o 0.000000000000000 0.000000000000000 1.111938901321823

n2o.wfx

