%nprocs=4
%mem=4GB
#p pbepbe aug-cc-pvtz output=wfx scf=(conver=6) int=(grid=ultrafine)

title

0 3
n 0.000000000000000 0.000000000000000 0.129591264966022
h 0.000000000000000 0.000000000000000 -0.907142029825407

NH.wfx

