%nprocs=4
%mem=4GB
#p pbepbe aug-cc-pvtz output=wfx scf=(conver=6) int=(grid=ultrafine)

title

0 2
n 0.000000000000000 0.000000000000000 0.141415200514757
h 0.000000000000000 0.802312024803728 -0.494954260156067
h 0.000000000000000 -0.802312024803728 -0.494954260156067

NH2.wfx

