%nprocs=4
%mem=4GB
#p pbepbe aug-cc-pvtz output=wfx scf=(conver=6) int=(grid=ultrafine)

title

-1 1
o 0.000000000000000 0.000000000000000 0.106893796135180
h 0.000000000000000 0.000000000000000 -0.855150369081440

oh-.wfx

