%nprocs=4
%mem=4GB
#p pbepbe aug-cc-pvtz output=wfx scf=(conver=6) int=(grid=ultrafine)

title

0 2
o 0.000000000000000 0.000000000000000 0.107655282138341
h 0.000000000000000 0.000000000000000 -0.861241198752311

OH.wfx

