%nprocs=4
%mem=4GB
#p pbepbe aug-cc-pvtz output=wfx scf=(conver=6) int=(grid=ultrafine)

title

0 2
h 0.000000000000000 0.000000000000000 -1.340628123786078
cl 0.000000000000000 0.000000000000000 0.203252203224542
h 0.000000000000000 0.000000000000000 -2.114660918562756

RKT01.wfx

