%nprocs=4
%mem=4GB
#p pbepbe aug-cc-pvtz output=wfx scf=(conver=6) int=(grid=ultrafine)

title

0 3
h 0.000000000000000 0.000000000000000 -0.860288679776849
o 0.000000000000000 0.000000000000000 0.329023867098961
h 0.000000000000000 0.000000000000000 -1.771907548786928

RKT14.wfx

