%nprocs=4
%mem=4GB
#p pbepbe aug-cc-pvtz output=wfx scf=(conver=6) int=(grid=ultrafine)

title

0 2
c -1.260748824149417 -0.000006000022862 0.012290987353036
n 1.313253786785717 -0.000004999999648 -0.136782254053552
h -1.583986138472447 0.908539057656085 -0.484744315093532
h -1.463672408327424 -0.004573001267016 1.077304253019608
h -1.584748153652817 -0.903882298220493 -0.492699965247474
h 0.043107992519321 -0.000064000279139 -0.151691821905575
h 1.480457909383899 0.805577048180729 0.467751376571290
h 1.480558453053531 -0.805524130459870 0.467807998532609

RKT21.wfx

