&control
 title='crystal',
 prefix='crystal',
 pseudo_dir='.',
 calculation='vc-relax',
/
&system
 ibrav=0,
 celldm(1)=1.0,
 nat=   124,
 ntyp=  4,
 ecutwfc=60.0,
 ecutrho=600.0,
 xdm=.true.,
 xdm_a1=0.4073,
 xdm_a2=2.4150,
/
&electrons
 conv_thr = 1d-8,
/
&ions
/
&cell
/
ATOMIC_SPECIES
h      1.007940 h.UPF
c     12.010700 c.UPF
n     14.006700 n.UPF
o     15.999400 o.UPF

ATOMIC_POSITIONS crystal
c     0.09730032     0.26853532     0.09209151
c     0.59730110     0.73146713     0.09209493
c     0.40269549     0.26853169     0.59207708
c     0.90269628     0.73147076     0.59208050
c     0.97857274     0.29719468     0.98410041
c     0.47857353     0.70280778     0.98410383
c     0.52143070     0.29719184     0.48409470
c     0.02143149     0.70281061     0.48409813
c     0.83835154     0.25187337     0.92424716
c     0.33835233     0.74812908     0.92425059
c     0.66165529     0.25187061     0.42424841
c     0.16165608     0.74813184     0.42425183
c     0.81612310     0.17731706     0.97364280
c     0.31612389     0.82268539     0.97364622
c     0.68388445     0.17731521     0.47364674
c     0.18388524     0.82268724     0.47365016
c     0.90698941     0.07006745     0.14475470
c     0.40699020     0.92993500     0.14475813
c     0.59301942     0.07006681     0.64476182
c     0.09302021     0.92993565     0.64476524
c     0.01538407     0.04059125     0.25931279
c     0.51538486     0.95941121     0.25931621
c     0.48461933     0.04059041     0.75931570
c     0.98462011     0.95941204     0.75931912
c     0.15202789     0.08656581     0.32315907
c     0.65202868     0.91343664     0.32316249
c     0.34796601     0.08656396     0.82315081
c     0.84796680     0.91343849     0.82315423
c     0.18135545     0.15993670     0.26858182
c     0.68135624     0.84006576     0.26858524
c     0.31863630     0.15993337     0.76856718
c     0.81863709     0.84006908     0.76857060
c     0.07299488     0.19211542     0.14992178
c     0.57299567     0.80788704     0.14992520
c     0.42699859     0.19211137     0.64990756
c     0.92699938     0.80789108     0.64991099
c     0.93086721     0.14601498     0.08821613
c     0.43086800     0.85398747     0.08821955
c     0.56913366     0.14601187     0.58821304
c     0.06913444     0.85399059     0.58821647
c     0.25764015     0.31527933     0.14507676
c     0.75764093     0.68472312     0.14508019
c     0.24235644     0.31527572     0.64506632
c     0.74235723     0.68472674     0.64506974
c     0.43110696     0.28286298     0.07741254
c     0.93110775     0.71713947     0.07741596
c     0.06888852     0.28285962     0.57740472
c     0.56888931     0.71714283     0.57740814
c     0.17318693     0.45030450     0.19544632
c     0.67318772     0.54969795     0.19544975
c     0.32678642     0.45029906     0.69546165
c     0.82678721     0.54970339     0.69546507
c     0.18753381     0.53218274     0.13977598
c     0.68753460     0.46781972     0.13977941
c     0.31245965     0.53218095     0.63979994
c     0.81246044     0.46782151     0.63980337
n     0.24616704     0.39633607     0.10351733
n     0.74616783     0.60366639     0.10352075
n     0.25382248     0.39633293     0.60350352
n     0.75382327     0.60366953     0.60350694
o     0.09926565     0.43439821     0.32189446
o     0.59926644     0.56560424     0.32189789
o     0.40067222     0.43438702     0.82190719
o     0.90067301     0.56561543     0.82191062
h     0.30289510     0.41278978     0.99963498
h     0.80289589     0.58721267     0.99963840
h     0.19709481     0.41278621     0.49962572
h     0.69709560     0.58721624     0.49962914
h     0.99471225     0.35603963     0.94354057
h     0.49471304     0.64396282     0.94354399
h     0.50530084     0.35603789     0.44353904
h     0.00530163     0.64396457     0.44354246
h     0.74811633     0.27632015     0.83850139
h     0.24811712     0.72368230     0.83850482
h     0.75189663     0.27631679     0.33850688
h     0.25189741     0.72368566     0.33851031
h     0.70897400     0.14189314     0.92738037
h     0.20897478     0.85810932     0.92738379
h     0.79105005     0.14189512     0.42740076
h     0.29105084     0.85810733     0.42740418
h     0.79831429     0.03579513     0.09764615
h     0.29831508     0.96420733     0.09764958
h     0.70171273     0.03579754     0.59767615
h     0.20171352     0.96420491     0.59767958
h     0.99516851     0.98233461     0.30175766
h     0.49516930     0.01766785     0.30176108
h     0.50484973     0.98233766     0.80177568
h     0.00485052     0.01766479     0.80177910
h     0.23430897     0.06437786     0.41699811
h     0.73430976     0.93562459     0.41700153
h     0.26568301     0.06437816     0.91699046
h     0.76568380     0.93562430     0.91699388
h     0.28769916     0.19374191     0.32011952
h     0.78769994     0.80626055     0.32012294
h     0.21229285     0.19374007     0.82010110
h     0.71229364     0.80626238     0.82010452
h     0.26413145     0.31299552     0.27210576
h     0.76413224     0.68700694     0.27210918
h     0.23587599     0.31299358     0.77209395
h     0.73587678     0.68700888     0.77209738
h     0.43580158     0.29194138     0.95183181
h     0.93580237     0.70806108     0.95183523
h     0.06419864     0.29193779     0.45182486
h     0.56419943     0.70806467     0.45182828
h     0.44266481     0.22123466     0.09935486
h     0.94266560     0.77876779     0.09935829
h     0.05733160     0.22123115     0.59934724
h     0.55733239     0.77877131     0.59935066
h     0.54687695     0.31132613     0.12862535
h     0.04687774     0.68867632     0.12862877
h     0.95312010     0.31132355     0.62861716
h     0.45312089     0.68867890     0.62862059
h     0.19003093     0.53672717     0.01320512
h     0.69003171     0.46327528     0.01320854
h     0.30997132     0.53673478     0.51323045
h     0.80997211     0.46326768     0.51323387
h     0.07417333     0.56439625     0.18518500
h     0.57417412     0.43560621     0.18518842
h     0.42583037     0.56438374     0.68522260
h     0.92583116     0.43561872     0.68522603
h     0.30997195     0.55750975     0.18717691
h     0.80997274     0.44249271     0.18718033
h     0.19003451     0.55751597     0.68720766
h     0.69003530     0.44248648     0.68721108

K_POINTS automatic
2 2 2 1 1 1

CELL_PARAMETERS cubic
   14.190208000000    -0.000001000000    -0.000042000000
   -0.000003000000    32.885284000000     0.000000000000
   -0.000049000000     0.000000000000    16.298242000000
