%nprocs=4
%mem=4GB
#p pbepbe aug-cc-pvtz output=wfx scf=(conver=6) int=(grid=ultrafine)

title

0 1
c 2.858296592153671 0.215473099061710 -0.495507462620519
c 1.482535696033743 0.747261058973895 -0.056060495915395
c 0.331094782911928 -0.135413874167297 -0.558531457964296
c -1.054414113026297 0.107826107013519 0.062011495108663
c -1.741290061033600 -1.238520791473260 -0.178045486750016
o -2.817198980118774 -1.523682770038442 0.701103447102684
c -0.606713146586205 -2.236404716124534 0.048070496176838
o 3.250488562779740 -0.902494816624540 0.297490477621590
o -1.812667055642883 1.145173028816725 -0.538524459414582
o 1.458983697558685 0.916564046021787 1.355796397827131
o 0.611673761406738 -1.524501769666519 -0.257916480421211
c -1.709099063649705 2.417016933165930 0.096794492949534
h 3.617459534886186 0.984206041216513 -0.327320475379848
h 2.847082593134861 -0.033946881853865 -1.566104381820995
h 1.338600706583893 1.740698984359037 -0.501093461996989
h 0.257941788097327 -0.012553883526500 -1.651353375416698
h -0.950781120609056 0.276224094670102 1.141848414061557
h -2.085444034819682 -1.263918789185611 -1.222448407709905
h -3.537685925452452 -0.910150815950700 0.502917462116539
h -0.671541141430585 -3.119320649266772 -0.594639455209276
h -0.592363147648216 -2.554078692026696 1.097213417205584
h 2.577603613541993 -1.590928764465133 0.159205487827350
h 2.037081654182598 0.228733098256268 1.725057370015966
h -2.004055041291217 2.356813937599437 1.153024412865018
h -0.692662140026848 2.825980902362819 0.039622496902138
h -2.392928011935832 3.083945882852137 -0.432610467160916

C5.wfx

