%nprocs=4
%mem=4GB
#p pbepbe aug-cc-pvtz output=wfx scf=(conver=6) int=(grid=ultrafine)

title

0 1
c -2.997214466532427 -0.665352873017001 -0.397930200893198
c -1.587820572543677 -0.939578852105665 0.151055757942976
c -0.514096653669985 -0.116791914389071 -0.573989187542209
c 0.897013240295465 -0.233880905301274 0.016907768142519
c 1.484859195679321 1.164275988981295 -0.212120214520295
o 2.531959116967092 1.425716969450552 0.717877715029612
c 0.251058288539570 2.055791921730451 -0.025311228891813
o -3.487781429579289 0.595183031919945 0.058863764633360
o 1.571535189173618 -1.293788825366646 -0.634766182685213
o -1.567021574045423 -0.720492868800880 1.557838651896253
o -0.847990628579725 1.296391979047411 -0.551629189305069
c 2.716858103079141 -1.782653788878215 0.060726764746834
h -3.694399413638055 -1.415025816279267 -0.014014229486190
h -2.997288466144099 -0.722213868443846 -1.495994118139968
h -1.339792591216943 -1.996154772422277 -0.016267229498154
h -0.480259655870542 -0.439807889761064 -1.623985108363860
h 0.843197244299947 -0.415761891661534 1.099695686133292
h 1.858976167285377 1.222286984909367 -1.243958136993476
h 2.989274082326835 2.239149907827036 0.468370733676704
h 0.300952285007738 3.003085850648314 -0.571952187612424
h 0.103428299651184 2.261672906403029 1.043761690640202
h -2.855558477158332 1.269440981168036 -0.243419212280188
h -2.214497525564183 -0.018950921568770 1.735829638604143
h 3.498623044194765 -1.018956846297312 0.142021758411027
h 2.446657123098885 -2.122938762880273 1.070214688315408
h 3.089330074943752 -2.630645724912353 -0.517828191960304

C6.wfx

