%nprocs=4
%mem=4GB
#p pbepbe aug-cc-pvtz output=wfx scf=(conver=6) int=(grid=ultrafine)

title

0 1
c -0.616098578579299 -1.461914848360294 -0.260827271831895
o 0.683598323664170 -1.158222870981724 0.233132690808092
c 1.195662284764378 0.101321034126582 -0.240147273645955
c 0.281873353686237 1.234754948558042 0.246417689921516
c -1.618133503136586 -0.415094926904664 0.231145690716038
c -1.156394537994803 0.971989968300424 -0.201626276484931
o -1.964951476701468 2.005562890328802 0.355190681638638
o 0.770357317016103 2.457452856361079 -0.289673269699724
c 2.623327177073544 0.207108025966895 0.283980686889551
o 3.437017116182330 -0.858099893831616 -0.188821277612925
h -2.884786407674077 1.843698902909144 0.088235701643911
h 0.114162366636465 3.145599804413416 -0.088115284988799
h 3.008252148127019 -1.687008831344198 0.079565702475841
o -1.020117548160963 -2.698751754685408 0.249483689750366
o -2.914659405151123 -0.613292912042369 -0.325016267204877
h -1.194939534929768 1.027124964418036 -1.301446193684421
h 0.304773351864237 1.265879946501624 1.347236606905762
h 1.218161283037252 0.095031034325474 -1.341335190660345
h 3.073636143114337 1.134034956021685 -0.076452285987804
h -0.458273590180280 -3.398694701963283 -0.119864282875802
h -3.244903380264614 -1.477474846969775 -0.030249289436830
h -0.589779580744384 -1.479060846627526 -1.364095188657686
h -1.653700500295781 -0.470999922957546 1.328513608168388
h 2.605917178647073 0.229057024437199 1.384766603853892

G1.wfx

