%nprocs=4
%mem=4GB
#p pbepbe aug-cc-pvtz output=wfx scf=(conver=6) int=(grid=ultrafine)

title

0 1
c 0.836607785287479 -0.224478401720696 1.121311053005668
c 0.382566107994379 -1.358786054399866 0.181267104263017
c -0.591865141039648 -0.889018455512710 -0.925098507989708
o -0.152853291881819 0.323161991768336 -1.570756813586012
c 1.264142195136745 1.012916910386948 0.310632967784572
c 0.245956462550257 1.425402999474212 -0.779216593566989
o -0.811748453107463 2.175095819690787 -0.244493591955650
o 1.520545433980732 -1.996250342497796 -0.385830647284483
c -2.082231105709532 -0.854076322443316 -0.552964879861195
h -1.546373424864686 1.565623242708810 0.008151616094131
o -2.461221807344359 0.105885765941360 0.434340352644104
h 2.120426071853352 -1.299294208971276 -0.711423048899026
h -1.919648287144788 -0.047228163619517 1.236072263228676
o -0.240406700347072 0.058139890266654 2.027844022618609
o 2.520804328698777 0.641237751287070 -0.276139454792230
h 0.756759310752396 2.090089138455607 -1.488436231628217
h -0.117575391110980 -2.125688781085977 0.783493025890185
h 2.787060388899246 1.313217861474203 -0.924321247743137
h -0.511737123881533 -1.644001369794256 -1.715847462558157
h -2.654036511898191 -0.596591931698827 -1.448435508409889
h -0.073300103520901 0.897636307971114 2.486105111847248
h 1.703546406440124 -0.584030616285491 1.688354464933150
h 1.405047152403436 1.875324744326037 0.979400060014057
h -2.380464302145994 -1.864287775721411 -0.234008054048766

G4.wfx

