## FHIaims input file generated by critic2.
lattice_vector 3.1624999918       0.0000000000       0.0000000000       
lattice_vector -1.5812500041      2.7388053371       0.0000000000       
lattice_vector 0.0000000000       0.0000000000       15.3022000000      
atom_frac  0.3333351200       0.6666675600       0.2500000000       Mo
atom_frac  0.6666665900       0.3333332900       0.7500000000       Mo
atom_frac  0.6666665900       0.3333332900       0.1466926300       S 
atom_frac  0.6666665900       0.3333332900       0.3533073700       S 
atom_frac  0.3333351200       0.6666675600       0.6466926300       S 
atom_frac  0.3333351200       0.6666675600       0.8533073700       S 
