&control
 title='crystal',
 prefix='crystal',
 pseudo_dir='../..',
 forc_conv_thr=1.0D-4,
 etot_conv_thr=1.0D-5,
/
&system
 ibrav=0,
 nat=    40,
 ntyp=  4,
 ecutwfc=80.0,
 ecutrho=800.0,
 vdw_corr='xdm',
 nosym=.true.,
/
&electrons
 conv_thr = 1d-10,
/
&ions
/
&cell
 press_conv_thr=0.01,
/
ATOMIC_SPECIES
C    12.010700 c.UPF
N    14.006700 n.UPF
O    15.999400 o.UPF
H     1.007940 h.UPF

ATOMIC_POSITIONS crystal
C             0.0236947791        0.3876602072        0.2219214846
C             0.4763063723        0.8876598677        0.7780788736
C             0.2392373061        0.4400240607        0.5892226982
C             0.2607624383        0.9400240150        0.4107770058
C             0.7606824040        0.5600432340        0.9195748597
C             0.7393165698        0.0600432717        0.0804264455
C             0.9761768757        0.6123514146        0.2869809205
C             0.5238206575        0.1123518919        0.7130168524
N             0.0543389073        0.4035670967        0.6434079772
N             0.4456616715        0.9035669239        0.3565917635
N             0.9202657857        0.3716881153        0.4090669274
N             0.5797346151        0.8716880272        0.5909331235
N             0.2266685523        0.4312327112        0.3324505286
N             0.2733311213        0.9312326100        0.6675491649
N             0.4193210285        0.4824210654        0.7914284245
N             0.0806802442        0.9824206218        0.2085718428
N             0.6950652883        0.3237212351        0.3727219726
N             0.8049343695        0.8237212857        0.6272775888
N             0.5806219425        0.5176463096        0.7173473915
N             0.9193775943        0.0176462856        0.2826534300
N             0.9454130586        0.5966133719        0.8653794533
N             0.5545878033        0.0966130234        0.1346217765
N             0.7733476639        0.5687201603        0.1764181377
N             0.7266540226        0.0687196611        0.8235842229
N             0.0793803622        0.6285197820        0.0997421654
N             0.4206192232        0.1285196720        0.9002611379
N             0.3050280900        0.6762577384        0.1364467742
N             0.1949713195        0.1762578549        0.8635558099
O             0.5882336275        0.3008942426        0.1471739935
O             0.9117673198        0.8008941507        0.8528267122
O             0.6448525780        0.3125060564        0.5679330598
O             0.8551481787        0.8125056685        0.4320657455
O             0.4117901510        0.6989945729        0.3621865421
O             0.0882103170        0.1989945315        0.6378176374
O             0.3557375171        0.6873846873        0.9415411422
O             0.1442633185        0.1873844725        0.0584610369
H             0.9447237497        0.3668873881        0.0192760923
H             0.5552763744        0.8668873261        0.9807235011
H             0.0551892695        0.6330281168        0.4897181773
H             0.4448111422        0.1330279222        0.5102850264

K_POINTS automatic
5 2 5  1 1 1

CELL_PARAMETERS bohr
  10.926661752  -0.000000288  -0.016060886
  -0.000000760  30.016661124  -0.000018774
  -3.661579741  -0.000005880   9.616667773
