&control
 title='crystal',
 prefix='crystal',
 pseudo_dir='.',
 calculation='vc-relax',
/
&system
 ibrav=0,
 celldm(1)=1.0,
 nat=    52,
 ntyp=  4,
 ecutwfc=60.0,
 ecutrho=600.0,
 xdm=.true.,
 xdm_a1=0.4073,
 xdm_a2=2.4150,
/
&electrons
 conv_thr = 1d-8,
/
&ions
/
&cell
/
ATOMIC_SPECIES
h      1.007940 h.UPF
c     12.010700 c.UPF
n     14.006700 n.UPF
o     15.999400 o.UPF

ATOMIC_POSITIONS crystal
c     0.56554796     0.14100943     0.60324873
c     0.43445206     0.64100944     0.89675137
c     0.06553857     0.35898966     0.39675112
c     0.93446146     0.85898967     0.10324898
c     0.47618317     0.16148675     0.35911616
c     0.52381686     0.66148676     0.14088394
c     0.97617871     0.33851253     0.64088420
c     0.02382132     0.83851254     0.85911590
c     0.27279658     0.08963777     0.30828087
c     0.72720345     0.58963778     0.19171923
c     0.77279753     0.41036437     0.69172068
c     0.22720250     0.91036438     0.80827942
h     0.71154348     0.05887084     0.19447169
h     0.28845654     0.55887085     0.30552841
h     0.21154349     0.44112700     0.80552845
h     0.78845654     0.94112701     0.69447165
h     0.78439519     0.19629623     0.21166189
h     0.21560484     0.69629624     0.28833821
h     0.28439533     0.30370177     0.78833714
h     0.71560470     0.80370178     0.71166296
h     0.58818704     0.15311375     0.01830890
h     0.41181299     0.65311376     0.48169120
h     0.08818907     0.34688459     0.98168990
h     0.91181095     0.84688460     0.51831020
h     0.43264743     0.24934304     0.34413078
h     0.56735259     0.74934305     0.15586932
h     0.93263980     0.25065671     0.65587075
h     0.06736023     0.75065672     0.84412935
h     0.20637730     0.10938486     0.13761166
h     0.79362273     0.60938487     0.36238844
h     0.70638100     0.39061835     0.86239038
h     0.29361903     0.89061836     0.63760972
h     0.14206186     0.10424842     0.43584118
h     0.85793817     0.60424843     0.06415892
h     0.64205934     0.39575551     0.56416070
h     0.35794068     0.89575552     0.93583940
h     0.31644965     0.00157131     0.31189525
h     0.68355038     0.50157132     0.18810485
h     0.81645666     0.49843010     0.68810587
h     0.18354336     0.99843011     0.81189423
n     0.65409698     0.14017480     0.18537752
n     0.34590304     0.64017481     0.31462258
n     0.15409726     0.35982297     0.81462229
n     0.84590277     0.85982298     0.68537781
o     0.74030647     0.08455453     0.62717973
o     0.25969356     0.58455454     0.87282037
o     0.24029680     0.41544445     0.37282100
o     0.75970323     0.91544446     0.12717910
o     0.45256620     0.18373941     0.76726483
o     0.54743383     0.68373942     0.73273527
o     0.95255352     0.31626091     0.23273397
o     0.04744651     0.81626092     0.26726613

K_POINTS automatic
2 2 2 1 1 1

CELL_PARAMETERS cubic
   11.348407000000     0.000000000000    -0.000050000000
    0.000000000000    22.831633000000     0.000000000000
   -0.000049000000     0.000000000000    10.983694000000
