## FHIaims input file generated by critic2.
lattice_vector 3.6619999925       0.0000000000       0.0000000000       
lattice_vector -1.8310000038      3.1713850265       0.0000000000       
lattice_vector 0.0000000000       0.0000000000       8.8130000000       
atom_frac  0.3333338600       0.6666669300       0.1648984500       S 
atom_frac  0.6666677100       0.3333338600       0.8351015500       S 
atom_frac  0.0000000000       0.0000000000       0.0000000000       Zr
