&control
 title='crystal',
 prefix='crystal',
 pseudo_dir='..',
 calculation='vc-relax',
 etot_conv_thr=1.0D-5,
/
&system
 ibrav=0,
 celldm(1)=1.0,
 nat=    56,
 ntyp=  5,
 ecutwfc=80.0,
 ecutrho=800.0,
 xdm=.true.,
 xdm_a1=0.6512,
 xdm_a2=1.4633,
/
&electrons
 conv_thr = 1d-8,
/
&ions
/
&cell
/
ATOMIC_SPECIES
h      1.007940 h.UPF
c     12.010700 c.UPF
n     14.006700 n.UPF
o     15.999400 o.UPF
s     32.064999 s.UPF

ATOMIC_POSITIONS crystal
s        0.408719337   0.025028157   0.610892739
s        0.908719337   0.474971843   0.389107261
s        0.591282068   0.525028000   0.889105823
s        0.091282068   0.974972000   0.110894177
c        0.433438349   0.884016524   0.740541220
c        0.933438349   0.615983476   0.259458780
c        0.566561477   0.384016847   0.759460604
c        0.066561477   0.115983153   0.240539396
c        0.590336102   0.823299971   0.663653186
c        0.090336102   0.676700029   0.336346814
c        0.409664144   0.323299884   0.836350336
c        0.909664144   0.176700116   0.163649664
c        0.607871784   0.819898309   0.381513379
c        0.107871784   0.680101691   0.618486621
c        0.392122875   0.319901435   0.118489831
c        0.892122875   0.180098565   0.881510169
n        0.736373381   0.874947237   0.782339398
n        0.236373381   0.625052763   0.217660602
n        0.263625804   0.374947824   0.717665663
n        0.763625804   0.125052176   0.282334337
o        0.510579219   0.757562803   0.264843073
o        0.010579219   0.742437197   0.735156927
o        0.489423739   0.257560308   0.235166888
o        0.989423739   0.242439692   0.764833112
o        0.718685433   0.881206765   0.286007207
o        0.218685433   0.618793235   0.713992793
o        0.281317368   0.381205498   0.213994246
o        0.781317368   0.118794502   0.786005754
h        0.337180984   0.992469229   0.396006074
h        0.837180984   0.507530771   0.603993926
h        0.662820681   0.492468978   0.103993700
h        0.162820681   0.007531022   0.896006300
h        0.430594542   0.892900161   0.941613912
h        0.930594542   0.607099839   0.058386088
h        0.569403448   0.392900888   0.558387521
h        0.069403448   0.107099112   0.441612479
h        0.327830255   0.832750838   0.688927601
h        0.827830255   0.667249162   0.311072399
h        0.672169683   0.332750835   0.811072316
h        0.172169683   0.167249165   0.188927684
h        0.582148521   0.736476370   0.732396542
h        0.082148521   0.763523630   0.267603458
h        0.417851262   0.236476808   0.767609758
h        0.917851262   0.263523192   0.232390242
h        0.843287109   0.832389860   0.730087979
h        0.343287109   0.667610140   0.269912021
h        0.156712856   0.332390111   0.769914331
h        0.656712856   0.167609889   0.230085669
h        0.748824210   0.959831508   0.741545696
h        0.248824210   0.540168492   0.258454304
h        0.251175243   0.459831391   0.758455466
h        0.751175243   0.040168609   0.241544534
h        0.727300372   0.869784883   0.977790647
h        0.227300372   0.630215117   0.022209353
h        0.272699753   0.369785347   0.522211370
h        0.772699753   0.130214653   0.477788630

K_POINTS automatic
4 4 4 1 1 1

CELL_PARAMETERS cubic
  15.436461919   0.000000000   0.000000000
   0.000000000  22.423158251   0.000044427
   0.000000000   0.000020728  10.249469466
