&control
 title='crystal',
 prefix='crystal',
 pseudo_dir='../..',
 forc_conv_thr=1.0D-4,
 etot_conv_thr=1.0D-5,
/
&system
 ibrav=0,
 nat=    22,
 ntyp=  4,
 ecutwfc=80.0,
 ecutrho=800.0,
 vdw_corr='xdm',
 nosym=.true.,
/
&electrons
 conv_thr = 1d-10,
/
&ions
/
&cell
 press_conv_thr=0.01,
/
ATOMIC_SPECIES
O    15.999400 o.UPF
N    14.006700 n.UPF
C    12.010700 c.UPF
H     1.007940 h.UPF

ATOMIC_POSITIONS crystal
O             0.8819607393        0.7138696389        0.0899324440
O             0.6816677089        0.2626690735        0.4403030877
O             0.4267542584        0.5164132114        0.3482841839
O             0.1150177161        0.2843612192        0.9099249721
O             0.3154147226        0.7355481102        0.5595355688
O             0.5703268425        0.4818092640        0.6515609446
N             0.4702803614        0.2532471059        0.1151873053
N             0.5267195610        0.7449599340        0.8846530576
C             0.6073229352        0.5005892474        0.0571980611
C             0.6351852945        0.2094764994        0.2235267487
C             0.5682035530        0.3458417307        0.3436833774
C             0.3896636394        0.4976373086        0.9426539743
C             0.3618196277        0.7887105760        0.7763087016
C             0.4288618818        0.6523706681        0.6561571444
H             0.2414058626        0.0879776428        0.0814751099
H             0.6349139391        0.3532180300        0.5214972691
H             0.5566681539        0.9703701957        0.2299613815
H             0.9098285522        0.3124399353        0.2176481450
H             0.3621924084        0.6450217375        0.4783400704
H             0.4402808559        0.0278127604        0.7698749210
H             0.0871744627        0.6856883648        0.7821790367
H             0.7555863636        0.9102467662        0.9183601848

K_POINTS automatic
7 6 2  1 1 1

CELL_PARAMETERS bohr
   8.272328026   0.000550732  -0.005404483
  -3.909876704   8.500267081  -0.001276733
  -0.670016169  -2.055693375  20.437090402
