%nprocs=4
%mem=4GB
#p pbepbe aug-cc-pvtz output=wfx scf=(conver=6) int=(grid=ultrafine)

title

0 1
c 0.663482186301825 0.000000000000000 0.000000000000000
h 1.234623973065746 -0.922535759042772 0.000000000000000
h 1.234623973065746 0.922535759042772 0.000000000000000
c -0.663482186301825 0.000000000000000 0.000000000000000
h -1.234623973065746 -0.922535759042772 0.000000000000000
h -1.234623973065746 0.922535759042772 0.000000000000000

00r.wfx

