%nprocs=4
%mem=4GB
#p pbepbe aug-cc-pvtz output=wfx scf=(conver=6) int=(grid=ultrafine)

title

0 1
n 0.445311065109202 0.151605821745461 0.000000000000000
n 1.575259210949453 0.201030251759232 0.000000000000000
n -0.785776027096863 0.281312683885168 0.000000000000000
h -1.234794248961792 -0.633948757389860 0.000000000000000

13r_2.wfx

