%nprocs=4
%mem=4GB
#p pbepbe aug-cc-pvtz output=wfx scf=(conver=6) int=(grid=ultrafine)

title

0 1
n 0.000000000000000 0.000000000000000 -1.145428913921352
n 0.000000000000000 0.000000000000000 -0.019340998340426
o 0.000000000000000 0.000000000000000 1.164769912261778

13r_1.wfx

