%nprocs=4
%mem=4GB
#p pbepbe aug-cc-pvtz output=wfx scf=(conver=6) int=(grid=ultrafine)

title

0 1
c 0.935776597133661 0.395371403547423 0.000000000000000
c 0.851965943705356 -0.968410781687504 0.000000000000000
o -1.505062474052130 -1.243406183903973 0.000000000000000
n -1.728833251547140 -0.045907220106894 0.000000000000000
c -1.167136316461217 1.022845202717308 0.000000000000000
h 1.152738356494958 0.926949786798103 0.920000172743871
h 1.152738356494958 0.926949786798103 -0.920000172743871
h 0.877627681891047 -1.536604080810873 0.920094636162175
h 0.877627681891047 -1.536604080810873 -0.920094636162175
h -1.447442575550536 2.058816167459160 0.000000000000000

13ts_4a.wfx

