%nprocs=4
%mem=4GB
#p pbepbe aug-cc-pvtz output=wfx scf=(conver=6) int=(grid=ultrafine)

title

0 1
c 1.433623734908223 -0.071723393151304 0.682000918972406
c 1.433623734908223 -0.071723393151304 -0.682000918972406
c -0.965829095371323 0.171833088001578 -1.199581424326098
n -1.342658860857777 -0.307345740353598 0.000000000000000
c -0.965829095371323 0.171833088001578 1.199581424326098
h 1.473496976434746 -0.996497272369682 1.244154829018713
h 1.659325462161831 0.827210995710788 1.242876535424280
h 1.473496976434746 -0.996497272369682 -1.244154829018713
h 1.659325462161831 0.827210995710788 -1.242876535424280
h -0.816226990676797 1.237066671690308 -1.285513649405333
h -1.295519307743876 -0.375992602814525 -2.070480868783547
h -1.635082698567826 -1.276449233780719 0.000000000000000
h -0.816226990676797 1.237066671690308 1.285513649405333
h -1.295519307743876 -0.375992602814525 2.070480868783547

13ts_9a.wfx

