%nprocs=4
%mem=4GB
#p pbepbe aug-cc-pvtz output=wfx scf=(conver=6) int=(grid=ultrafine)

title

0 1
c 1.804707506751773 -0.757478212695645 -1.129797317240768
c 2.523036708454593 -0.422644118676107 0.181626050999582
h 2.614943734261570 -1.254379352222705 0.889487249763042
h 3.535610992779789 -0.043379012180582 0.000000000000000
h 1.073183301343870 -1.558180437528351 -0.973470273345007
h 2.443599686149121 -1.063528298632795 -1.970959553434420
c 1.097301308116071 0.580973163134014 -1.318664370273578
c 1.629699457610489 0.733203205879360 0.669199187907387
h 2.101596590116565 1.714392481391817 0.674492189393632
c 0.593346166608282 0.580973163134014 1.609622451972982
h 1.766555496038900 1.400750393322875 -1.574983442246539
c -0.235306066072627 0.733203205879360 -1.745960490255940
c -1.104225310060289 -0.422644118676107 -2.275826639039392
c -1.880787528114615 -0.757478212695645 -0.998023280239354
h -0.537153150829601 -1.254379352222705 -2.709351760770820
h -0.466670131038362 1.714392481391817 -2.157281605752604
h -1.767805496389894 -0.043379012180582 -3.061928859772493
h -1.379641387395584 -1.558180437528351 -0.442669124299014
h -2.928700822362807 -1.063528298632795 -1.130740317505557
c -1.690647474724353 0.580973163134014 -0.290959081699683
c -1.394392391537583 0.733203205879360 1.076761302348548
h -2.247253631016251 1.400750393322875 -0.742390208459020
h -1.634925459077924 1.714392481391817 1.482789416358972
c -1.418810398394025 -0.422644118676107 2.094200588039810
h -2.077790583431975 -1.254379352222705 1.819864511007772
c 0.076080021362847 -0.757478212695645 2.127821597480401
h 0.485101136213686 -1.063528298632795 3.101698870939692
h 0.480698134977345 1.400750393322875 2.317373650705558
h 0.306458086051719 -1.558180437528351 1.416139397644021
h -1.767805496389894 -0.043379012180582 3.061928859772493

TS10.wfx

