## FHIaims input file generated by critic2.
lattice_vector 3.5430999929       0.0000000000       0.0000000000       
lattice_vector -1.7715500035      3.0684146061       0.0000000000       
lattice_vector 0.0000000000       0.0000000000       5.9389000000       
atom_frac  0.3333317500       0.6666658700       0.1925996400       S 
atom_frac  0.6666667500       0.3333333800       0.8074003600       S 
atom_frac  0.0000000000       0.0000000000       0.0000000000       Pt
