&control
 title='crystal',
 prefix='crystal',
 pseudo_dir='.',
 calculation='vc-relax',
/
&system
 ibrav=0,
 celldm(1)=1.0,
 nat=    84,
 ntyp=  4,
 ecutwfc=60.0,
 ecutrho=600.0,
 xdm=.true.,
 xdm_a1=0.4073,
 xdm_a2=2.4150,
/
&electrons
 conv_thr = 1d-8,
/
&ions
/
&cell
/
ATOMIC_SPECIES
h      1.007940 h.UPF
c     12.010700 c.UPF
n     14.006700 n.UPF
o     15.999400 o.UPF

ATOMIC_POSITIONS crystal
o     0.60218776     0.18715356     0.84112687
o     0.39781227     0.81284644     0.34112687
o     0.89785798     0.68716789     0.34113739
o     0.10214204     0.31283210     0.84113739
o     0.48953033     0.06947744     0.95781685
o     0.51046970     0.93052255     0.45781685
o     0.01052154     0.56948395     0.45782878
o     0.98947849     0.43051604     0.95782878
n     0.59749572     0.08696513     0.58209612
n     0.40250431     0.91303487     0.08209612
n     0.90256030     0.58697748     0.08209828
n     0.09743973     0.41302252     0.58209828
c     0.55705391     0.10881731     0.80178750
c     0.44294611     0.89118269     0.30178750
c     0.94299250     0.60882841     0.30181138
c     0.05700753     0.39117159     0.80181138
c     0.68906861     0.14824520     0.45469593
c     0.31093141     0.85175479     0.95469593
c     0.81096754     0.64826301     0.95471472
c     0.18903249     0.35173699     0.45471472
c     0.66754977     0.22056801     0.62446377
c     0.33245026     0.77943199     0.12446377
c     0.83246189     0.72058400     0.12448831
c     0.16753814     0.27941599     0.62448831
c     0.86792693     0.12655928     0.41127700
c     0.13207309     0.87344072     0.91127700
c     0.63211959     0.62657799     0.91128833
c     0.36788044     0.37342201     0.41128833
c     0.95893884     0.08305526     0.57697611
c     0.04106118     0.91694474     0.07697611
c     0.54112466     0.58307620     0.07699675
c     0.45887536     0.41692380     0.57699675
c     0.12622716     0.06814800     0.54091931
c     0.87377287     0.93185200     0.04091931
c     0.37383469     0.56816379     0.04092420
c     0.62616534     0.43183621     0.54092420
c     0.20369153     0.09617606     0.33806997
c     0.79630850     0.90382394     0.83806997
c     0.29637381     0.59618649     0.83806899
c     0.70362621     0.40381351     0.33806899
c     0.11337169     0.13897686     0.17154721
c     0.88662833     0.86102314     0.67154721
c     0.38666846     0.63898613     0.67154350
c     0.61333156     0.36101386     0.17154350
c     0.94625811     0.15433037     0.20799180
c     0.05374191     0.84566963     0.70799180
c     0.55378322     0.65434472     0.70799616
c     0.44621680     0.34565528     0.20799616
h     0.57217765     0.03029089     0.51866151
h     0.42782237     0.96970911     0.01866151
h     0.92786138     0.53030158     0.01868410
h     0.07213865     0.46969842     0.51868410
h     0.62934654     0.16132927     0.28637926
h     0.37065349     0.83867073     0.78637926
h     0.87068996     0.66134741     0.78639719
h     0.12931007     0.33865259     0.28639719
h     0.57923475     0.26459086     0.55795937
h     0.42076528     0.73540914     0.05795937
h     0.92074648     0.76461345     0.05798015
h     0.07925355     0.23538655     0.55798015
h     0.78419303     0.25042227     0.66508572
h     0.21580699     0.74957772     0.16508572
h     0.71580591     0.75043194     0.16513421
h     0.28419411     0.24956806     0.66513421
h     0.89956715     0.06042570     0.73478557
h     0.10043288     0.93957430     0.23478557
h     0.60049632     0.56045337     0.23480866
h     0.39950370     0.43954663     0.73480866
h     0.19584611     0.03460427     0.67156906
h     0.80415392     0.96539572     0.17156906
h     0.30423551     0.53462168     0.17157829
h     0.69576452     0.46537832     0.67157829
h     0.33349932     0.08463216     0.30684305
h     0.66650071     0.91536784     0.80684305
h     0.16656598     0.58463669     0.80682990
h     0.83343405     0.41536331     0.30682990
h     0.17366017     0.16003505     0.01266680
h     0.82633986     0.83996494     0.51266680
h     0.32638251     0.66004031     0.51265710
h     0.67361752     0.33995969     0.01265710
h     0.87573369     0.18830170     0.07915405
h     0.12426633     0.81169830     0.57915405
h     0.62429138     0.68831448     0.57916085
h     0.37570865     0.31168551     0.07916085

K_POINTS automatic
2 2 2 1 1 1

CELL_PARAMETERS cubic
   15.332304000000     0.000691000000     0.000000000000
    0.001438000000    31.477149000000     0.000000000000
    0.000000000000     0.000000000000    10.772148000000
