&control
 title='crystal',
 prefix='crystal',
 pseudo_dir='.',
 calculation='vc-relax',
/
&system
 ibrav=0,
 celldm(1)=1.0,
 nat=   100,
 ntyp=  4,
 ecutwfc=60.0,
 ecutrho=600.0,
 xdm=.true.,
 xdm_a1=0.4073,
 xdm_a2=2.4150,
/
&electrons
 conv_thr = 1d-8,
/
&ions
/
&cell
/
ATOMIC_SPECIES
h      1.007940 h.UPF
c     12.010700 c.UPF
n     14.006700 n.UPF
o     15.999400 o.UPF

ATOMIC_POSITIONS crystal
o     0.31836456     0.24717959     0.90850821
o     0.81843739     0.74718564     0.90830759
o     0.68163544     0.24717959     0.09149181
o     0.18170828     0.74718564     0.09129119
o     0.93679206     0.33474371     0.62675306
o     0.43686490     0.83474977     0.62655244
o     0.06320794     0.33474371     0.37324696
o     0.56328078     0.83474977     0.37304633
n     0.07557510     0.26856509     0.79559999
n     0.57564794     0.76857115     0.79539936
n     0.92442490     0.26856509     0.20440004
n     0.42449773     0.76857115     0.20419942
n     0.21591611     0.24284270     0.64584708
n     0.71598895     0.74284875     0.64564645
n     0.78408389     0.24284270     0.35415295
n     0.28415673     0.74284875     0.35395232
h     0.15222488     0.27260178     0.57349215
h     0.65229772     0.77260784     0.57329153
h     0.84777512     0.27260178     0.42650787
h     0.34784795     0.77260784     0.42630725
c     0.23969387     0.26449400     0.81804935
c     0.73976671     0.76450005     0.81784873
c     0.76030613     0.26449400     0.18195067
c     0.26037897     0.76450005     0.18175004
c     0.16490962     0.32409407     0.89985293
c     0.66498245     0.82410012     0.89965231
c     0.83509038     0.32409407     0.10014709
c     0.33516322     0.82410012     0.09994646
h     0.16725846     0.47918024     0.90245196
h     0.66733130     0.97918629     0.90225134
h     0.83274154     0.47918024     0.09754807
h     0.33281438     0.97918629     0.09734744
c     0.01121931     0.39340573     0.71450138
c     0.51129215     0.89341178     0.71430076
c     0.98878069     0.39340573     0.28549864
c     0.48885353     0.89341178     0.28529801
c     0.28196902     0.20325673     0.55301443
c     0.78204185     0.70326279     0.55281381
c     0.71803098     0.20325673     0.44698559
c     0.21810382     0.70326279     0.44678496
h     0.24650358     0.17059615     0.41953102
h     0.74657642     0.67060221     0.41933039
h     0.75349642     0.17059615     0.58046901
h     0.25356926     0.67060221     0.58026839
h     0.32384375     0.08257998     0.61002204
h     0.82391659     0.58258603     0.60982141
h     0.67615625     0.08257998     0.38997799
h     0.17622909     0.58258603     0.38977737
h     0.32581673     0.32604664     0.55460947
h     0.82588957     0.82605270     0.55440884
h     0.67418327     0.32604664     0.44539055
h     0.17425610     0.82605270     0.44518993
c     0.18384527     0.25882202     0.08664493
c     0.68391811     0.75882808     0.08644430
c     0.81615473     0.25882202     0.91335510
c     0.31622757     0.75882808     0.91315448
h     0.13777575     0.32724644     0.14903437
h     0.63784859     0.82725250     0.14883375
h     0.86222425     0.32724644     0.85096566
h     0.36229708     0.82725250     0.85076503
h     0.25230801     0.29855927     0.15581274
h     0.75238085     0.79856533     0.15561211
h     0.74769199     0.29855927     0.84418728
h     0.24776483     0.79856533     0.84398666
h     0.17712278     0.10516850     0.09634350
h     0.67719561     0.60517456     0.09614287
h     0.82287723     0.10516850     0.90365653
h     0.32295006     0.60517456     0.90345590
c     0.05383990     0.06695299     0.77444989
c     0.55391274     0.56695905     0.77424927
c     0.94616010     0.06695299     0.22555013
c     0.44623294     0.56695905     0.22534951
h     0.04236643     0.02541706     0.63898257
h     0.54243927     0.52542312     0.63878195
h     0.95763357     0.02541706     0.36101745
h     0.45770641     0.52542312     0.36081683
h     0.99287491     0.03628613     0.81312761
h     0.49294774     0.53629219     0.81292699
h     0.00712509     0.03628613     0.18687241
h     0.50719793     0.53629219     0.18667179
h     0.10903067     0.98396472     0.85448986
h     0.60910351     0.48397078     0.85428924
h     0.89096933     0.98396472     0.14551016
h     0.39104217     0.48397078     0.14530954
c     0.03157058     0.60223101     0.73361207
c     0.53164342     0.10223707     0.73341145
c     0.96842941     0.60223101     0.26638795
c     0.46850225     0.10223707     0.26618732
h     0.97007665     0.67940990     0.67430319
h     0.47014949     0.17941595     0.67410256
h     0.02992335     0.67940990     0.32569684
h     0.52999619     0.17941595     0.32549621
h     0.08228180     0.64021856     0.66749037
h     0.58235464     0.14022461     0.66728975
h     0.91771820     0.64021856     0.33250966
h     0.41779104     0.14022461     0.33230903
h     0.05699471     0.64616706     0.86845723
h     0.55706755     0.14617312     0.86825661
h     0.94300529     0.64616706     0.13154279
h     0.44307813     0.14617312     0.13134217

K_POINTS automatic
2 2 2 1 1 1

CELL_PARAMETERS cubic
   29.345831000000     0.000000000000     0.495166000000
    0.000000000000    13.360074000000     0.000000000000
   -4.398323000000     0.000000000000    14.588233000000
