%nprocs=4
%mem=4GB
#p pbepbe aug-cc-pvtz output=wfx scf=(conver=6) int=(grid=ultrafine)

title

0 1
n 0.000000000000000 0.000000000000000 -1.884940554185163
n 0.000000000000000 0.000000000000000 -0.751000175410784
c 0.000000000000000 0.000000000000000 0.541183976957670
h -0.950851759255618 0.000000000000000 1.047378376319139
h 0.950851759255618 0.000000000000000 1.047378376319139

ch2n2.wfx

