&control
 title='crystal',
 prefix='crystal',
 pseudo_dir='../..',
 forc_conv_thr=1.0D-4,
 etot_conv_thr=1.0D-5,
/
&system
 ibrav=0,
 nat=    24,
 ntyp=  4,
 ecutwfc=80.0,
 ecutrho=800.0,
 vdw_corr='xdm',
 nosym=.true.,
/
&electrons
 conv_thr = 1d-10,
/
&ions
/
&cell
 press_conv_thr=0.01,
/
ATOMIC_SPECIES
O    15.999400 o.UPF
N    14.006700 n.UPF
C    12.010700 c.UPF
H     1.007940 h.UPF

ATOMIC_POSITIONS crystal
O             0.9733797389        0.2692202138        0.3574505888
O             0.0266193388        0.7307797074        0.6425497487
O             0.0745376101        0.7058789854        0.1790297501
O             0.9254623294        0.2941218177        0.8209706535
N             0.6834802857        0.9039905643        0.3707046153
N             0.3165205537        0.0960090284        0.6292965123
N             0.4619131137        0.7510929391        0.3315167303
N             0.5380857694        0.2489079459        0.6684830665
C             0.7559781545        0.1478562160        0.3095052458
C             0.2440228881        0.8521459512        0.6904950129
C             0.5722396394        0.2491020254        0.1926411786
C             0.4277605769        0.7508981051        0.8073595392
C             0.3463099086        0.1019876102        0.1492582526
C             0.6536895496        0.8980132494        0.8507419201
C             0.2973215798        0.8482617279        0.2224674425
C             0.7026790042        0.1517380644        0.7775336016
H             0.6183983942        0.4443757412        0.1455279701
H             0.3816016637        0.5556248975        0.8544724858
H             0.2014480112        0.1719477174        0.0621667775
H             0.7985520817        0.8280527057        0.9378338074
H             0.8070468170        0.8248255426        0.4627542818
H             0.1929527989        0.1751753375        0.5372459002
H             0.0496884749        0.5333904996        0.2548509275
H             0.9503114476        0.4666096468        0.7451497108

K_POINTS automatic
5 5 4  1 1 1

CELL_PARAMETERS bohr
  10.762520242  -0.007557343   0.004559882
  -2.971075013  10.445921738   0.003418137
  -1.982239609   1.888648417  13.416832925
