## FHIaims input file generated by critic2.
lattice_vector 3.5189999949       0.0000000000       0.0000000000       
lattice_vector -1.7595000026      3.0475433944       0.0000000000       
lattice_vector 0.0000000000       0.0000000000       13.5640000000      
atom_frac  0.3333340600       0.6666670300       0.2500000000       Mo
atom_frac  0.6666681100       0.3333340600       0.7500000000       Mo
atom_frac  0.6666681100       0.3333340600       0.1213137700       Te
atom_frac  0.6666681100       0.3333340600       0.3786862300       Te
atom_frac  0.3333340600       0.6666670300       0.6213137700       Te
atom_frac  0.3333340600       0.6666670300       0.8786862300       Te
