## FHIaims input file generated by critic2.
lattice_vector 2.4699999936       0.0000000000       0.0000000000       
lattice_vector -1.2350000032      2.1390827455       0.0000000000       
lattice_vector 0.0000000000       0.0000000000       12.9300000000      
atom_frac  0.0000000000       0.0000000000       0.2500000000       C 
atom_frac  0.3333344600       0.6666672300       0.2500000000       C 
atom_frac  0.0000000000       0.0000000000       0.7500000000       C 
atom_frac  0.6666689300       0.3333344600       0.7500000000       C 
