&control
 title='crystal',
 prefix='crystal',
 pseudo_dir='.',
 calculation='vc-relax',
/
&system
 ibrav=0,
 celldm(1)=1.0,
 nat=   104,
 ntyp=  4,
 ecutwfc=60.0,
 ecutrho=600.0,
 xdm=.true.,
 xdm_a1=0.4073,
 xdm_a2=2.4150,
/
&electrons
 conv_thr = 1d-8,
/
&ions
/
&cell
/
ATOMIC_SPECIES
h      1.007940 h.UPF
c     12.010700 c.UPF
n     14.006700 n.UPF
o     15.999400 o.UPF

ATOMIC_POSITIONS crystal
o     0.41909146     0.21110306     0.00674263
o     0.58090855     0.78889694     0.99325738
o     0.41909145     0.28889694     0.50674264
o     0.58090855     0.71110306     0.49325737
n     0.58544847     0.05353787     0.26252147
n     0.41455154     0.94646213     0.73747854
n     0.58544846     0.44646213     0.76252148
n     0.41455155     0.55353787     0.23747853
n     0.67920883     0.98819706     0.21051351
n     0.32079118     0.01180293     0.78948650
n     0.67920882     0.51180294     0.71051352
n     0.32079118     0.48819706     0.28948649
c     0.81655626     0.02667919     0.29858823
c     0.18344375     0.97332080     0.70141178
c     0.81655625     0.47332081     0.79858824
c     0.18344375     0.52667919     0.20141177
c     0.81117884     0.11738757     0.40681762
c     0.18882117     0.88261243     0.59318238
c     0.81117883     0.38261243     0.90681763
c     0.18882118     0.61738757     0.09318238
c     0.66074031     0.13257241     0.38015142
c     0.33925970     0.86742758     0.61984859
c     0.66074030     0.36742759     0.88015143
c     0.33925970     0.63257241     0.11984858
c     0.42367460     0.03921648     0.18964806
c     0.57632541     0.96078352     0.81035195
c     0.42367459     0.46078352     0.68964807
c     0.57632542     0.53921648     0.31035194
c     0.35367533     0.99359197     0.29651374
c     0.64632467     0.00640802     0.70348626
c     0.35367533     0.50640803     0.79651376
c     0.64632468     0.49359197     0.20348626
c     0.18411665     0.98770435     0.22512123
c     0.81588336     0.01229564     0.77487877
c     0.18411664     0.51229565     0.72512124
c     0.81588336     0.48770435     0.27487877
c     0.12076955     0.12878991     0.15584662
c     0.87923046     0.87121009     0.84415339
c     0.12076954     0.37121009     0.65584663
c     0.87923047     0.62878991     0.34415338
c     0.18725036     0.17039550     0.04531399
c     0.81274965     0.82960449     0.95468602
c     0.18725036     0.32960450     0.54531400
c     0.81274965     0.67039550     0.45468601
c     0.35743858     0.17732352     0.11132155
c     0.64256143     0.82267648     0.88867846
c     0.35743857     0.32267648     0.61132156
c     0.64256143     0.67732352     0.38867845
h     0.38353562     0.13822477     0.92918679
h     0.61646439     0.86177522     0.07081322
h     0.38353561     0.36177523     0.42918680
h     0.61646439     0.63822477     0.57081321
h     0.91260503     0.98668668     0.28036150
h     0.08739497     0.01331332     0.71963850
h     0.91260503     0.51331332     0.78036152
h     0.08739498     0.48668668     0.21963850
h     0.90339076     0.16512278     0.49272693
h     0.09660924     0.83487721     0.50727308
h     0.90339076     0.33487722     0.99272694
h     0.09660925     0.66512278     0.00727307
h     0.60288848     0.19100564     0.43617108
h     0.39711153     0.80899436     0.56382892
h     0.60288847     0.30899436     0.93617109
h     0.39711153     0.69100564     0.06382892
h     0.40736945     0.95739328     0.10779984
h     0.59263056     0.04260672     0.89220016
h     0.40736944     0.54260672     0.60779985
h     0.59263056     0.45739328     0.39220016
h     0.38423868     0.06950509     0.38549173
h     0.61576133     0.93049491     0.61450828
h     0.38423867     0.43049491     0.88549174
h     0.61576133     0.56950509     0.11450827
h     0.39967509     0.89114854     0.34205557
h     0.60032492     0.10885146     0.65794444
h     0.39967508     0.60885146     0.84205558
h     0.60032492     0.39114854     0.15794443
h     0.13944476     0.95872207     0.30689725
h     0.86055525     0.04127793     0.69310275
h     0.13944475     0.54127793     0.80689726
h     0.86055525     0.45872207     0.19310275
h     0.15045314     0.90399033     0.14350531
h     0.84954687     0.09600967     0.85649469
h     0.15045313     0.59600967     0.64350532
h     0.84954687     0.40399033     0.35649469
h     0.14700895     0.20994467     0.23986932
h     0.85299106     0.79005532     0.76013069
h     0.14700894     0.29005533     0.73986933
h     0.85299106     0.70994467     0.26013068
h     0.99877875     0.12354689     0.10449979
h     0.00122126     0.87645310     0.89550021
h     0.99877874     0.37645311     0.60449981
h     0.00122126     0.62354689     0.39550021
h     0.14593007     0.27315899     0.99673667
h     0.85406994     0.72684101     0.00326334
h     0.14593006     0.22684101     0.49673668
h     0.85406994     0.77315899     0.50326333
h     0.15391518     0.09279654     0.95748567
h     0.84608483     0.90720346     0.04251433
h     0.15391517     0.40720346     0.45748568
h     0.84608483     0.59279654     0.54251433
h     0.39018980     0.26274345     0.19092706
h     0.60981021     0.73725655     0.80907295
h     0.39018979     0.23725655     0.69092707
h     0.60981021     0.76274345     0.30907294

K_POINTS automatic
2 2 2 1 1 1

CELL_PARAMETERS cubic
   18.326944000000     0.000000000000     0.024011000000
    0.000000000000    17.973095000000     0.000000000000
   -7.160367000000     0.000000000000    17.563054000000
