&control
 title='crystal',
 prefix='crystal',
 pseudo_dir='.',
 calculation='vc-relax',
/
&system
 ibrav=0,
 celldm(1)=1.0,
 nat=   120,
 ntyp=  4,
 ecutwfc=60.0,
 ecutrho=600.0,
 xdm=.true.,
 xdm_a1=0.4073,
 xdm_a2=2.4150,
/
&electrons
 conv_thr = 1d-8,
/
&ions
/
&cell
/
ATOMIC_SPECIES
h      1.007940 h.UPF
c     12.010700 c.UPF
o     15.999400 o.UPF
s     32.065000 s.UPF

ATOMIC_POSITIONS crystal
o     0.31246313     0.99846751     0.27000551
o     0.68753692     0.00153253     0.72999450
o     0.31246315     0.50153251     0.77000551
o     0.68753691     0.49846754     0.22999450
c     0.17735306     0.98840196     0.30036288
c     0.82264700     0.01159808     0.69963713
c     0.17735307     0.51159806     0.80036288
c     0.82264699     0.48840199     0.19963713
c     0.06955018     0.78622617     0.29502696
c     0.93044988     0.21377387     0.70497304
c     0.06955019     0.71377385     0.79502696
c     0.93044987     0.28622620     0.20497305
c     0.94963846     0.75802978     0.33118547
c     0.05036160     0.24197026     0.66881453
c     0.94963848     0.74197024     0.83118547
c     0.05036158     0.25802981     0.16881453
c     0.94548625     0.91667890     0.37450654
c     0.05451380     0.08332114     0.62549346
c     0.94548627     0.58332112     0.87450654
c     0.05451379     0.41667893     0.12549347
c     0.05322904     0.12102714     0.37976473
c     0.94677101     0.87897291     0.62023528
c     0.05322906     0.37897289     0.87976473
c     0.94677100     0.62102717     0.12023528
c     0.16108938     0.16569305     0.34015058
c     0.83891068     0.83430699     0.65984943
c     0.16108940     0.33430697     0.84015058
c     0.83891066     0.66569308     0.15984943
c     0.07747778     0.25797573     0.43027865
c     0.92252228     0.74202431     0.56972136
c     0.07747779     0.24202429     0.93027865
c     0.92252227     0.75797576     0.06972136
s     0.23586972     0.09519758     0.47076487
s     0.76413034     0.90480246     0.52923513
s     0.23586973     0.40480244     0.97076487
s     0.76413033     0.59519761     0.02923513
c     0.40543161     0.10794771     0.43046595
c     0.59456845     0.89205233     0.56953405
c     0.40543162     0.39205231     0.93046595
c     0.59456844     0.60794774     0.06953405
c     0.50764046     0.31784327     0.43220983
c     0.49235960     0.68215677     0.56779018
c     0.50764047     0.18215675     0.93220982
c     0.49235959     0.81784330     0.06779018
c     0.61232701     0.35542630     0.39184270
c     0.38767305     0.64457374     0.60815731
c     0.61232702     0.14457372     0.89184269
c     0.38767304     0.85542633     0.10815731
c     0.60263513     0.19999010     0.34801894
c     0.39736493     0.80000994     0.65198106
c     0.60263514     0.30000992     0.84801894
c     0.39736491     0.69999013     0.15198106
c     0.49788997     0.99138320     0.34583905
c     0.50211009     0.00861684     0.65416096
c     0.49788998     0.50861682     0.84583904
c     0.50211008     0.49138323     0.15416096
c     0.40640489     0.93735868     0.38900928
c     0.59359517     0.06264136     0.61099072
c     0.40640490     0.56264134     0.88900928
c     0.59359515     0.43735871     0.11099073
c     0.45227127     0.86460954     0.29539945
c     0.54772879     0.13539050     0.70460055
c     0.45227128     0.63539048     0.79539945
c     0.54772878     0.36460957     0.20460056
o     0.26708609     0.24711234     0.51759184
o     0.73291397     0.75288770     0.48240816
o     0.26708610     0.25288768     0.01759184
o     0.73291396     0.74711237     0.98240817
o     0.18734998     0.82856336     0.47595813
o     0.81265008     0.17143668     0.52404188
o     0.18734999     0.67143666     0.97595812
o     0.81265007     0.32856339     0.02404188
h     0.08196544     0.64954640     0.26375433
h     0.91803462     0.35045364     0.73624568
h     0.08196545     0.85045362     0.76375433
h     0.91803460     0.14954643     0.23624568
h     0.86416934     0.60227607     0.32646652
h     0.13583072     0.39772397     0.67353349
h     0.86416935     0.89772395     0.82646652
h     0.13583071     0.10227610     0.17353349
h     0.86241261     0.87848391     0.40523493
h     0.13758745     0.12151613     0.59476508
h     0.86241262     0.62151611     0.90523493
h     0.13758743     0.37848394     0.09476508
h     0.24456779     0.32478938     0.34298786
h     0.75543227     0.67521066     0.65701214
h     0.24456780     0.17521064     0.84298786
h     0.75543225     0.82478941     0.15701215
h     0.11890957     0.45496260     0.42716478
h     0.88109049     0.54503745     0.57283522
h     0.11890958     0.04503742     0.92716478
h     0.88109047     0.95496263     0.07283523
h     0.97329753     0.25062698     0.45527566
h     0.02670253     0.74937306     0.54472435
h     0.97329754     0.24937304     0.95527566
h     0.02670251     0.75062701     0.04472435
h     0.50540523     0.45374724     0.46379837
h     0.49459483     0.54625280     0.53620164
h     0.50540524     0.04625278     0.96379837
h     0.49459481     0.95374727     0.03620164
h     0.69559197     0.51462157     0.39422945
h     0.30440808     0.48537847     0.60577056
h     0.69559199     0.98537845     0.89422945
h     0.30440807     0.01462160     0.10577056
h     0.67367538     0.24494837     0.31451622
h     0.32632468     0.75505167     0.68548379
h     0.67367539     0.25505165     0.81451621
h     0.32632467     0.74494840     0.18548379
h     0.32627453     0.77386867     0.38877048
h     0.67372553     0.22613137     0.61122953
h     0.32627454     0.72613135     0.88877048
h     0.67372551     0.27386870     0.11122953
h     0.41827378     0.66485048     0.30100832
h     0.58172628     0.33514956     0.69899169
h     0.41827379     0.83514954     0.80100832
h     0.58172627     0.16485051     0.19899169
h     0.54723946     0.87386231     0.26724715
h     0.45276060     0.12613773     0.73275286
h     0.54723947     0.62613771     0.76724715
h     0.45276058     0.37386234     0.23275286

K_POINTS automatic
2 2 2 1 1 1

CELL_PARAMETERS cubic
   15.690209000000     0.000000000000    -0.028331000000
    0.000000000000     9.943366000000     0.000000000000
   -1.752943000000     0.000000000000    48.676096000000
