&control
 title='crystal',
 prefix='crystal',
 pseudo_dir='.',
 calculation='vc-relax',
/
&system
 ibrav=0,
 celldm(1)=1.0,
 nat=   120,
 ntyp=  3,
 ecutwfc=60.0,
 ecutrho=600.0,
 xdm=.true.,
 xdm_a1=0.4073,
 xdm_a2=2.4150,
/
&electrons
 conv_thr = 1d-8,
/
&ions
/
&cell
/
ATOMIC_SPECIES
h      1.007940 h.UPF
c     12.010700 c.UPF
o     15.999400 o.UPF

ATOMIC_POSITIONS crystal
o     0.75018962     0.47262967     0.26433934
o     0.24981039     0.52737037     0.73566069
o     0.75018963     0.02737035     0.76433935
o     0.24981039     0.97262968     0.23566069
o     0.95058830     0.78119429     0.21758985
o     0.04941172     0.21880574     0.78241018
o     0.95058830     0.71880572     0.71758986
o     0.04941171     0.28119431     0.28241017
o     0.09385507     0.80197837     0.34574473
o     0.90614495     0.19802166     0.65425530
o     0.09385507     0.69802164     0.84574474
o     0.90614494     0.30197839     0.15425530
c     0.85855339     0.82384600     0.44978834
c     0.14144663     0.17615403     0.55021170
c     0.85855339     0.67615402     0.94978834
c     0.14144663     0.32384601     0.05021169
c     0.89694475     0.66856021     0.37395711
c     0.10305527     0.33143982     0.62604292
c     0.89694475     0.83143980     0.87395712
c     0.10305526     0.16856023     0.12604291
c     0.77011206     0.60460858     0.32591119
c     0.22988795     0.39539146     0.67408884
c     0.77011206     0.89539144     0.82591120
c     0.22988795     0.10460859     0.17408884
c     0.67263606     0.72905133     0.36944358
c     0.32736396     0.27094870     0.63055645
c     0.67263606     0.77094869     0.86944358
c     0.32736395     0.22905135     0.13055645
c     0.69820587     0.95068150     0.33456718
c     0.30179414     0.04931853     0.66543285
c     0.69820587     0.54931851     0.83456719
c     0.30179414     0.45068152     0.16543284
c     0.81837460     0.01856866     0.39523651
c     0.18162542     0.98143137     0.60476352
c     0.81837460     0.48143135     0.89523652
c     0.18162541     0.51856868     0.10476351
c     0.73128832     0.73648429     0.47628300
c     0.26871170     0.26351574     0.52371703
c     0.73128832     0.76351573     0.97628300
c     0.26871169     0.23648431     0.02371703
c     0.74271349     0.52932662     0.52515868
c     0.25728652     0.47067341     0.47484135
c     0.74271349     0.97067340     0.02515869
c     0.25728652     0.02932664     0.97484134
c     0.65976520     0.87588440     0.53927952
c     0.34023481     0.12411563     0.46072051
c     0.65976521     0.62411562     0.03927953
c     0.34023481     0.37588442     0.96072051
c     0.54038896     0.65607016     0.34721810
c     0.45961106     0.34392987     0.65278193
c     0.54038896     0.84392986     0.84721811
c     0.45961106     0.15607018     0.15278192
c     0.98208309     0.75441507     0.30314402
c     0.01791692     0.24558496     0.69685601
c     0.98208310     0.74558494     0.80314402
c     0.01791692     0.25441509     0.19685601
h     0.92873063     0.84448758     0.51039702
h     0.07126939     0.15551245     0.48960301
h     0.92873063     0.65551244     0.01039703
h     0.07126939     0.34448759     0.98960301
h     0.94409508     0.53513308     0.40720000
h     0.05590494     0.46486695     0.59280003
h     0.94409508     0.96486694     0.90720000
h     0.05590494     0.03513310     0.09280003
h     0.61761530     0.04457132     0.34801401
h     0.38238472     0.95542871     0.65198602
h     0.61761530     0.45542870     0.84801402
h     0.38238471     0.54457133     0.15198601
h     0.70706303     0.95596109     0.25725609
h     0.29293699     0.04403894     0.74274394
h     0.70706303     0.54403893     0.75725609
h     0.29293699     0.45596111     0.24274394
h     0.79915016     0.13795243     0.44600313
h     0.20084986     0.86204760     0.55399690
h     0.79915016     0.36204758     0.94600313
h     0.20084985     0.63795245     0.05399690
h     0.88976366     0.07785115     0.35182290
h     0.11023636     0.92214888     0.64817713
h     0.88976366     0.42214887     0.85182291
h     0.11023635     0.57785116     0.14817712
h     0.79627089     0.41916784     0.48718736
h     0.20372913     0.58083220     0.51281267
h     0.79627089     0.08083218     0.98718737
h     0.20372913     0.91916785     0.01281266
h     0.78959209     0.54526045     0.59746999
h     0.21040792     0.45473958     0.40253004
h     0.78959209     0.95473956     0.09747000
h     0.21040792     0.04526047     0.90253003
h     0.65040065     0.46318363     0.53159361
h     0.34959937     0.53681640     0.46840642
h     0.65040065     0.03681639     0.03159362
h     0.34959936     0.96318365     0.96840642
h     0.71210639     0.89492270     0.60932457
h     0.28789363     0.10507733     0.39067546
h     0.71210639     0.60507732     0.10932458
h     0.28789362     0.39492271     0.89067545
h     0.64090714     0.02662633     0.50871437
h     0.35909288     0.97337371     0.49128566
h     0.64090714     0.47337369     0.00871438
h     0.35909287     0.52662634     0.99128565
h     0.56959078     0.80723512     0.55142540
h     0.43040924     0.19276491     0.44857463
h     0.56959078     0.69276490     0.05142541
h     0.43040924     0.30723514     0.94857462
h     0.47405157     0.75580548     0.37922672
h     0.52594845     0.24419456     0.62077331
h     0.47405157     0.74419454     0.87922673
h     0.52594845     0.25580549     0.12077330
h     0.51545223     0.65476526     0.26963813
h     0.48454779     0.34523477     0.73036190
h     0.51545223     0.84523476     0.76963814
h     0.48454779     0.15476528     0.23036189
h     0.52839162     0.50094347     0.37322350
h     0.47160840     0.49905656     0.62677653
h     0.52839162     0.99905655     0.87322351
h     0.47160839     0.00094349     0.12677652
h     0.14635729     0.86774255     0.29754436
h     0.85364273     0.13225748     0.70245567
h     0.14635729     0.63225747     0.79754437
h     0.85364272     0.36774257     0.20245566

K_POINTS automatic
2 2 2 1 1 1

CELL_PARAMETERS cubic
   20.355471000000     0.000000000000    -0.018839000000
    0.000000000000    12.463567000000     0.000000000000
   -2.342022000000     0.000000000000    26.357987000000
