&control
 title='crystal',
 prefix='crystal',
 pseudo_dir='.',
 calculation='vc-relax',
/
&system
 ibrav=0,
 celldm(1)=1.0,
 nat=    72,
 ntyp=  4,
 ecutwfc=60.0,
 ecutrho=600.0,
 xdm=.true.,
 xdm_a1=0.4073,
 xdm_a2=2.4150,
/
&electrons
 conv_thr = 1d-8,
/
&ions
/
&cell
/
ATOMIC_SPECIES
h      1.007940 h.UPF
c     12.010700 c.UPF
n     14.006700 n.UPF
o     15.999400 o.UPF

ATOMIC_POSITIONS crystal
c     0.08251754     0.25631155     0.01270165
c     0.91748245     0.74368849     0.98729837
c     0.41749170     0.75631178     0.48728907
c     0.58250830     0.24368827     0.51271094
n     0.05181530     0.15824142     0.93924820
n     0.94818470     0.84175862     0.06075182
n     0.44817866     0.65825420     0.56074970
n     0.55182134     0.34174585     0.43925031
o     0.24967311     0.35215960     0.01252000
o     0.75032689     0.64784045     0.98748001
o     0.25036371     0.85217332     0.48748018
o     0.74963629     0.14782673     0.51251984
c     0.89581243     0.25019041     0.09865983
c     0.10418757     0.74980964     0.90134019
c     0.60418483     0.75019364     0.40133138
c     0.39581516     0.24980641     0.59866864
o     0.73688645     0.13131868     0.08518749
o     0.26311354     0.86868137     0.91481253
o     0.76309317     0.63132248     0.41479789
o     0.23690683     0.36867757     0.58520213
c     0.07361842     0.26876730     0.21678033
c     0.92638158     0.73123275     0.78321968
c     0.42639215     0.76877218     0.28321591
c     0.57360785     0.23122787     0.71678411
o     0.91678707     0.33682537     0.28544781
o     0.08321292     0.66317468     0.71455221
o     0.58321857     0.83684250     0.21455171
o     0.41678143     0.16315754     0.78544830
c     0.18558885     0.13495518     0.26312812
c     0.81441115     0.86504487     0.73687190
c     0.31441702     0.63495611     0.23686426
c     0.68558298     0.36504394     0.76313576
n     0.09809995     0.08598795     0.35019322
n     0.90190005     0.91401210     0.64980680
n     0.40188522     0.58600167     0.14979497
n     0.59811477     0.41399838     0.85020505
o     0.35770296     0.07699348     0.21378547
o     0.64229704     0.92300657     0.78621454
o     0.14228298     0.57699710     0.28619739
o     0.85771701     0.42300295     0.71380262
h     0.17854851     0.99891065     0.38788404
h     0.82145149     0.00108939     0.61211598
h     0.32145994     0.49890870     0.11210537
h     0.67854006     0.50109134     0.88789464
h     0.17614034     0.15609588     0.88094369
h     0.82385965     0.84390417     0.11905633
h     0.32387167     0.65610573     0.61905407
h     0.67612833     0.34389432     0.38094595
h     0.96021234     0.13661726     0.38873955
h     0.03978766     0.86338279     0.61126046
h     0.53978845     0.63662401     0.11124969
h     0.46021155     0.36337604     0.88875033
h     0.90920687     0.08522072     0.94323278
h     0.09079312     0.91477932     0.05676723
h     0.59079311     0.58522970     0.55675662
h     0.40920689     0.41477034     0.44324339
h     0.26141607     0.32740429     0.20989987
h     0.73858393     0.67259575     0.79010015
h     0.23860103     0.82741121     0.29010459
h     0.76139896     0.17258883     0.70989543
h     0.75717857     0.33806044     0.08377230
h     0.24282143     0.66193960     0.91622772
h     0.74286994     0.83805249     0.41622444
h     0.25713006     0.16194755     0.58377557
h     0.58554272     0.13415610     0.12874349
h     0.41445727     0.86584395     0.87125653
h     0.91442788     0.63415055     0.37123952
h     0.08557211     0.36584950     0.62876050
h     0.98148684     0.43103778     0.28504464
h     0.01851316     0.56896227     0.71495538
h     0.51851069     0.93104139     0.21495291
h     0.48148931     0.06895866     0.78504710

K_POINTS automatic
2 2 2 1 1 1

CELL_PARAMETERS cubic
    9.140539000000    -0.000111000000    -0.108494000000
   -0.000265000000    18.995037000000    -0.000256000000
   -4.259307000000    -0.000289000000    22.935144000000
