&control
 title='crystal',
 prefix='crystal',
 pseudo_dir='..',
 calculation='vc-relax',
 etot_conv_thr=1.0D-5,
/
&system
 ibrav=0,
 celldm(1)=1.0,
 nat=   136,
 ntyp=  3,
 ecutwfc=80.0,
 ecutrho=800.0,
 xdm=.true.,
 xdm_a1=0.6512,
 xdm_a2=1.4633,
/
&electrons
 conv_thr = 1d-8,
/
&ions
/
&cell
/
ATOMIC_SPECIES
h      1.007940 h.UPF
c     12.010700 c.UPF
n     14.006700 n.UPF

ATOMIC_POSITIONS crystal
n        0.122258257   0.732589242   0.208142690
n        0.877741743   0.232589232   0.791857310
h        0.123421057   0.672323168   0.258569912
h        0.876578943   0.172323148   0.741430088
n        0.154796886   0.707744603   0.078717727
n        0.845203124   0.207744593   0.921282273
n        0.234065745   0.615554202   0.036444409
n        0.765934265   0.115554192   0.963555591
n        0.309909302   0.519288899   0.084260773
n        0.690090708   0.019288889   0.915739227
n        0.283451802   0.544632684   0.157648739
n        0.716548208   0.044632674   0.842351261
c        0.922949603   0.087605382   0.247536140
c        0.077050407   0.587605372   0.752463860
h        0.947919216   0.155834644   0.199808789
h        0.052080784   0.655834634   0.800191211
c        0.853558012   0.154231309   0.304808735
c        0.146441998   0.654231299   0.695191265
h        0.823994401   0.274146950   0.300942345
h        0.176005599   0.774146940   0.699057655
c        0.822853207   0.068817920   0.367212267
c        0.177146803   0.568817900   0.632787733
h        0.770429128   0.121379320   0.412587740
h        0.229570882   0.621379300   0.587412260
c        0.861617813   0.915360902   0.371341928
c        0.138382197   0.415360892   0.628658072
h        0.839519451   0.847772607   0.419867629
h        0.160480559   0.347772596   0.580132371
c        0.930379330   0.847999339   0.313706124
c        0.069620680   0.347999329   0.686293876
h        0.956341213   0.727500986   0.318415174
h        0.043658787   0.227500976   0.681584826
c        0.961805658   0.933048851   0.250771880
c        0.038194352   0.433048841   0.749228120
c        0.028028179   0.860942176   0.187906179
c        0.971971831   0.360942166   0.812093821
c       -0.001225116   0.910085328   0.114287709
c        1.001225126   0.410085318   0.885712291
h        0.923260823   0.007290083   0.099740278
h        0.076739177   0.507290063   0.900259722
c        0.042872124   0.825766365   0.046836916
c        0.957127886   0.325766355   0.953163084
h        0.938711666   0.766838314   0.016436459
h        0.061288344   0.266838304   0.983563541
c        0.109306265   0.917093453   0.987027290
c        0.890693735   0.417093433   0.012972710
c        0.227375593   0.024222234   0.007114889
c        0.772624407   0.524222224   0.992885111
h        0.269396830   0.048755022   0.067368616
h        0.730603180   0.548755012   0.932631384
c        0.292836422   0.097687962   0.950050566
c        0.707163588   0.597687942   0.049949434
h        0.386045041   0.179471629   0.966451264
h        0.613954959   0.679471619   0.033548736
c        0.239057396   0.065985876   0.872796871
c        0.760942614   0.565985856   0.127203129
h        0.288142035   0.124360183   0.827994027
h        0.711857965   0.624360163   0.172005973
c        0.120507361   0.959919495   0.852576559
c        0.879492639   0.459919485   0.147423441
h        0.077198385   0.936653101   0.792381412
h        0.922801615   0.436653091   0.207618588
c        0.056402431   0.885461802   0.909644869
c        0.943597579   0.385461792   0.090355131
h        0.963728151   0.802266731   0.894473752
h        0.036271859   0.302266721   0.105526248
c        0.184944464   0.662335524   0.152416860
c        0.815055546   0.162335514   0.847583140
n        0.282090852   0.312690961   0.270826775
n        0.717909148   0.812690951   0.729173225
h        0.294852263   0.383113957   0.225268260
h        0.705147747   0.883113947   0.774731740
n        0.193510680   0.292693536   0.389796001
n        0.806489330   0.792693526   0.610203999
n        0.108827363   0.378460435   0.432597690
n        0.891172647   0.878460415   0.567402310
n        0.074437249   0.502979589   0.394386618
n        0.925562751   0.002979569   0.605613382
n        0.132432501   0.502787591   0.326702773
n        0.867567509   0.002787581   0.673297227
c        0.455870654   0.959534970   0.213630004
c        0.544129356   0.459534960   0.786369996
h        0.402929590   0.881360535   0.249357563
h        0.597070420   0.381360515   0.750642437
c        0.531263276   0.903993181   0.155927344
c        0.468736724   0.403993171   0.844072656
h        0.536470150   0.782249239   0.147325640
h        0.463529850   0.282249229   0.852674360
c        0.594428229   0.003358899   0.107728595
c        0.405571781   0.503358889   0.892271405
h        0.649906072   0.960306101   0.061252601
h        0.350093928   0.460306091   0.938747399
c        0.582285415   0.159149121   0.118254674
c        0.417714585   0.659149111   0.881745326
h        0.631776183   0.237158896   0.081062700
h        0.368223827   0.737158876   0.918937300
c        0.506368502   0.215481305   0.176006828
c        0.493631508   0.715481295   0.823993172
h        0.499039217   0.337609130   0.183020808
h        0.500960793   0.837609120   0.816979192
c        0.441889299   0.116261510   0.224501485
c        0.558110711   0.616261490   0.775498515
c        0.356847860   0.171809115   0.284620037
c        0.643152150   0.671809105   0.715379963
c        0.345783694   0.092439300   0.348969960
c        0.654216306   0.592439290   0.651030040
h        0.408548198   0.986231523   0.359332166
h        0.591451812   0.486231503   0.640667834
c        0.250127234   0.137925389   0.409140533
c        0.749872776   0.637925379   0.590859467
h        0.146410205   0.064620848   0.406145946
h        0.853589805   0.564620838   0.593854054
c        0.339171280   0.130117220   0.490538408
c        0.660828730   0.630117200   0.509461592
c        0.483704979   0.202148472   0.510165766
c        0.516295021   0.702148462   0.489834234
h        0.533603149   0.264141027   0.466592740
h        0.466396851   0.764141017   0.533407260
c        0.563178814   0.194967164   0.585255714
c        0.436821186   0.694967154   0.414744286
h        0.677211360   0.248248085   0.599948421
h        0.322788650   0.748248075   0.400051579
c        0.498081033   0.117055113   0.641289019
c        0.501918977   0.617055093   0.358710981
h        0.559491470   0.111881739   0.700115056
h        0.440508540   0.611881719   0.299884944
c        0.354356760   0.044813996   0.621681795
c        0.645643240   0.544813986   0.378318205
h        0.302975197   0.984554342   0.665212062
h        0.697024813   0.484554332   0.334787938
c        0.275109272   0.050824824   0.546302761
c        0.724890738   0.550824814   0.453697239
h        0.161699634   0.996431844   0.531213702
h        0.838300376   0.496431834   0.468786298
c        0.206261635   0.369935360   0.325248517
c        0.793738365   0.869935350   0.674751483

K_POINTS automatic
4 4 4 1 1 1

CELL_PARAMETERS cubic
  16.418291182   0.000000000  -0.099081581
   0.000000000  16.679899905   0.000000000
  -5.272604068   0.000000000  32.970209027
