&control
 title='crystal',
 prefix='crystal',
 pseudo_dir='.',
 calculation='vc-relax',
/
&system
 ibrav=0,
 celldm(1)=1.0,
 nat=   136,
 ntyp=  3,
 ecutwfc=60.0,
 ecutrho=600.0,
 xdm=.true.,
 xdm_a1=0.4073,
 xdm_a2=2.4150,
/
&electrons
 conv_thr = 1d-8,
/
&ions
/
&cell
/
ATOMIC_SPECIES
h      1.007940 h.UPF
c     12.010700 c.UPF
n     14.006700 n.UPF

ATOMIC_POSITIONS crystal
n     0.12296372     0.73196124     0.20826742
n     0.87703628     0.23196123     0.79173258
h     0.12464178     0.67174255     0.25861046
h     0.87535822     0.17174253     0.74138954
n     0.15485997     0.70731637     0.07928202
n     0.84514004     0.20731636     0.92071798
n     0.23263797     0.61500443     0.03715636
n     0.76736204     0.11500442     0.96284364
n     0.30741425     0.51874279     0.08450378
n     0.69258576     0.01874278     0.91549622
n     0.28182487     0.54395061     0.15749699
n     0.71817514     0.04395060     0.84250301
c     0.92760609     0.08753892     0.24862978
c     0.07239392     0.58753891     0.75137022
h     0.95402845     0.15660188     0.20163990
h     0.04597155     0.65660187     0.79836010
c     0.85825468     0.15363199     0.30570978
c     0.14174533     0.65363198     0.69429022
h     0.83017790     0.27390401     0.30238037
h     0.16982210     0.77390400     0.69761963
c     0.82604299     0.06744551     0.36731225
c     0.17395702     0.56744549     0.63268775
h     0.77367230     0.11962653     0.41256309
h     0.22632771     0.61962651     0.58743691
c     0.86358185     0.91375707     0.37092276
c     0.13641816     0.41375706     0.62907724
h     0.84054051     0.84541468     0.41884266
h     0.15945950     0.34541467     0.58115734
c     0.93222776     0.84695549     0.31347313
c     0.06777225     0.34695548     0.68652687
h     0.95714011     0.72621878     0.31775038
h     0.04285989     0.22621877     0.68224962
c     0.96479213     0.93264122     0.25124352
c     0.03520788     0.43264121     0.74875648
c     0.03013676     0.86054809     0.18844462
c     0.96986325     0.36054808     0.81155538
c     0.00096844     0.90997969     0.11514737
c     0.99903157     0.40997968     0.88485263
h     0.92679244     0.00783731     0.10093469
h     0.07320756     0.50783729     0.89906531
c     0.04406730     0.82541522     0.04779314
c     0.95593271     0.32541521     0.95220686
h     0.94042635     0.76663915     0.01780473
h     0.05957366     0.26663914     0.98219527
c     0.10969585     0.91643892     0.98793465
c     0.89030415     0.41643890     0.01206535
c     0.22855368     0.02180853     0.00762419
c     0.77144632     0.52180852     0.99237581
h     0.27206519     0.04507090     0.06758908
h     0.72793482     0.54507089     0.93241092
c     0.29313741     0.09501534     0.95054889
c     0.70686260     0.59501532     0.04945111
h     0.38717575     0.17518475     0.96669367
h     0.61282425     0.67518474     0.03330633
c     0.23765448     0.06494025     0.87365170
c     0.76234553     0.56494023     0.12634830
h     0.28624365     0.12317583     0.82887411
h     0.71375635     0.62317581     0.17112589
c     0.11833995     0.96060122     0.85383931
c     0.88166005     0.46060121     0.14616069
h     0.07366519     0.93830958     0.79394708
h     0.92633481     0.43830957     0.20605292
c     0.05521015     0.88627372     0.91092092
c     0.94478986     0.38627371     0.08907908
h     0.96201033     0.80432913     0.89600533
h     0.03798968     0.30432912     0.10399467
c     0.18471903     0.66185865     0.15262566
c     0.81528098     0.16185864     0.84737434
n     0.27927799     0.31254173     0.27022232
n     0.72072201     0.81254172     0.72977768
h     0.29178276     0.38322750     0.22482834
h     0.70821725     0.88322749     0.77517166
n     0.19424978     0.29371287     0.38952312
n     0.80575023     0.79371286     0.61047688
n     0.11198525     0.37993377     0.43246408
n     0.88801476     0.87993375     0.56753592
n     0.07758823     0.50396168     0.39448148
n     0.92241177     0.00396166     0.60551852
n     0.13324601     0.50325959     0.32677638
n     0.86675400     0.00325958     0.67322362
c     0.45523654     0.96098708     0.21360515
c     0.54476347     0.46098707     0.78639485
h     0.40267842     0.88228787     0.24901813
h     0.59732159     0.38228785     0.75098187
c     0.53131954     0.90593956     0.15639568
c     0.46868046     0.40593955     0.84360432
h     0.53755610     0.78416014     0.14800095
h     0.46244390     0.28416013     0.85199905
c     0.59386152     0.00568886     0.10844357
c     0.40613849     0.50568885     0.89155643
h     0.65000160     0.96300565     0.06235284
h     0.34999840     0.46300564     0.93764716
c     0.58013945     0.16138279     0.11867427
c     0.41986055     0.66138278     0.88132573
h     0.62841945     0.24000781     0.08153682
h     0.37158056     0.74000779     0.91846318
c     0.50375273     0.21717399     0.17600793
c     0.49624728     0.71717398     0.82399207
h     0.49508739     0.33929422     0.18264429
h     0.50491262     0.83929421     0.81735571
c     0.44015046     0.11761533     0.22434242
c     0.55984955     0.61761531     0.77565758
c     0.35514030     0.17274379     0.28419237
c     0.64485971     0.67274378     0.71580763
c     0.34558646     0.09393116     0.34864218
c     0.65441354     0.59393115     0.65135782
h     0.40930588     0.98852406     0.35933054
h     0.59069413     0.48852404     0.64066946
c     0.25028170     0.13902336     0.40857885
c     0.74971831     0.63902335     0.59142115
h     0.14756607     0.06543336     0.40538079
h     0.85243394     0.56543335     0.59461921
c     0.33815801     0.13081578     0.48965641
c     0.66184200     0.63081576     0.51034359
c     0.48231596     0.20122542     0.50896971
c     0.51768404     0.70122541     0.49103029
h     0.53217162     0.26285206     0.46551207
h     0.46782838     0.76285205     0.53448793
c     0.56168668     0.19271173     0.58355704
c     0.43831332     0.69271172     0.41644296
h     0.67530480     0.24493932     0.59794379
h     0.32469521     0.74493931     0.40205621
c     0.49707580     0.11497690     0.63942988
c     0.50292421     0.61497688     0.36057012
h     0.55875125     0.10850087     0.69783795
h     0.44124876     0.60850085     0.30216205
c     0.35334250     0.04493723     0.62021675
c     0.64665750     0.54493722     0.37978325
h     0.30200976     0.98515133     0.66365015
h     0.69799025     0.48515132     0.33634985
c     0.27404277     0.05247569     0.54535860
c     0.72595724     0.55247568     0.45464140
h     0.16062012     0.99973448     0.53070412
h     0.83937989     0.49973447     0.46929588
c     0.20574822     0.37026327     0.32493055
c     0.79425178     0.87026326     0.67506945

K_POINTS automatic
2 2 2 1 1 1

CELL_PARAMETERS cubic
   16.544545000000     0.000000000000    -0.081585000000
    0.000000000000    16.669007000000     0.000000000000
   -5.277448000000     0.000000000000    33.070876000000
