%nprocs=6
%mem=2GB
#p b3lyp aug-cc-pvqz output=wfx scf=(conver=6) int=(grid=ultrafine)
 
title
 
0 1
Cl 0.1445805245 0.0000000000 0.0000000000
F 2.0273626686 0.0000000000 0.0000000000

01_cl-_clf_2.wfx

