%nprocs=6
%mem=2GB
#p b3lyp aug-cc-pvqz output=wfx scf=(conver=6) int=(grid=ultrafine)
 
title
 
-1 1
Br -2.2674841976 0.0000000000 0.0000000000

02_br-_clf_1.wfx

