%nprocs=6
%mem=2GB
#p b3lyp aug-cc-pvqz output=wfx scf=(conver=6) int=(grid=ultrafine)
 
title
 
-1 1
Cl -2.2799236505 0.0000000000 0.0000000000

03_cl-_brf_1.wfx

