%nprocs=6
%mem=2GB
#p b3lyp aug-cc-pvqz output=wfx scf=(conver=6) int=(grid=ultrafine)
 
title
 
0 1
CL -0.0000007470 0.0000000000 2.2963800000
F -0.0000063550 0.0000000000 3.9994306240

05_h3n_clf_2.wfx

