%nprocs=6
%mem=2GB
#p b3lyp aug-cc-pvqz output=wfx scf=(conver=6) int=(grid=ultrafine)
 
title
 
0 1
N -0.0000043440 0.0000000000 -0.0236303940
H 0.9488354190 0.0000000000 -0.3812140000
H -0.4744069870 -0.8216933770 -0.3811831150
H -0.4744069870 0.8216933770 -0.3811831150

05_h3n_clf_1.wfx

