%nprocs=6
%mem=2GB
#p b3lyp aug-cc-pvqz output=wfx scf=(conver=6) int=(grid=ultrafine)
 
title
 
0 1
N -0.0000143200 0.0000000000 -0.0181807680
H 0.9492689750 0.0000000000 -0.3754086400
H -0.4746226670 -0.8220852230 -0.3753732560
H -0.4746226670 0.8220852230 -0.3753732560

06_h3n_brf_1.wfx

