%nprocs=6
%mem=2GB
#p b3lyp aug-cc-pvqz output=wfx scf=(conver=6) int=(grid=ultrafine)
 
title
 
-1 1
CL -2.0558908680 -0.0595688070 0.0000000000

07_cl-_sf2_1.wfx

