%nprocs=6
%mem=2GB
#p b3lyp aug-cc-pvqz output=wfx scf=(conver=6) int=(grid=ultrafine)
 
title
 
0 1
S 0.4581676307 -0.2276278759 0.0000000000
F 2.1882570324 -0.2752322992 0.0000000000
F 0.5071861418 1.4046175580 0.0000000000

08_br-_sf2_2.wfx

