%nprocs=6
%mem=2GB
#p b3lyp aug-cc-pvqz output=wfx scf=(conver=6) int=(grid=ultrafine)
 
title
 
-1 1
Br -2.2087208049 -0.0781373829 0.0000000000

08_br-_sf2_1.wfx

