%nprocs=6
%mem=2GB
#p b3lyp aug-cc-pvqz output=wfx scf=(conver=6) int=(grid=ultrafine)
 
title
 
-1 1
Cl -2.1140937526 -0.0557507204 0.0000000000

09_cl-_sef2_1.wfx

