%nprocs=6
%mem=2GB
#p b3lyp aug-cc-pvqz output=wfx scf=(conver=6) int=(grid=ultrafine)
 
title
 
-1 1
Br -2.2531550746 -0.0716210862 0.0000000000

10_br-_sef2_1.wfx

