%nprocs=6
%mem=2GB
#p b3lyp aug-cc-pvqz output=wfx scf=(conver=6) int=(grid=ultrafine)
 
title
 
0 1
Se 0.4156980631 -0.2904197100 0.0000000000
F 2.2842547181 -0.2891629999 0.0000000000
F 0.4980922933 1.4748237961 0.0000000000

10_br-_sef2_2.wfx

