%nprocs=6
%mem=2GB
#p b3lyp aug-cc-pvqz output=wfx scf=(conver=6) int=(grid=ultrafine)
 
title
 
0 1
N 2.2157663980 -0.3178557710 0.0000000000
H 2.5084767620 0.2094901190 -0.8163126360
H 2.5084767620 0.2094901190 0.8163126360
H 2.7360591310 -1.1892136180 0.0000000000

11_h3n_sf2_1.wfx

