%nprocs=6
%mem=2GB
#p b3lyp aug-cc-pvqz output=wfx scf=(conver=6) int=(grid=ultrafine)
 
title
 
0 1
N 0.1862497300 2.2164655920 0.0779595110
H -0.6474283520 2.4902526340 -0.4322027370
H 0.9867284070 2.5759231500 -0.4322052720
H 0.1622461830 2.6743872710 0.9835840960

12_h3n_sef2_2.wfx

