%nprocs=6
%mem=2GB
#p b3lyp aug-cc-pvqz output=wfx scf=(conver=6) int=(grid=ultrafine)
 
title
 
-1 1
CL -0.4248113480 3.2754486920 0.0000000000

13_cl-_scf2_2.wfx

