%nprocs=6
%mem=2GB
#p b3lyp aug-cc-pvqz output=wfx scf=(conver=6) int=(grid=ultrafine)
 
title
 
0 1
S 0.8295868030 0.6122960050 0.0000000000
C 0.1435795210 -0.8275345060 0.0000000000
F -0.2741774880 -1.5301050960 1.0653565240
F -0.2741774880 -1.5301050960 -1.0653565240

13_cl-_scf2_1.wfx

