%nprocs=6
%mem=2GB
#p b3lyp aug-cc-pvqz output=wfx scf=(conver=6) int=(grid=ultrafine)
 
title
 
0 1
S 0.8764640940 0.5553720450 0.0000000000
C 0.1481991320 -0.8635315230 0.0000000000
F -0.2779319930 -1.5557658190 1.0647196200
F -0.2779319930 -1.5557658190 -1.0647196200

14_br-_scf2_1.wfx

