%nprocs=6
%mem=2GB
#p b3lyp aug-cc-pvqz output=wfx scf=(conver=6) int=(grid=ultrafine)
 
title
 
-1 1
BR -0.4687992410 3.4196811170 0.0000000000

14_br-_scf2_2.wfx

