%nprocs=6
%mem=2GB
#p b3lyp aug-cc-pvqz output=wfx scf=(conver=6) int=(grid=ultrafine)
 
title
 
-1 1
CL -0.3594688480 3.4276361680 0.0000000000

15_cl-_secf2_2.wfx

