%nprocs=6
%mem=2GB
#p b3lyp aug-cc-pvqz output=wfx scf=(conver=6) int=(grid=ultrafine)
 
title
 
-1 1
Se 0.7378260661 0.7440363681 0.0000000000
Cl -0.3594688480 3.4276361682 0.0000000000
C 0.1383790526 -0.9141601303 0.0000000000
F -0.2583681353 -1.6287562029 1.0672960532
F -0.2583681353 -1.6287562029 -1.0672960532

15_cl-_secf2.wfx

