%nprocs=6
%mem=2GB
#p b3lyp aug-cc-pvqz output=wfx scf=(conver=6) int=(grid=ultrafine)
 
title
 
0 1
SE 0.7378260660 0.7440363680 0.0000000000
C 0.1383790530 -0.9141601300 0.0000000000
F -0.2583681350 -1.6287562030 1.0672960530
F -0.2583681350 -1.6287562030 -1.0672960530

15_cl-_secf2_1.wfx

