%nprocs=6
%mem=2GB
#p b3lyp aug-cc-pvqz output=wfx scf=(conver=6) int=(grid=ultrafine)
 
title
 
-1 1
BR -0.3917232240 3.5856949200 0.0000000000

16_br-_secf2_2.wfx

