%nprocs=6
%mem=2GB
#p b3lyp aug-cc-pvqz output=wfx scf=(conver=6) int=(grid=ultrafine)
 
title
 
0 1
SE 0.7622209160 0.6947954720 0.0000000000
C 0.1377473670 -0.9521233540 0.0000000000
F -0.2541275300 -1.6641835190 1.0667116190
F -0.2541275300 -1.6641835190 -1.0667116190

16_br-_secf2_1.wfx

