%nprocs=6
%mem=2GB
#p b3lyp aug-cc-pvqz output=wfx scf=(conver=6) int=(grid=ultrafine)
 
title
 
0 1
S -0.0020691610 0.2323473390 0.0000000000
C 0.0008538040 -1.3717646590 0.0000000000
F 0.0022825810 -2.1574060700 1.0593787600
F 0.0022825810 -2.1574060700 -1.0593787600

17_h3n_scf2_1.wfx

