%nprocs=6
%mem=2GB
#p b3lyp aug-cc-pvqz output=wfx scf=(conver=6) int=(grid=ultrafine)
 
title
 
0 1
N 0.0006198380 3.5325954780 0.0000000000
H 0.4764058110 3.9113937140 0.8128553500
H -0.9303412650 3.9375965570 0.0000000000
H 0.4764058110 3.9113937140 -0.8128553500

17_h3n_scf2_2.wfx

