%nprocs=6
%mem=2GB
#p b3lyp aug-cc-pvqz output=wfx scf=(conver=6) int=(grid=ultrafine)
 
title
 
0 1
N 0.0034695360 3.5558888560 0.0000000000
H 0.4762079830 3.9375998650 0.8133292250
H -0.9308886360 3.9532188610 0.0000000000
H 0.4762079830 3.9375998650 -0.8133292250

18_h3n_secf2_2.wfx

