%nprocs=6
%mem=2GB
#p b3lyp aug-cc-pvqz output=wfx scf=(conver=6) int=(grid=ultrafine)
 
title
 
0 1
SE -0.0019766790 0.3256098520 0.0000000000
C 0.0004322210 -1.4362373780 0.0000000000
F 0.0014987960 -2.2174749610 1.0605577530
F 0.0014987960 -2.2174749610 -1.0605577530

18_h3n_secf2_1.wfx

