%nprocs=6
%mem=2GB
#p b3lyp aug-cc-pvqz output=wfx scf=(conver=6) int=(grid=ultrafine)
 
title
 
-1 1
CL 0.0000000000 -0.0000501170 -3.7029238210

19_cl-_spf3_2.wfx

