%nprocs=6
%mem=2GB
#p b3lyp aug-cc-pvqz output=wfx scf=(conver=6) int=(grid=ultrafine)
 
title
 
-1 1
BR 0.0000000000 -0.0000051670 -3.8875431490

20_br-_spf3_2.wfx

