%nprocs=6
%mem=2GB
#p b3lyp aug-cc-pvqz output=wfx scf=(conver=6) int=(grid=ultrafine)
 
title
 
-1 1
CL 0.0000000000 -0.0000084300 -3.6889513500

21_cl-_sepf3_2.wfx

