%nprocs=6
%mem=2GB
#p b3lyp aug-cc-pvqz output=wfx scf=(conver=6) int=(grid=ultrafine)
 
title
 
0 1
SE 0.0000000000 0.0000014350 -0.7715240420
P 0.0000000000 -0.0000051450 1.2930831310
F 0.0000000000 1.3578150360 2.0983939570
F -1.1758915740 -0.6789018520 2.0983604400
F 1.1758915740 -0.6789018520 2.0983604400

22_br-_sepf3_1.wfx

