%nprocs=6
%mem=2GB
#p b3lyp aug-cc-pvqz output=wfx scf=(conver=6) int=(grid=ultrafine)
 
title
 
0 1
N 0.0000000000 -0.0000099300 -4.2233331800
H 0.0000000000 -0.9385721890 -4.6101969840
H -0.8128122090 0.4692857640 -4.6100931860
H 0.8128122090 0.4692857640 -4.6100931860

23_h3n_spf3_2.wfx

