%nprocs=6
%mem=2GB
#p b3lyp aug-cc-pvqz output=wfx scf=(conver=6) int=(grid=ultrafine)
 
title
 
0 1
S 0.0000000000 -0.0000309150 -0.9266177390
P 0.0000000000 -0.0000073860 0.9593712480
F 0.0000000000 1.3628544090 1.7058489450
F -1.1802437050 -0.6814027580 1.7058570410
F 1.1802437050 -0.6814027580 1.7058570410

23_h3n_spf3_1.wfx

