%nprocs=6
%mem=2GB
#p b3lyp aug-cc-pvqz output=wfx scf=(conver=6) int=(grid=ultrafine)
 
title
 
0 1
P -0.4319829490 -0.2735847610 0.0000000000
F -0.3968502730 0.7763806920 1.2013591840
F -0.3968502730 0.7763806920 -1.2013591840
F -2.0952326270 -0.2851795590 0.0000000000

25_cl-_pf3_2.wfx

