%nprocs=6
%mem=2GB
#p b3lyp aug-cc-pvqz output=wfx scf=(conver=6) int=(grid=ultrafine)
 
title
 
-1 1
BR 2.4621387170 -0.0922842630 0.0000000000

26_br-_pf3_1.wfx

