%nprocs=6
%mem=2GB
#p b3lyp aug-cc-pvqz output=wfx scf=(conver=6) int=(grid=ultrafine)
 
title
 
0 1
P -0.5063357980 -0.2599702650 0.0000000000
F -0.4506238960 0.7878032320 1.1957531370
F -0.4506238960 0.7878032320 -1.1957531370
F -2.1511651270 -0.2928119360 0.0000000000

26_br-_pf3_2.wfx

