%nprocs=6
%mem=2GB
#p b3lyp aug-cc-pvqz output=wfx scf=(conver=6) int=(grid=ultrafine)
 
title
 
0 1
As -0.3557719807 -0.3350601348 0.0000000000
F -0.3850041411 0.8243913792 1.2978186450
F -0.3850041411 0.8243913792 -1.2978186450
F -2.1766945746 -0.3125984808 0.0000000000

27_cl-_asf3_2.wfx

