%nprocs=6
%mem=2GB
#p b3lyp aug-cc-pvqz output=wfx scf=(conver=6) int=(grid=ultrafine)
 
title
 
-1 1
Cl 2.2058648373 -0.0705941428 0.0000000000

27_cl-_asf3_1.wfx

