%nprocs=6
%mem=2GB
#p b3lyp aug-cc-pvqz output=wfx scf=(conver=6) int=(grid=ultrafine)
 
title
 
-1 1
Br 2.4002452702 -0.1008171595 0.0000000000

28_br-_asf3_1.wfx

