%nprocs=6
%mem=2GB
#p b3lyp aug-cc-pvqz output=wfx scf=(conver=6) int=(grid=ultrafine)
 
title
 
0 1
As -0.4147909220 -0.3226545406 0.0000000000
F -0.4308627687 0.8384806519 1.2914139893
F -0.4308627687 0.8384806519 -1.2914139893
F -2.2203488107 -0.3229496037 0.0000000000

28_br-_asf3_2.wfx

