%nprocs=6
%mem=2GB
#p b3lyp aug-cc-pvqz output=wfx scf=(conver=6) int=(grid=ultrafine)
 
title
 
0 1
P 0.2398071500 0.4042331040 0.0000000000
F 1.7613999900 -0.0701263190 0.0000000000
F -0.2191236030 -0.5380417830 -1.1908410700
F -0.2191236030 -0.5380417830 1.1908410700

29_h3n_pf3_2.wfx

