%nprocs=6
%mem=2GB
#p b3lyp aug-cc-pvqz output=wfx scf=(conver=6) int=(grid=ultrafine)
 
title
 
0 1
N -2.6322269450 0.6541205470 0.0000000000
H -2.9454767160 0.1337767870 0.8140038100
H -3.1423895560 1.5317526600 0.0000000000
H -2.9454767160 0.1337767870 -0.8140038100

29_h3n_pf3_1.wfx

