%nprocs=6
%mem=2GB
#p b3lyp aug-cc-pvqz output=wfx scf=(conver=6) int=(grid=ultrafine)
 
title
 
0 1
N -2.5482627171 0.6523382723 0.0000000000
As 0.1217526224 0.5074562690 0.0000000000
H -2.8220823290 0.1130849518 0.8160220685
H -3.1014369687 1.5033395665 0.0000000000
H -2.8220823290 0.1130849518 -0.8160220685
F 1.7611916115 -0.0731098613 0.0000000000
F -0.3456099451 -0.5507670751 -1.2862303866
F -0.3456099451 -0.5507670751 1.2862303866

30_h3n_asf3.wfx

