%nprocs=6
%mem=2GB
#p b3lyp aug-cc-pvqz output=wfx scf=(conver=6) int=(grid=ultrafine)
 
title
 
0 1
N -2.5482627170 0.6523382720 0.0000000000
H -2.8220823290 0.1130849520 0.8160220690
H -3.1014369690 1.5033395670 0.0000000000
H -2.8220823290 0.1130849520 -0.8160220690

30_h3n_asf3_1.wfx

