%nprocs=6
%mem=2GB
#p b3lyp aug-cc-pvqz output=wfx scf=(conver=6) int=(grid=ultrafine)
 
title
 
0 1
AS 0.1217526220 0.5074562690 0.0000000000
F 1.7611916110 -0.0731098610 0.0000000000
F -0.3456099450 -0.5507670750 -1.2862303870
F -0.3456099450 -0.5507670750 1.2862303870

30_h3n_asf3_2.wfx

