## FHIaims input file generated by critic2.
lattice_vector 7.6780930000       0.0000000000       0.0000000000      
lattice_vector 3.8390460000       6.6494230000       0.0000000000      
lattice_vector 0.0000000000       0.0000000000       7.2345670000      
atom_frac  0.0000070000       0.3347180000       0.1997990000       H 
atom_frac  0.6652520000       0.0000100000       0.1997800000       H 
atom_frac  0.3347140000       0.6652610000       0.1997910000       H 
atom_frac  0.3347600000       0.9999760000       0.6997860000       H 
atom_frac  0.9999800000       0.6652390000       0.6998000000       H 
atom_frac  0.6652400000       0.3347550000       0.6997990000       H 
atom_frac  0.5444610000       0.0000060000       0.0195840000       H 
atom_frac  0.9999890000       0.4555200000       0.0196050000       H 
atom_frac  0.4555050000       0.5444800000       0.0195940000       H 
atom_frac  0.4555430000       0.9999800000       0.5195840000       H 
atom_frac  0.9999980000       0.5444460000       0.5196000000       H 
atom_frac  0.5444610000       0.4555240000       0.5195920000       H 
atom_frac  0.3322400000       0.8794810000       0.9844860000       H 
atom_frac  0.2117310000       0.1205070000       0.9844810000       H 
atom_frac  0.8794620000       0.7882650000       0.9844890000       H 
atom_frac  0.7882480000       0.3322550000       0.9844980000       H 
atom_frac  0.6677310000       0.2117480000       0.9844860000       H 
atom_frac  0.1205260000       0.2117030000       0.4844970000       H 
atom_frac  0.6677620000       0.1205060000       0.4844880000       H 
atom_frac  0.7882720000       0.8794770000       0.4844800000       H 
atom_frac  0.2117220000       0.6677430000       0.4844950000       H 
atom_frac  0.3322400000       0.7882520000       0.4844860000       H 
atom_frac  0.8794970000       0.3322220000       0.4844990000       H 
atom_frac  0.1204860000       0.6677500000       0.9844910000       H 
atom_frac  0.0000090000       0.3313300000       0.0616160000       O 
atom_frac  0.6686370000       0.0000120000       0.0615950000       O 
atom_frac  0.3313260000       0.6686600000       0.0616080000       O 
atom_frac  0.3313700000       0.9999720000       0.5616010000       O 
atom_frac  0.6686370000       0.3313480000       0.5616160000       O 
atom_frac  0.3356760000       0.9999920000       0.9367460000       O 
atom_frac  0.6642940000       0.3357030000       0.9367680000       O 
atom_frac  0.0000120000       0.3356550000       0.4367710000       O 
atom_frac  0.6643330000       0.9999950000       0.4367400000       O 
atom_frac  0.3356700000       0.6643040000       0.4367600000       O 
atom_frac  0.9999790000       0.6686340000       0.5616170000       O 
atom_frac  0.9999740000       0.6643060000       0.9422990100       O 
