%nprocs=4
%mem=4GB
#p pbepbe def2qzvp output=wfx scf=(conver=6) int=(grid=ultrafine)

title

0 2
c 1.225734437394369 0.730880172911426 -0.096762431057070
c 1.225734437394369 -0.730880172911426 -0.096762431057070
c 0.000000000000000 -1.403302938434665 -0.142130739425808
c -1.225734437394369 -0.730880172911426 -0.096762431057070
c -1.225734437394369 0.730880172911426 -0.096762431057070
c 0.000000000000000 1.403302938434665 -0.142130739425808
h 2.152785315773154 1.281795379890601 -0.131383720718459
h 2.152785315773154 -1.281795379890601 -0.131383720718459
h 0.000000000000000 -2.486503730899544 -0.175685569343545
h -2.152785315773154 -1.281795379890601 -0.131383720718459
h -2.152785315773154 1.281795379890601 -0.131383720718459
h 0.000000000000000 2.486503730899544 -0.175685569343545
li 0.000000000000000 0.000000000000000 1.548217224640794

bz_li.wfx

