%nprocs=4
%mem=4GB
#p pbepbe def2qzvp output=wfx scf=(conver=6) int=(grid=ultrafine)

title

0 1
c 0.666773717456550 0.000000000000000 0.000000000000000
c -0.666773717456550 0.000000000000000 0.000000000000000
h 1.230290673569831 -0.922696215164823 0.000000000000000
h 1.230290673569831 0.922696215164823 0.000000000000000
h -1.230290673569831 -0.922696215164823 0.000000000000000
h -1.230290673569831 0.922696215164823 0.000000000000000

c2h4.wfx

