%nprocs=4
%mem=4GB
#p pbepbe def2qzvp output=wfx scf=(conver=6) int=(grid=ultrafine)

title

0 1
cl 0.000000000000000 0.000000000000000 -0.821432491009408
f 0.000000000000000 0.000000000000000 0.821432491009408

clf.wfx

