%nprocs=4
%mem=4GB
#p pbepbe def2qzvp output=wfx scf=(conver=6) int=(grid=ultrafine)

title

0 2
cl 2.031115148532241 -0.151834098266483 0.000000000000000
f -1.910742892593478 -0.118372239591834 0.000000000000000
cl -0.120372255938763 0.270206337858323 0.000000000000000

clfcl.wfx

