%nprocs=4
%mem=4GB
#p pbepbe def2qzvp output=wfx scf=(conver=6) int=(grid=ultrafine)

title

0 1
o 0.000000000000000 0.000000000000000 0.393938789608854
h -0.755013131327888 0.000000000000000 -0.196969394804424
h 0.755013131327888 0.000000000000000 -0.196969394804424

h2o.wfx

