%nprocs=4
%mem=4GB
#p pbepbe def2qzvp output=wfx scf=(conver=6) int=(grid=ultrafine)

title

0 1
n 0.000000000000000 0.000000000000000 -0.289102842801032
h -0.467587710470484 -0.809885671529683 0.096367614267014
h -0.467587710470484 0.809885671529683 0.096367614267014
h 0.935175420940969 0.000000000000000 0.096367614267014

nh3.wfx

