&control
 title='crystal',
 prefix='crystal',
 pseudo_dir='.',
 calculation='vc-relax',
/
&system
 ibrav=0,
 celldm(1)=1.0,
 nat=   108,
 ntyp=  4,
 ecutwfc=60.0,
 ecutrho=600.0,
 xdm=.true.,
 xdm_a1=0.4073,
 xdm_a2=2.4150,
/
&electrons
 conv_thr = 1d-8,
/
&ions
/
&cell
/
ATOMIC_SPECIES
h      1.007940 h.UPF
c     12.010700 c.UPF
n     14.006700 n.UPF
o     15.999400 o.UPF

ATOMIC_POSITIONS crystal
c     0.47624099     0.76000755     0.86057635
c     0.52400912     0.26021388     0.13982373
c     0.93908571     0.75455757     0.65371685
c     0.06112145     0.25453396     0.34638437
c     0.38702410     0.66331808     0.79312145
c     0.61307269     0.16352953     0.20731054
c     0.24226327     0.68516068     0.70682419
c     0.75782620     0.18527811     0.29358042
c     0.19106397     0.81053892     0.72781199
c     0.80913130     0.31062323     0.27269460
c     0.30208599     0.89943775     0.70807826
c     0.69822124     0.39957884     0.29254500
c     0.43413888     0.87061869     0.82152231
c     0.56612095     0.37084953     0.17908346
c     0.61366255     0.73324396     0.96456276
c     0.38658837     0.23352489     0.03587588
c     0.05397215     0.82917928     0.61478315
c     0.94632666     0.32911265     0.38569604
c     0.03373709     0.90619490     0.48818849
c     0.96659760     0.40593465     0.51257550
h     0.41502263     0.40520801     0.72862926
h     0.58484390     0.90537023     0.27187687
h     0.95835131     0.66083123     0.63768524
h     0.04182899     0.16076301     0.36189676
h     0.84225157     0.77705688     0.57273027
h     0.15791406     0.27688964     0.42766612
h     0.92755106     0.76611533     0.78495406
h     0.07263920     0.26639227     0.21520277
h     0.17524414     0.62057577     0.75089510
h     0.82465187     0.12064526     0.24929876
h     0.23740772     0.66605663     0.57291003
h     0.76287243     0.16610867     0.42749706
h     0.17374012     0.81881208     0.85769020
h     0.82633992     0.31900908     0.14279220
h     0.26923471     0.98838573     0.73282665
h     0.73125899     0.48845818     0.26782487
h     0.31846595     0.89980546     0.57714280
h     0.68188690     0.40002401     0.42348401
h     0.50045128     0.94295866     0.87202794
h     0.49979664     0.44320867     0.12880738
h     0.68089415     0.69073281     0.88894662
h     0.31949066     0.19100146     0.11161146
h     0.66409344     0.81344370     0.01813100
h     0.33627917     0.31383249     0.98269217
h     0.60456847     0.67295198     0.06726286
h     0.39553281     0.17321919     0.93307052
h     0.11549163     0.96069628     0.45730283
h     0.88489011     0.46030210     0.54371799
h     0.93310948     0.91683652     0.41020423
h     0.06728533     0.41646284     0.59070462
n     0.43999323     0.55900638     0.80603839
n     0.55998867     0.05920008     0.19444011
o     0.34809929     0.46999422     0.73837869
o     0.65177683     0.97020202     0.26223609
c     0.45224535     0.65279961     0.37166213
c     0.54785425     0.15258751     0.62891504
c     0.36684241     0.74245496     0.27564915
c     0.63323570     0.24221331     0.72506416
c     0.22130003     0.71408525     0.20048646
c     0.77883140     0.21391412     0.80010210
c     0.20543634     0.58517476     0.14636991
c     0.79471427     0.08507041     0.85417275
c     0.26188104     0.50608195     0.29629108
c     0.73835873     0.00599542     0.70412443
c     0.40007631     0.54453516     0.38369539
c     0.60018057     0.04438377     0.61674348
c     0.59318996     0.68472286     0.46112367
c     0.40698589     0.18450968     0.53920652
c     0.06026266     0.55241617     0.06740388
c     0.93985885     0.05239935     0.93321515
c     0.03717070     0.47463149     0.94174448
c     0.96286065     0.97481902     0.05908764
c     0.94476889     0.60745598     0.13611964
c     0.05537536     0.10741976     0.86456855
n     0.42175429     0.84483682     0.26535556
n     0.57835267     0.34458107     0.73545862
o     0.33274440     0.92978129     0.18079974
o     0.66752779     0.42940666     0.82015381
h     0.18671683     0.77305647     0.09494331
h     0.81368560     0.27290051     0.90560950
h     0.15666246     0.73396082     0.29389012
h     0.84332317     0.23353349     0.70649480
h     0.27046214     0.57009545     0.05226737
h     0.72969901     0.07017984     0.94833294
h     0.26704299     0.41529558     0.25302469
h     0.73329443     0.91519637     0.74727046
h     0.19068927     0.50414105     0.38579777
h     0.80936649     0.00405172     0.61435999
h     0.46205026     0.48035783     0.46303888
h     0.53836568     0.98034224     0.53701638
h     0.58980695     0.75961436     0.54520931
h     0.41071412     0.25935173     0.45520636
h     0.64067961     0.61074982     0.53574900
h     0.35925231     0.11066922     0.46437096
h     0.65981963     0.70981888     0.37278392
h     0.34026362     0.20973929     0.62738901
h     0.93370201     0.44830568     0.88542641
h     0.06629266     0.94859002     0.11563931
h     0.12151323     0.43625181     0.89113849
h     0.87851206     0.93649583     0.10968398
h     0.93945646     0.70238793     0.11261494
h     0.06056557     0.20234937     0.88824065
h     0.84697080     0.56868257     0.07773813
h     0.15317529     0.06873464     0.92302708
h     0.95738346     0.59582956     0.27250542
h     0.04297626     0.09566207     0.72820155
h     0.40051358     0.99426894     0.17114728
h     0.59970087     0.49352458     0.83104304

K_POINTS automatic
2 2 2 1 1 1

CELL_PARAMETERS cubic
   18.785803000000     0.000189000000     0.455801000000
   -0.000057000000    21.576571000000    -0.003160000000
   -3.156868000000    -0.002897000000    15.011050000000
