&control
 title='crystal',
 prefix='crystal',
 pseudo_dir='..',
/
&system
 ibrav=0,
 celldm(1)=1.0,
 nat=     8,
 ntyp=  1,
 ecutwfc=80.0,
 ecutrho=800.0,
 xdm=.true.,
 xdm_a1=0.6754,
 xdm_a2=1.4651,
 input_dft='b86bpbex',
 exx_fraction=0.25,
/
&electrons
 conv_thr = 1d-8,
/
ATOMIC_SPECIES
Br    79.904000 br.UPF

ATOMIC_POSITIONS crystal
Br       0.000000000   0.153316783   0.119205685
Br       0.500000000   0.653316883   0.119205591
Br      -0.000000000   0.346684299   0.619205278
Br       0.500000000   0.846684036   0.619205187
Br      -0.000000000   0.653315701   0.380794722
Br       0.500000000   0.153315964   0.380794813
Br       0.000000000   0.846683217   0.880794315
Br       0.500000000   0.346683117   0.880794409

K_POINTS automatic
4 4 4 1 1 1

CELL_PARAMETERS
  13.046698333   0.000000000   0.000000000
   0.000000000   7.915733324  -0.000015886
   0.000000000  -0.000032809  16.174592380
