%nprocs=4
%mem=4GB
#p pbepbe aug-cc-pvtz output=wfx scf=(conver=6) int=(grid=ultrafine)

title

0 1
c -0.667099949596923 0.000000000000000 0.000000000000000
c 0.667099949596923 0.000000000000000 0.000000000000000
h 1.231633907089391 -0.923403930407305 0.000000000000000
h 1.231633907089391 0.923403930407305 0.000000000000000
h -1.231633907089391 -0.923403930407305 0.000000000000000
h -1.231633907089391 0.923403930407305 0.000000000000000

c2h4.wfx

