%nprocs=4
%mem=4GB
#p pbepbe aug-cc-pvtz output=wfx scf=(conver=6) int=(grid=ultrafine)

title

0 1
c 0.000000000000000 0.000000000000000 -1.248544906159045
c 0.000000000000000 0.000000000000000 0.054224995869389
h -0.940390929179969 0.000000000000000 0.597159955144828
h 0.940390929179969 0.000000000000000 0.597159955144828

ch2c.wfx

