%nprocs=4
%mem=4GB
#p pbepbe aug-cc-pvtz output=wfx scf=(conver=6) int=(grid=ultrafine)

title

0 1
c 0.000000000000000 0.000000000000000 0.000000000000000
s 0.000000000000000 0.000000000000000 -1.557999884620407
s 0.000000000000000 0.000000000000000 1.557999884620407

cs2.wfx

