%nprocs=4
%mem=4GB
#p pbepbe aug-cc-pvtz output=wfx scf=(conver=6) int=(grid=ultrafine)

title

0 1
h 0.595341982675937 0.610631920812390 0.000000000000000
o 0.418885798789222 -0.339609239401626 0.000000000000000
f -1.014227781465154 -0.271022681410769 0.000000000000000

hof.wfx

