%nprocs=4
%mem=4GB
#p pbepbe aug-cc-pvtz output=wfx scf=(conver=6) int=(grid=ultrafine)

title

0 1
n 0.000000000000000 0.000000000000000 -0.019299998395872
n 0.000000000000000 0.000000000000000 -1.148399913388221
o 0.000000000000000 0.000000000000000 1.167699911784098

n2o.wfx

