%nprocs=4
%mem=4GB
#p pbepbe aug-cc-pvtz output=wfx scf=(conver=6) int=(grid=ultrafine)

title

0 2
f 0.000000000000000 0.000000000000000 -0.966363147552810
si 0.000000000000000 0.000000000000000 0.653683458750529

sif.wfx

