%nprocs=4
%mem=4GB
#p pbepbe aug-cc-pvtz output=wfx scf=(conver=6) int=(grid=ultrafine)

title

0 1
s 0.000000000000000 0.000000000000000 0.482942556903232
o 1.239318511684955 0.000000000000000 -0.241471278451614
o -1.239318511684955 0.000000000000000 -0.241471278451614

so2.wfx

