%nprocs=4
%mem=4GB
#p pbepbe aug-cc-pvtz output=wfx scf=(conver=6) int=(grid=ultrafine)

title

0 1
CL -2.190285388000000 -2.636684923000000 -0.981703134000000
CL -3.492714388000000 -4.043406923000000 -1.546246134000000

02methaneCl2_2.wfx

