%nprocs=4
%mem=4GB
#p pbepbe aug-cc-pvtz output=wfx scf=(conver=6) int=(grid=ultrafine)

title

0 1
C 0.017128682000000 -0.009767481000000 -1.680303942000000
H -0.063241616000000 0.035668447000000 -2.761803854000000
H -0.841686927000000 -0.534736175000000 -1.274267671000000
H 0.927869926000000 -0.535377764000000 -1.409431408000000
H 0.042730234000000 0.996996750000000 -1.275640625000000

05fluoromethanemethane_2.wfx

