%nprocs=4
%mem=4GB
#p pbepbe aug-cc-pvtz output=wfx scf=(conver=6) int=(grid=ultrafine)

title

0 1
C 0.052125307000000 -0.031919514000000 1.840660293000000
Cl -1.491715802000000 0.847207403000000 1.755184684000000
H 0.811909110000000 0.554725768000000 1.338264649000000
H -0.067811208000000 -0.989274688000000 1.347792712000000
H 0.311197296000000 -0.173143788000000 2.883203118000000
C 0.039754322000000 -0.020606284000000 -1.707314590000000
H -0.032276711000000 0.011046812000000 -2.789939015000000
H -0.826637179000000 -0.533296965000000 -1.301345967000000
H 0.944658983000000 -0.549439507000000 -1.423219897000000
H 0.069552712000000 0.991693192000000 -1.316575906000000

06chloromethanemethane.wfx

