%nprocs=4
%mem=4GB
#p pbepbe aug-cc-pvtz output=wfx scf=(conver=6) int=(grid=ultrafine)

title

0 1
F -1.914074031000000 -1.171208027000000 -0.110672709000000
H -2.180664731000000 1.398938308000000 -0.409375369000000
C 0.373446598000000 -0.776856318000000 0.213048434000000
C -0.901105553000000 -0.295713511000000 -0.038342168000000
C -1.178590841000000 1.051075840000000 -0.215317349000000
C -0.111215305000000 1.930588158000000 -0.127725254000000
C 1.187438475000000 1.517317904000000 0.123482484000000
C 1.394209663000000 0.156584712000000 0.290367081000000
F -0.346665186000000 3.242328465000000 -0.288420034000000
H 2.000411788000000 2.222856141000000 0.189254724000000
H 0.559538929000000 -1.828333656000000 0.360285918000000
F 2.639006191000000 -0.274021355000000 0.541291643000000
H -1.982727901000000 -2.229710809000000 3.302751592000000
H -2.449489395000000 0.193673563000000 3.123490546000000
C 0.127581029000000 -1.959602814000000 3.614622471000000
C -1.175738052000000 -1.515819137000000 3.395968839000000
C -1.438429730000000 -0.150603905000000 3.294462135000000
C -0.398879384000000 0.770556176000000 3.412257913000000
C 0.904159726000000 0.325967381000000 3.630272076000000
C 1.167830304000000 -1.039033251000000 3.731969940000000
H -0.602955098000000 1.829871089000000 3.332690746000000
H 1.711481364000000 1.040279331000000 3.720124956000000
H 0.331418327000000 -3.018852194000000 3.696210666000000
H 2.179355046000000 -1.382919174000000 3.899512705000000

11trifluorobenzenezenebenzene.wfx

