%nprocs=4
%mem=4GB
#p pbepbe aug-cc-pvtz output=wfx scf=(conver=6) int=(grid=ultrafine)

title

0 1
H -1.719265622000000 -1.313070599000000 3.235114680000000
C -0.887013607000000 -0.630037228000000 3.342089837000000
C 0.409478083000000 -1.125979890000000 3.476774480000000
C -1.111190459000000 0.746396788000000 3.352790675000000
C 1.481108571000000 -0.245785431000000 3.623479226000000
H 0.583630925000000 -2.193775854000000 3.470689289000000
H -2.117120419000000 1.131566386000000 3.250807086000000
C -0.039417816000000 1.626442678000000 3.499615551000000
C 1.256371149000000 1.130100736000000 3.634840523000000
H 2.486380394000000 -0.630785067000000 3.727095469000000
H -0.213650130000000 2.693766913000000 3.507370558000000
H 2.087582706000000 1.812593825000000 3.746420458000000

12hexafuorobenzenezenebenzene_2.wfx

