%nprocs=4
%mem=4GB
#p pbepbe aug-cc-pvtz output=wfx scf=(conver=6) int=(grid=ultrafine)

title

0 1
O 4.897505466000000 0.876848804000000 1.390216211000000
C 5.194460139000000 0.238307081000000 0.405156763000000
H 6.244196376000000 0.054496103000000 0.128363500000000
H 4.430085674000000 -0.188680322000000 -0.260183673000000

13chloromethaneformaldehyde_2.wfx

