%nprocs=4
%mem=4GB
#p pbepbe aug-cc-pvtz output=wfx scf=(conver=6) int=(grid=ultrafine)

title

0 1
C 0.179810349000000 -0.077197552000000 -0.118024640000000
Cl 1.722679479000000 0.399031247000000 0.628076100000000
H 0.130360699000000 -1.159076002000000 -0.155096513000000
H -0.630477191000000 0.314338739000000 0.485507040000000
H 0.134959164000000 0.335748179000000 -1.118887999000000
O 4.897505466000000 0.876848804000000 1.390216211000000
C 5.194460139000000 0.238307081000000 0.405156763000000
H 6.244196376000000 0.054496103000000 0.128363500000000
H 4.430085674000000 -0.188680322000000 -0.260183673000000

13chloromethaneformaldehyde.wfx

