%nprocs=4
%mem=4GB
#p pbepbe aug-cc-pvtz output=wfx scf=(conver=6) int=(grid=ultrafine)

title

0 1
C 0.081577546000000 -0.079576968000000 -0.122248507000000
Br 1.796548323000000 0.397128500000000 0.629679005000000
H 0.013255521000000 -1.160016154000000 -0.156779811000000
H -0.692267287000000 0.331402893000000 0.514488442000000
H 0.018180933000000 0.339827727000000 -1.118895585000000
O 4.855012535000000 0.847915867000000 1.349033039000000
C 5.324414120000000 0.241999249000000 0.411201439000000
H 6.411534668000000 0.146524254000000 0.268747940000000
H 4.686070972000000 -0.241736004000000 -0.342833789000000

14bromomethaneformaldehyde.wfx

