%nprocs=4
%mem=4GB
#p pbepbe aug-cc-pvtz output=wfx scf=(conver=6) int=(grid=ultrafine)

title

0 1
O 4.688782228000000 1.192694165000000 0.788621015000000
C 5.236612511000000 0.162109480000000 0.464336390000000
H 6.327564644000000 0.039937485000000 0.529623404000000
H 4.669249211000000 -0.702665676000000 0.088392932000000

16trifluorochloromethaneformaldehyde_2.wfx

