%nprocs=4
%mem=4GB
#p pbepbe aug-cc-pvtz output=wfx scf=(conver=6) int=(grid=ultrafine)

title

0 1
O 4.695578043000000 0.845065122000000 1.191773039000000
C 5.385158396000000 0.226244432000000 0.410437893000000
H 6.482742329000000 0.244130452000000 0.468348711000000
H 4.945821455000000 -0.382680577000000 -0.393692603000000

17trifluorobromomethaneformaldehyde_2.wfx

