%nprocs=4
%mem=4GB
#p pbepbe aug-cc-pvtz output=wfx scf=(conver=6) int=(grid=ultrafine)

title

0 1
O 4.809254249000000 0.837030654000000 1.169461550000000
C 5.556540758000000 0.235129869000000 0.427979466000000
H 6.648084457000000 0.296357069000000 0.536692940000000
H 5.177061701000000 -0.398984543000000 -0.386517855000000

18trifluoroiodomethaneformaldehyde_2.wfx

