%nprocs=4
%mem=4GB
#p pbepbe aug-cc-pvtz output=wfx scf=(conver=6) int=(grid=ultrafine)

title

0 1
C -0.453743740000000 0.000182739000000 1.059200327000000
C 0.583994572000000 -0.000028402000000 1.988244810000000
C 1.911123808000000 -0.000142760000000 1.563951774000000
C 2.200015462000000 -0.000060948000000 0.200857138000000
C 1.171852556000000 0.000151689000000 -0.738466754000000
H -1.486276324000000 0.000268975000000 1.377240603000000
H 0.351319424000000 -0.000103142000000 3.044291019000000
H 2.712830438000000 -0.000290390000000 2.288837764000000
H 3.227238082000000 -0.000162856000000 -0.136887263000000
H 1.383274700000000 0.000214894000000 -1.797905634000000
C -0.149841459000000 0.000281008000000 -0.299799844000000
Cl -1.432288391000000 0.000559697000000 -1.466414983000000
O -3.696572914000000 0.000152987000000 -3.618617550000000
C -4.843989757000000 0.001944155000000 -3.211415447000000
C -6.003097569000000 -0.000552348000000 -4.185876962000000
C -5.132206123000000 0.006671195000000 -1.725263930000000
H -5.917763280000000 0.873303070000000 -4.829393925000000
H -5.918845591000000 -0.878698982000000 -4.823653257000000
H -6.973224937000000 0.001637767000000 -3.699032662000000
H -6.193070441000000 0.008055248000000 -1.495292581000000
H -4.662540213000000 -0.867116113000000 -1.276801052000000
H -4.661407822000000 0.882569128000000 -1.282156770000000

19chlorobenzenezeneacetone.wfx

