%nprocs=4
%mem=4GB
#p pbepbe aug-cc-pvtz output=wfx scf=(conver=6) int=(grid=ultrafine)

title

0 1
O -3.696572914000000 0.000152987000000 -3.618617550000000
C -4.843989757000000 0.001944155000000 -3.211415447000000
C -6.003097569000000 -0.000552348000000 -4.185876962000000
C -5.132206123000000 0.006671195000000 -1.725263930000000
H -5.917763280000000 0.873303070000000 -4.829393925000000
H -5.918845591000000 -0.878698982000000 -4.823653257000000
H -6.973224937000000 0.001637767000000 -3.699032662000000
H -6.193070441000000 0.008055248000000 -1.495292581000000
H -4.662540213000000 -0.867116113000000 -1.276801052000000
H -4.661407822000000 0.882569128000000 -1.282156770000000

19chlorobenzenezeneacetone_2.wfx

