%nprocs=4
%mem=4GB
#p pbepbe aug-cc-pvtz output=wfx scf=(conver=6) int=(grid=ultrafine)

title

0 1
C 1.217119800000000 0.000086352000000 -0.737292531000000
C 2.232687859000000 0.000174717000000 0.216499979000000
C 1.925210087000000 0.000130109000000 1.575499453000000
C 0.592512132000000 0.000178132000000 1.981957864000000
C -0.433049194000000 0.000070250000000 1.038766795000000
H 1.448302007000000 -0.000020318000000 -1.792785360000000
H 3.264633432000000 0.000102432000000 -0.107052277000000
H 2.717093974000000 -0.000023151000000 2.311239059000000
H 0.345707498000000 0.000109507000000 3.034933333000000
H -1.468501456000000 -0.000093207000000 1.347574970000000
C -0.111081725000000 -0.000108736000000 -0.316810844000000
Br -1.493755973000000 -0.001747763000000 -1.606462802000000
O -3.785037609000000 0.000866982000000 -3.641619578000000
C -4.942504639000000 0.030472744000000 -3.262526217000000
C -5.268278522000000 0.030763181000000 -1.784860352000000
C -6.074813789000000 0.067570401000000 -4.266102134000000
H -5.949425709000000 0.944115224000000 -4.899332013000000
H -5.998004094000000 -0.807301293000000 -4.909325767000000
H -7.056301133000000 0.092128453000000 -3.803511947000000
H -6.334373655000000 0.058880289000000 -1.583055978000000
H -4.834292873000000 -0.858956293000000 -1.331613097000000
H -4.786131398000000 0.889881839000000 -1.321375004000000

20bromobenzenezeneacetone.wfx

