%nprocs=4
%mem=4GB
#p pbepbe aug-cc-pvtz output=wfx scf=(conver=6) int=(grid=ultrafine)

title

0 1
O -3.949939923000000 -0.000143450000000 -3.815896908000000
C -3.800618306000000 0.003771500000000 -5.025811592000000
C -2.413746868000000 0.013928662000000 -5.628840849000000
C -5.004091973000000 -0.001515653000000 -5.942215119000000
H -1.881038094000000 0.891330448000000 -5.265472224000000
H -1.870078249000000 -0.858483324000000 -5.269712302000000
H -2.420677721000000 0.016520534000000 -6.714123140000000
H -5.616269855000000 0.870128273000000 -5.717411468000000
H -5.605371398000000 -0.881767955000000 -5.721583165000000
H -4.740047227000000 0.002639189000000 -6.994882525000000

21iodobenzenezeneacetone_2.wfx

