%nprocs=4
%mem=4GB
#p pbepbe aug-cc-pvtz output=wfx scf=(conver=6) int=(grid=ultrafine)

title

0 1
C -0.223913000000000 0.002109000000000 0.127404000000000
C -0.229554000000000 0.001265000000000 1.520572000000000
C 0.966066000000000 -0.002100000000000 2.235729000000000
C 2.176417000000000 -0.004636000000000 1.545888000000000
C 2.194095000000000 -0.003818000000000 0.152623000000000
C 0.992179000000000 -0.000449000000000 -0.552274000000000
Br -1.869237000000000 0.004669000000000 2.446186000000000
H 0.946534000000000 -0.002734000000000 3.316252000000000
H 3.104760000000000 -0.007248000000000 2.100804000000000
H 3.135463000000000 -0.005789000000000 -0.378706000000000
H 0.996880000000000 0.000205000000000 -1.633817000000000
H -1.159029000000000 0.004715000000000 -0.414303000000000
N -4.443847216000000 0.003241324000000 3.917575142000000
C -5.269667216000000 -1.075483676000000 3.409420142000000
C -4.151048216000000 -0.203416676000000 5.323037142000000
C -5.102631216000000 1.280426324000000 3.720892142000000
H -5.062163216000000 -0.220699676000000 5.941925142000000
H -3.629556216000000 -1.150340676000000 5.453179142000000
H -3.505905216000000 0.595924324000000 5.684173142000000
H -6.064049216000000 1.341711324000000 4.255123142000000
H -4.459570216000000 2.083221324000000 4.077923142000000
H -5.289110216000000 1.436927324000000 2.659644142000000
H -6.239899216000000 -1.138941676000000 3.927201142000000
H -5.456675216000000 -0.924671676000000 2.347429142000000
H -4.750743216000000 -2.024428676000000 3.534754142000000

23bromobenzenezenetrimethylamine.wfx

