%nprocs=4
%mem=4GB
#p pbepbe aug-cc-pvtz output=wfx scf=(conver=6) int=(grid=ultrafine)

title

0 1
C 1.037288000000000 0.000539000000000 -0.582102000000000
C -0.176487000000000 -0.000271000000000 0.102715000000000
C -0.183174000000000 -0.000518000000000 1.498133000000000
C 1.019880000000000 0.000040000000000 2.205172000000000
C 2.228616000000000 0.000848000000000 1.511505000000000
C 2.241753000000000 0.001096000000000 0.118273000000000
I -2.004073000000000 -0.001696000000000 2.534377000000000
H 1.013157000000000 -0.000135000000000 3.286244000000000
H 3.159115000000000 0.001279000000000 2.063225000000000
H 3.181398000000000 0.001715000000000 -0.416415000000000
H 1.038283000000000 0.000729000000000 -1.663869000000000
H -1.109304000000000 -0.000688000000000 -0.443732000000000
N -4.582592278000000 -0.001974697000000 4.004623405000000
C -5.432248278000000 1.033095303000000 3.443517405000000
C -5.202064278000000 -1.306090697000000 3.850638405000000
C -4.310611278000000 0.268567303000000 5.404935405000000
H -5.229215278000000 0.283653303000000 6.011064405000000
H -3.647037278000000 -0.497334697000000 5.803030405000000
H -3.817378278000000 1.234370303000000 5.501577405000000
H -6.408881278000000 1.087511303000000 3.948188405000000
H -4.940827278000000 2.000098303000000 3.537088405000000
H -5.600716278000000 0.834533303000000 2.386353405000000
H -6.166829278000000 -1.372211697000000 4.376310405000000
H -5.370060278000000 -1.508608697000000 2.794164405000000
H -4.539891278000000 -2.074436697000000 4.246253405000000

24iodobenzenezenetrimethylamine.wfx

