%nprocs=4
%mem=4GB
#p pbepbe aug-cc-pvtz output=wfx scf=(conver=6) int=(grid=ultrafine)

title

0 1
N -4.582592278000000 -0.001974697000000 4.004623405000000
C -5.432248278000000 1.033095303000000 3.443517405000000
C -5.202064278000000 -1.306090697000000 3.850638405000000
C -4.310611278000000 0.268567303000000 5.404935405000000
H -6.408881278000000 1.087511303000000 3.948188405000000
H -4.940827278000000 2.000098303000000 3.537088405000000
H -5.600716278000000 0.834533303000000 2.386353405000000
H -6.166829278000000 -1.372211697000000 4.376310405000000
H -5.370060278000000 -1.508608697000000 2.794164405000000
H -4.539891278000000 -2.074436697000000 4.246253405000000
H -5.229215278000000 0.283653303000000 6.011064405000000
H -3.647037278000000 -0.497334697000000 5.803030405000000
H -3.817378278000000 1.234370303000000 5.501577405000000

24iodobenzenezenetrimethylamine_2.wfx

