%nprocs=4
%mem=4GB
#p pbepbe aug-cc-pvtz output=wfx scf=(conver=6) int=(grid=ultrafine)

title

0 1
BR -0.268325907000000 -3.194209024000000 1.994458950000000
C 0.049999933000000 -5.089197474000000 1.929391171000000
F 0.078949601000000 -5.512441335000000 0.671851563000000
F 1.211983937000000 -5.383996300000000 2.498664481000000
F -0.909987405000000 -5.743747328000000 2.570721738000000

29trifluorobromomethanebenzene_2.wfx

