%nprocs=4
%mem=4GB
#p pbepbe aug-cc-pvtz output=wfx scf=(conver=6) int=(grid=ultrafine)

title

0 1
O 1.902892753000000 0.321317956000000 -0.005888900000000
H 2.357570941000000 -0.049824215000000 -0.765819097000000
H 2.357578038000000 -0.050794037000000 0.753566975000000

31trifluoromethanolwater_2.wfx

