%nprocs=4
%mem=4GB
#p pbepbe aug-cc-pvtz output=wfx scf=(conver=6) int=(grid=ultrafine)

title

0 1
O 1.949794791000000 0.377735879000000 -0.007230776000000
H 2.320041419000000 -0.082316123000000 -0.765476382000000
H 2.321048106000000 -0.079135932000000 0.752486550000000

32trichloromethanolwater_2.wfx

