%nprocs=4
%mem=4GB
#p pbepbe aug-cc-pvtz output=wfx scf=(conver=6) int=(grid=ultrafine)

title

0 1
Br 0.430759046000000 -0.000115215000000 -0.107945607000000
H 0.017750410000000 -0.000013811000000 1.259967353000000
O -0.257020059000000 0.000182833000000 3.141151173000000
H -1.048680694000000 -0.000040312000000 3.684018874000000
C 0.880527259000000 0.000025604000000 3.997486173000000
H 1.753839233000000 0.000098530000000 3.353020187000000
H 0.913549580000000 0.888915397000000 4.626706548000000
H 0.913509357000000 -0.889046121000000 4.626450420000000

35HBrmethanol.wfx

