%nprocs=4
%mem=4GB
#p pbepbe aug-cc-pvtz output=wfx scf=(conver=6) int=(grid=ultrafine)

title

0 1
N 0.052011732000000 0.047562391000000 2.873452643000000
H 1.006826200000000 0.080163433000000 3.205933085000000
C -0.623816269000000 -1.146237096000000 3.397788453000000
H -0.397088850000000 0.883158389000000 3.224595791000000
H -1.646683561000000 -1.160140608000000 3.032274493000000
H -0.124806297000000 -2.030639328000000 3.011967991000000
H -0.641816332000000 -1.203100448000000 4.486612449000000

37HFmethylamine_2.wfx

