%nprocs=4
%mem=4GB
#p pbepbe aug-cc-pvtz output=wfx scf=(conver=6) int=(grid=ultrafine)

title

0 1
H 0.855171335000000 -0.000008119000000 -0.588786261000000
O 0.271546070000000 0.000016357000000 0.175592508000000
C 1.084050448000000 0.000001807000000 1.335251990000000
H 0.417831608000000 -0.000002486000000 2.192984764000000
H 1.718489566000000 -0.886312946000000 1.398035525000000
H 1.718498554000000 0.886309236000000 1.398050411000000
F 1.125857154000000 0.000004199000000 -2.561576197000000
C -0.184637333000000 -0.000001453000000 -3.025415783000000
H -0.166928581000000 -0.000001809000000 -4.110978064000000
H -0.686098066000000 -0.888580071000000 -2.654737004000000
H -0.686105119000000 0.888573338000000 -2.654737429000000

39methanolfluoromethane.wfx

