%nprocs=4
%mem=4GB
#p pbepbe aug-cc-pvtz output=wfx scf=(conver=6) int=(grid=ultrafine)

title

0 1
F 1.125857154000000 0.000004199000000 -2.561576197000000
C -0.184637333000000 -0.000001453000000 -3.025415783000000
H -0.166928581000000 -0.000001809000000 -4.110978064000000
H -0.686098066000000 -0.888580071000000 -2.654737004000000
H -0.686105119000000 0.888573338000000 -2.654737429000000

39methanolfluoromethane_2.wfx

