&control
 title='crystal',
 prefix='crystal',
 pseudo_dir='..',
/
&system
 ibrav=0,
 celldm(1)=1.0,
 nat=    16,
 ntyp=  2,
 ecutwfc=80.0,
 ecutrho=800.0,
 xdm=.true.,
 xdm_a1=0.6754,
 xdm_a2=1.4651,
 input_dft='b86bpbex',
 exx_fraction=0.25,
/
&electrons
 conv_thr = 1d-8,
/
ATOMIC_SPECIES
I   126.904470 i.UPF
Cl    35.453000 cl.UPF

ATOMIC_POSITIONS crystal
I        0.186862251   0.374330893   0.575135820
I        0.186860739   0.125669389   0.075134356
I        0.813139261   0.874330611   0.924865644
I        0.813137749   0.625669107   0.424864180
I        0.293352389   0.622193310   0.427049737
I        0.293351359   0.877805890   0.927050452
I        0.706648641   0.122194110   0.072949548
I        0.706647611   0.377806690   0.572950263
Cl       0.091999057   0.145282735   0.707387519
Cl       0.091996544   0.354720316   0.207382987
Cl       0.908003456   0.645279684   0.792617013
Cl       0.908000943   0.854717265   0.292612481
Cl       0.471590464   0.852437069   0.623985258
Cl       0.471586321   0.647562039   0.123986425
Cl       0.528413679   0.352437961   0.876013575
Cl       0.528409536   0.147562931   0.376014742

K_POINTS automatic
4 4 4 1 1 1

CELL_PARAMETERS
  23.587542877  -0.000084169  -0.475829152
  -0.000029204   8.140035340  -0.000016930
 -11.365340987  -0.000000702  19.212168717
