## FHIaims input file generated by critic2.
lattice_vector 3.4420000002       0.0000000000       0.0000000000       
lattice_vector -1.7209999999      2.9808594399       0.0000000000       
lattice_vector 0.0000000000       0.0000000000       11.1400000000      
atom_frac  0.0000000000       0.0000000000       0.2500000000       Nb
atom_frac  0.0000000000       0.0000000000       0.7500000000       Nb
atom_frac  0.3333334000       0.6666667000       0.0991597800       Se
atom_frac  0.3333334000       0.6666667000       0.4008402200       Se
atom_frac  0.6666667900       0.3333334000       0.5991597800       Se
atom_frac  0.6666667900       0.3333334000       0.9008402200       Se
