%nprocs=4
%mem=2GB
#P pbepbe aug-cc-pvtz SCF=(Conver=6) Int=(grid=ultrafine) output=wfx
 
title
 
0 1
C 0.005854661 0.075150174 3.779451548
H 0.002845527 0.057594626 2.715376043
C 0.009515108 0.094731028 4.991827721
H 0.012627516 0.111903956 6.053024732
 
BenzeneEthyneCHpi-2.wfx
 
