%nprocs=4
%mem=2GB
#P pbepbe aug-cc-pvtz SCF=(Conver=6) Int=(grid=ultrafine) output=wfx
 
title
 
0 1
O -2.743831210 -0.269262567 0.000000000
H -2.579027215 -1.213984095 0.000000000
H -1.856530267 0.102327758 0.000000000
 
BenzeneWaterOHpi-2.wfx
 
