%nprocs=4
%mem=2GB
#P pbepbe aug-cc-pvtz SCF=(Conver=6) Int=(grid=ultrafine) output=wfx
 
title
 
0 1
C -0.606189355 0.055874063 0.589004905
H -1.668036669 0.055776239 0.589011619
C 0.605848727 0.055540867 0.589266243
H 1.667678172 0.054863283 0.589727942
 
EthynePentane-1.wfx
 
