%nprocs=4
%mem=2GB
#P pbepbe aug-cc-pvtz SCF=(Conver=6) Int=(grid=ultrafine) output=wfx
 
title
 
0 1
C -0.007359978 0.100337388 4.142811897
H -0.003965598 0.066602336 3.079515015
C -0.011296401 0.138627411 5.354277280
H -0.014562633 0.172003292 6.415188698
 
EthyneEthyneTS-2.wfx
 
