%nprocs=4
%mem=2GB
#P pbepbe aug-cc-pvtz SCF=(Conver=6) Int=(grid=ultrafine) output=wfx
 
title
 
0 1
C -0.601729956 -0.028570118 0.384934916
H -1.663735430 -0.028526566 0.379014311
C 0.610109174 -0.028663644 0.388163788
H 1.672135444 -0.028793082 0.387967520
 
EthyneEthyneTS-1.wfx
 
