%nprocs=4
%mem=2GB
#P pbepbe aug-cc-pvtz SCF=(Conver=6) Int=(grid=ultrafine) output=wfx
 
title
 
0 1
O 2.093268413 0.917311363 0.212097251
H 1.275751005 0.421038875 0.038944349
H 2.675169862 0.658813493 -0.503648842
 
MeNH2Water-2.wfx
 
