%nprocs=4
%mem=2GB
#P pbepbe aug-cc-pvtz SCF=(Conver=6) Int=(grid=ultrafine) output=wfx
 
title
 
0 1
O 2.102777071 -0.058406974 -0.155076686
H 2.667754355 -0.771365595 -0.460276092
H 2.682528689 0.705786590 -0.131178192
 
PeptideWater-2.wfx
 
