%nprocs=4
%mem=2GB
#P pbepbe aug-cc-pvtz SCF=(Conver=6) Int=(grid=ultrafine) output=wfx
 
title
 
0 1
C 0.707851839 -0.172302212 3.276351358
H 1.703670109 -0.526288065 3.162132628
C -0.436752246 0.214155474 3.382543200
H -1.441634801 0.542855816 3.482907366
 
UracilEthyne-2.wfx
 
