%nprocs=4
%mem=2GB
#P pbepbe aug-cc-pvtz SCF=(Conver=6) Int=(grid=ultrafine) output=wfx
 
title
 
0 1
O -0.525329794 -0.050971084 -0.314516861
H -0.942006633 0.747901631 0.011252816
H 0.403696525 0.059785981 -0.073568368
 
WaterMeOH-1.wfx
 
