%nprocs=4
%mem=2GB
#P pbepbe aug-cc-pvtz SCF=(Conver=6) Int=(grid=ultrafine) output=wfx
 
title
 
0 1
O 2.316633291 0.045500849 0.071858389
H 2.684616115 -0.526576554 0.749386716
C 2.781638362 -0.426129067 -1.190300721
H 2.350821267 0.224964624 -1.943414753
H 3.867602049 -0.375336206 -1.264612649
H 2.453295744 -1.445998564 -1.389381355
 
WaterMeOH-2.wfx
 
