&control
 title='crystal',
 prefix='crystal',
 pseudo_dir='.',
 calculation='vc-relax',
/
&system
 ibrav=0,
 celldm(1)=1.0,
 nat=    44,
 ntyp=  4,
 ecutwfc=60.0,
 ecutrho=600.0,
 xdm=.true.,
 xdm_a1=0.4073,
 xdm_a2=2.4150,
/
&electrons
 conv_thr = 1d-8,
/
&ions
/
&cell
/
ATOMIC_SPECIES
h      1.007940 h.UPF
c     12.010700 c.UPF
n     14.006700 n.UPF
o     15.999400 o.UPF

ATOMIC_POSITIONS crystal
o     0.79547388     0.76807042     0.59234751
o     0.20452602     0.23192955     0.40765249
o     0.34757994     0.63868318     0.62590389
o     0.65241996     0.36131679     0.37409611
n     0.80957894     0.27101984     0.57806324
n     0.19042096     0.72898013     0.42193676
h     0.00497433     0.40577467     0.60486575
h     0.99502556     0.59422530     0.39513425
h     0.80236006     0.07426429     0.58489408
h     0.19763983     0.92573568     0.41510592
h     0.78279898     0.28359629     0.49945816
h     0.21720092     0.71640368     0.50054185
c     0.57481693     0.60014681     0.61590212
c     0.42518297     0.39985316     0.38409788
c     0.58378354     0.32779227     0.63488642
c     0.41621636     0.67220770     0.36511358
h     0.39218980     0.17436075     0.60138984
h     0.60781010     0.82563922     0.39861017
c     0.61501573     0.30350938     0.75154231
c     0.38498417     0.69649059     0.24845770
h     0.68984895     0.13619892     0.75382647
h     0.31015095     0.86380105     0.24617353
c     0.82383055     0.55416680     0.81267884
c     0.17616935     0.44583317     0.18732116
h     0.01509702     0.62354187     0.77350075
h     0.98490288     0.37645810     0.22649926
h     0.87479892     0.51930776     0.89064029
h     0.12520098     0.48069221     0.10935971
h     0.73988533     0.71627459     0.82192453
h     0.26011457     0.28372538     0.17807547
c     0.33461504     0.22737615     0.79869048
c     0.66538486     0.77262382     0.20130952
h     0.26259226     0.39688387     0.80272113
h     0.73740764     0.60311610     0.19727887
h     0.18659016     0.06415797     0.74590437
h     0.81340974     0.93584200     0.25409564
c     0.34051921     0.14261717     0.90626391
c     0.65948068     0.85738280     0.09373610
h     0.13692659     0.09096832     0.93741659
h     0.86307331     0.90903165     0.06258341
h     0.48332273     0.29983553     0.96256478
h     0.51667717     0.70016444     0.03743522
h     0.40326202     0.96742304     0.90304079
h     0.59673788     0.03257692     0.09695922

K_POINTS automatic
2 2 2 1 1 1

CELL_PARAMETERS cubic
    9.809976000000    -0.043777000000    -0.048970000000
   -3.428660000000     9.625876000000    -0.068562000000
   -0.375730000000    -3.197551000000    24.327365000000
