&control
 title='crystal',
 prefix='crystal',
 pseudo_dir='..',
 calculation='vc-relax',
 etot_conv_thr=1.0D-5,
/
&system
 ibrav=0,
 celldm(1)=1.0,
 nat=    44,
 ntyp=  4,
 ecutwfc=80.0,
 ecutrho=800.0,
 xdm=.true.,
 xdm_a1=0.6512,
 xdm_a2=1.4633,
/
&electrons
 conv_thr = 1d-8,
/
&ions
/
&cell
/
ATOMIC_SPECIES
h      1.007940 h.UPF
c     12.010700 c.UPF
n     14.006700 n.UPF
o     15.999400 o.UPF

ATOMIC_POSITIONS crystal
o        0.795473949   0.768070437   0.592347510
o        0.204526051   0.231929563   0.407652490
o        0.347579981   0.638683190   0.625903896
o        0.652420019   0.361316810   0.374096104
n        0.809579001   0.271019870   0.578063236
n        0.190420999   0.728980130   0.421936764
h        1.004974403   0.405774704   0.604865738
h       -0.004974403   0.594225296   0.395134262
h        0.802360131   0.074264335   0.584894067
h        0.197639869   0.925735665   0.415105933
h        0.782799037   0.283596318   0.499458146
h        0.217200963   0.716403682   0.500541854
c        0.574816988   0.600146830   0.615902122
c        0.425183012   0.399853170   0.384097878
c        0.583783604   0.327792300   0.634886415
c        0.416216396   0.672207700   0.365113585
h        0.392189851   0.174360781   0.601389833
h        0.607810149   0.825639219   0.398610167
c        0.615015801   0.303509420   0.751542302
c        0.384984199   0.696490580   0.248457698
h        0.689849022   0.136198969   0.753826463
h        0.310150978   0.863801031   0.246173537
c        0.823830632   0.554166838   0.812678835
c        0.176169368   0.445833162   0.187321165
h        1.015097106   0.623541900   0.773500738
h       -0.015097106   0.376458100   0.226499262
h        0.874799007   0.519307807   0.890640283
h        0.125200993   0.480692193   0.109359717
h        0.739885410   0.716274620   0.821924527
h        0.260114590   0.283725380   0.178075473
c        0.334615092   0.227376185   0.798690478
c        0.665384908   0.772623815   0.201309522
h        0.262592315   0.396883897   0.802721129
h        0.737407685   0.603116103   0.197278871
h        0.186590209   0.064157998   0.745904368
h        0.813409791   0.935842002   0.254095632
c        0.340519280   0.142617214   0.906263904
c        0.659480720   0.857382786   0.093736096
h        0.136926648   0.090968360   0.937416594
h        0.863073352   0.909031640   0.062583406
h        0.483322801   0.299835568   0.962564781
h        0.516677199   0.700164432   0.037435219
h        0.403262085   0.967423059   0.903040792
h        0.596737915   0.032576941   0.096959208

K_POINTS automatic
4 4 4 1 1 1

CELL_PARAMETERS cubic
   9.809975688  -0.043777334  -0.048969574
  -3.428660135   9.625876427  -0.068562237
  -0.375730396  -3.197551400  24.327364939
