## FHIaims input file generated by critic2.
lattice_vector 4.0279999944       0.0000000000       0.0000000000       
lattice_vector -2.0140000028      3.4883503248       0.0000000000       
lattice_vector 0.0000000000       0.0000000000       20.1180000000      
atom_frac  0.3333323500       0.6666661700       0.0635997600       Te
atom_frac  0.6666675600       0.3333337800       0.9364002400       Te
atom_frac  0.0000000000       0.0000000000       0.0000000000       Pd
