%MEM=12GB
%nprocs=6
#p pbepbe aug-cc-pvtz Int(Grid=UltraFine) units=au output=wfx

1_COMPLEX 

0 1
C         0.775829041     3.347592749     2.643793923 
H         2.140340580     3.228553048     4.173257950 
C         1.559418828     3.139017539     0.135063262 
H         3.547170724     2.826801232    -0.285062428 
C        -0.206715012     3.278749900    -1.811744402 
H         0.405056342     3.099448538    -3.753587198 
C        -2.760079240     3.639609340    -1.267406163 
H        -4.118027549     3.786451804    -2.801550130 
C        -3.561158312     3.811163226     1.243483436 
H        -5.549560910     4.070857729     1.681904821 
C        -1.786157730     3.667269063     3.190454131 
H        -2.409831634     3.814983649     5.142861741 
C         1.859145148    -3.470139439     1.809835694 
H         2.518180966    -3.434209110     3.740884255 
C         3.565206837    -3.755253896    -0.184444775 
H         5.570052289    -3.985325781     0.203305000 
C         2.707919958    -3.770239004    -2.677788588 
H         4.047930498    -3.993309693    -4.217824002 
C         0.132918193    -3.492239485    -3.192910004 
H        -0.545205124    -3.483945147    -5.129888875 
C        -1.572209235    -3.212184670    -1.193620367 
H        -3.559830053    -2.958952632    -1.577238848 
C        -0.713784805    -3.207929769     1.293284680 
H        -2.046609800    -2.946769192     2.834936887 

1_COMPLEX.wfx

