%MEM=12GB
%nprocs=6
#p pbepbe aug-cc-pvtz Int(Grid=UltraFine) units=au output=wfx

2_COMPLEX2 

0 1
C        -0.275438487     6.499072814    -0.936179831 
C        -2.472558912     6.051755922    -2.323397669 
C        -4.677841313     5.597882511    -0.950753985 
C        -4.668348907     5.538323806     1.706472751 
C        -2.467864193     5.934883205     3.093465073 
C        -0.285854964     6.462106789     1.719318770 
C        -7.384873252     4.945673701    -1.770822614 
C        -7.766063485     2.180434502    -0.996578024 
C        -7.720936970     2.128293393     1.662216959 
C        -7.354330158     4.860043513     2.533771359 
C        -7.906837191    -0.037611326    -2.411256259 
C        -7.971321840    -2.304369413    -1.070419485 
C        -7.895692314    -2.352570564     1.585687358 
C        -7.763196199    -0.137676692     3.003942436 
C        -8.863461756     6.249554292     0.419206248 
C         2.417422179     7.205225240    -1.735533244 
C         2.373220681     7.180905220     2.573074490 
C         4.165334572     5.069664996     1.758276282 
C         4.215318438     5.088444485    -0.898173207 
C         5.705122174     3.466348443     3.166491880 
C         7.401871998     1.976122494     1.814917956 
C         7.489984847     2.012122961    -0.839006591 
C         5.856517609     3.528894931    -2.250173074 
C         3.006221030     9.127544191     0.436555055 
C         9.662419724     0.249041151    -1.610846006 
C         8.889006215    -2.428214833    -0.846531645 
C         8.756774115    -2.451402508     1.812443258 
C         9.498133488     0.193395699     2.698270474 
C         8.326035841    -4.576664289    -2.233938945 
C         7.570043496    -6.762149281    -0.929744109 
C         7.394396643    -6.768123151     1.699592800 
C         7.995988694    -4.597678813     3.105873025 
C        11.508122782     0.818911006     0.625348801 
C        -7.805803560    -5.135772119     2.361435738 
C        -5.232894177    -6.094603410     1.451559503 
C        -5.302745272    -6.048166381    -1.205867680 
C        -7.920446395    -5.059846416    -1.946875190 
C        -3.068683395    -6.823246785     2.731897768 
C        -0.953831337    -7.551628858     1.305665498 
C        -1.022100659    -7.506739952    -1.327270098 
C        -3.206790910    -6.731933387    -2.618099214 
C        -9.500012469    -6.270596352     0.230311176 
H        -2.470961393     6.089253672    -4.378504670 
H        -2.461085704     5.880483607     5.147273129 
H        -7.896102232     5.433484303    -3.707048465 
H        -7.834693676     5.266957739     4.496007599 
H        -7.937908434    -0.005979616    -4.466705272 
H        -7.664402602    -0.176335160     5.055832985 
H        -8.592931809     8.299020939     0.459034247 
H       -10.874488494     5.767239448     0.422242257 
H         2.640329398     7.856607944    -3.678283099 
H         2.553534706     7.805505645     4.528872426 
H         5.653775108     3.451533886     5.220000949 
H         5.926520082     3.564907184    -4.303861829 
H         1.731040374    10.756463322     0.432714088 
H         4.984373228     9.731681658     0.460643581 
H        10.376479524     0.477079115    -3.530642122 
H        10.060805493     0.366460035     4.672997775 
H         8.463684985    -4.589135381    -4.284396979 
H         7.116674766    -8.465736204    -1.981613064 
H         6.797146940    -8.473989473     2.673020597 
H         7.857134120    -4.615178737     5.154595253 
H        12.116973827     2.793781352     0.675900592 
H        13.133057498    -0.460901777     0.668384766 
H        -8.298625455    -5.555293113     4.317724005 
H        -8.515962153    -5.414323482    -3.887749247 
H        -2.987353925    -6.822811936     4.783503526 
H         0.767617001    -8.125701933     2.265535572 
H         0.645319530    -8.052248198    -2.392683974 
H        -3.235947166    -6.678026704    -4.671303411 
H       -11.443402995    -5.566476369     0.293783096 
H        -9.461720476    -8.337678414     0.192759190 
C         0.453694816    -1.021813679    -4.432775793 
C         2.515439353    -2.042227276    -3.114672276 
C         2.500260140    -2.093431118    -0.499256992 
C         0.422003737    -1.111515046     0.823623893 
C        -1.655903460    -0.123697879    -0.488050494 
C        -1.634119727    -0.074802957    -3.104639653 
C         0.476192160    -0.951320966    -7.129770956 
C         0.415970096    -1.125690601     3.522458553 
H         4.119015432    -2.787851250    -4.142839751 
H         4.081830363    -2.888267685     0.524863351 
H        -3.263846752     0.611795679     0.540676067 
H        -3.229726538     0.696067669    -4.124339747 
N         0.491909626    -0.887542276    -9.327001752 
N         0.414394276    -1.125996703     5.719364256 

2_COMPLEX2.wfx

