%MEM=12GB
%nprocs=6
#p pbepbe aug-cc-pvtz Int(Grid=UltraFine) units=au output=wfx

2_MONOMER1 

0 1
C         0.000000000     2.676188079     0.000000000 
C         2.335988882     1.283608262     0.000000000 
C         2.335988882    -1.283608262     0.000000000 
C         0.000000000    -2.676188079     0.000000000 
C        -2.335988882    -1.283608262     0.000000000 
C        -2.335988882     1.283608262     0.000000000 
C         0.000000000     5.314983754     0.000000000 
C         2.288263956     6.717552801     0.000000000 
N         4.179030088     7.842821416     0.000000000 
C        -2.288263956     6.717552801     0.000000000 
N        -4.179030088     7.842821416     0.000000000 
C         0.000000000    -5.314983754     0.000000000 
C         2.288263956    -6.717552801     0.000000000 
N         4.179030088    -7.842821416     0.000000000 
C        -2.288263956    -6.717552801     0.000000000 
N        -4.179030088    -7.842821416     0.000000000 
H         4.103987628     2.324513327     0.000000000 
H         4.103987628    -2.324513327     0.000000000 
H        -4.103987628    -2.324513327     0.000000000 
H        -4.103987628     2.324513327     0.000000000 

2_MONOMER1.wfx

