%MEM=12GB
%nprocs=6
#p pbepbe aug-cc-pvtz Int(Grid=UltraFine) units=au output=wfx

4_COMPLEX1 

0 1
C         4.418380335    -2.614871855   -11.987269503 
C         2.838113202    -1.330489928   -10.287509993 
C         2.838113202     1.330489928   -10.287509993 
C         4.418380335     2.614871855   -11.987269503 
C         5.955286357     1.317427974   -13.682225261 
C         5.955286357    -1.317427974   -13.682225261 
C         1.335783355     2.867960246    -8.482152583 
C         2.607720719     4.567722034    -6.921739508 
C         1.370447150     6.324352358    -5.372474264 
C        -1.370447150     6.324352358    -5.372474264 
C        -2.607720719     4.567722034    -6.921739508 
C        -1.335783355     2.867960246    -8.482152583 
C         2.788855744     8.053701140    -3.730994075 
C         1.350978442     9.913347486    -2.604885313 
C        -1.350978442     9.913347486    -2.604885313 
C        -2.788855744     8.053701140    -3.730994075 
C        -2.170555602    11.278788577    -0.455088081 
C         0.000000000    12.115150026     0.875702383 
C         2.170555602    11.278788577    -0.455088081 
C         0.000000000    12.574112882     3.455009409 
C        -2.476820186    12.520759687     4.607832355 
C        -4.606351195    11.711218234     3.303825846 
C        -4.484164663    10.863191002     0.710080644 
C        -6.146477529     9.204946789    -0.668784809 
C        -5.333340930     7.861227676    -2.779094553 
C         2.476820186    12.520759687     4.607832355 
C         4.606351195    11.711218234     3.303825846 
C         4.484164663    10.863191002     0.710080644 
C         6.146477529     9.204946789    -0.668784809 
C         5.333340930     7.861227676    -2.779094553 
C        -2.838113202     1.330489928   -10.287509993 
C        -2.838113202    -1.330489928   -10.287509993 
C        -4.418380335    -2.614871855   -11.987269503 
C        -5.955286357    -1.317427974   -13.682225261 
C        -5.955286357     1.317427974   -13.682225261 
C        -4.418380335     2.614871855   -11.987269503 
C         1.335783355    -2.867960246    -8.482152583 
C         2.607720719    -4.567722034    -6.921739508 
C         1.370447150    -6.324352358    -5.372474264 
C        -1.370447150    -6.324352358    -5.372474264 
C        -2.607720719    -4.567722034    -6.921739508 
C        -1.335783355    -2.867960246    -8.482152583 
C        -2.788855744    -8.053701140    -3.730994075 
C        -1.350978442    -9.913347486    -2.604885313 
C         1.350978442    -9.913347486    -2.604885313 
C         2.788855744    -8.053701140    -3.730994075 
C         2.170555602   -11.278788577    -0.455088081 
C         0.000000000   -12.115150026     0.875702383 
C        -2.170555602   -11.278788577    -0.455088081 
C        -5.333340930    -7.861227676    -2.779094553 
C        -6.146477529    -9.204946789    -0.668784809 
C        -4.484164663   -10.863191002     0.710080644 
C        -4.606351195   -11.711218234     3.303825846 
C        -2.476820186   -12.520759687     4.607832355 
C         0.000000000   -12.574112882     3.455009409 
C         5.333340930    -7.861227676    -2.779094553 
C         6.146477529    -9.204946789    -0.668784809 
C         4.484164663   -10.863191002     0.710080644 
C         4.606351195   -11.711218234     3.303825846 
C         2.476820186   -12.520759687     4.607832355 
H        -8.028789130     8.820021815     0.058900522 
H        -6.623917172     6.485572119    -3.590484438 
H         6.623917172     6.485572119    -3.590484438 
H         8.028789130     8.820021815     0.058900522 
H         6.371764546    11.536338329     4.340240335 
H         2.666820908    12.945513923     6.609124079 
H        -2.666820908    12.945513923     6.609124079 
H        -6.371764546    11.536338329     4.340240335 
H        -6.371764546   -11.536338329     4.340240335 
H        -2.666820908   -12.945513923     6.609124079 
H         2.666820908   -12.945513923     6.609124079 
H         6.371764546   -11.536338329     4.340240335 
H         8.028789130    -8.820021815     0.058900522 
H         6.623917172    -6.485572119    -3.590484438 
H        -6.623917172    -6.485572119    -3.590484438 
H        -8.028789130    -8.820021815     0.058900522 
H         4.660776344     4.562152175    -6.959412157 
H        -4.660776344     4.562152175    -6.959412157 
H         4.660776344    -4.562152175    -6.959412157 
H        -4.660776344    -4.562152175    -6.959412157 
H        -4.409612305     4.668212970   -11.970850811 
H        -7.141935513     2.358431225   -14.994176710 
H        -7.141935513    -2.358431225   -14.994176710 
H        -4.409612305    -4.668212970   -11.970850811 
H         4.409612305     4.668212970   -11.970850811 
H         7.141935513     2.358431225   -14.994176710 
H         7.141935513    -2.358431225   -14.994176710 
H         4.409612305    -4.668212970   -11.970850811 
C        -6.580651029     1.319679448     5.511583938 
C        -5.732859892     2.693412337     3.289156921 
C        -4.357115315     4.910077243     4.140815177 
C        -4.358264301     4.914040062     6.885930438 
C        -2.218957822     5.715886508     2.825411270 
C        -4.916642218     1.373638907     1.151656699 
C        -5.730742871     2.692389217     7.734436890 
C        -6.580651029    -1.319679448     5.511583938 
C        -4.914592089     1.372924036     9.869596084 
C        -2.222548660     5.730431403     8.206733981 
C         0.000000000     6.563567372     4.197356110 
C        -1.372537890     4.348224752     0.603785476 
C         0.000000000     6.573607917     6.834032278 
C        -1.373635719     4.356569453    10.427287678 
C        -2.693084486     2.221222912    11.242162172 
C        -4.914592089    -1.372924036     9.869596084 
C        -5.730742871    -2.692389217     7.734436890 
C        -5.732859892    -2.693412337     3.289156921 
C        -4.916642218    -1.373638907     1.151656699 
C        -2.692123194     2.218338977    -0.219133578 
C         2.218957822     5.715886508     2.825411270 
C         1.372537890     4.348224752     0.603785476 
C        -2.692123194    -2.218338977    -0.219133578 
C        -1.320713732     0.000000000    -1.076860017 
C        -4.358264301    -4.914040062     6.885930438 
C        -4.357115315    -4.910077243     4.140815177 
C        -2.693084486    -2.221222912    11.242162172 
C        -1.319538921     0.000000000    12.090190098 
C         1.373635719     4.356569453    10.427287678 
C         2.222548660     5.730431403     8.206733981 
C         4.358264301     4.914040062     6.885930438 
C         4.357115315     4.910077243     4.140815177 
C         2.692123194     2.218338977    -0.219133578 
C         1.320713732     0.000000000    -1.076860017 
C        -2.218957822    -5.715886508     2.825411270 
C        -1.372537890    -4.348224752     0.603785476 
C        -1.373635719    -4.356569453    10.427287678 
C        -2.222548660    -5.730431403     8.206733981 
C         1.319538921     0.000000000    12.090190098 
C         2.693084486     2.221222912    11.242162172 
C         5.732859892     2.693412337     3.289156921 
C         4.916642218     1.373638907     1.151656699 
C         2.692123194    -2.218338977    -0.219133578 
C         1.372537890    -4.348224752     0.603785476 
C         0.000000000    -6.563567372     4.197356110 
C         0.000000000    -6.573607917     6.834032278 
C         1.373635719    -4.356569453    10.427287678 
C         2.693084486    -2.221222912    11.242162172 
C         4.914592089     1.372924036     9.869596084 
C         5.730742871     2.692389217     7.734436890 
C         4.914592089    -1.372924036     9.869596084 
C         6.580651029     1.319679448     5.511583938 
C         4.916642218    -1.373638907     1.151656699 
C         2.218957822    -5.715886508     2.825411270 
C         2.222548660    -5.730431403     8.206733981 
C         4.358264301    -4.914040062     6.885930438 
C         5.730742871    -2.692389217     7.734436890 
C         6.580651029    -1.319679448     5.511583938 
C         5.732859892    -2.693412337     3.289156921 
C         4.357115315    -4.910077243     4.140815177 

4_COMPLEX1.wfx

