%MEM=12GB
%nprocs=6
#p pbepbe aug-cc-pvtz Int(Grid=UltraFine) units=au output=wfx

6_COMPLEX1 

1 1
C        -1.466521596    -0.159915020     9.497273525 
C         1.495166067    -0.178594065     9.463027696 
N         2.103430127    -2.569292946     8.297984354 
C        -0.025766117    -3.985006114     7.671665528 
N        -2.126935581    -2.498337943     8.253058874 
N        -2.089861132     2.136880328     8.136320358 
C         0.018093501     3.414252509     7.244658741 
N         2.121971086     2.065048233     8.004738333 
O        -0.000555636     5.397033455     6.060783757 
O        -0.058893589    -6.120799205     6.850048746 
C         4.652691040     3.089462207     7.771744780 
C         4.623584327    -3.631903214     8.101205994 
C        -9.084171395    -0.171326699     3.512222685 
C        -7.577896903    -0.157187516     6.065503453 
N        -6.130050369    -2.463611454     5.965002749 
C        -6.614750087    -3.888827758     3.802520084 
N        -8.260257922    -2.471063205     2.305350468 
N        -8.290294624     2.173138389     2.307121472 
C        -6.570515365     3.512611755     3.732953907 
N        -6.132450248     2.181202563     5.920877432 
O        -5.648027477     5.570462969     3.174105035 
O        -5.820265794    -5.983967482     3.342652738 
C        -4.589374340     3.205851911     7.942839466 
C        -4.662684175    -3.498422948     8.039915431 
C         9.115655553    -0.493157576    -3.515920602 
C         7.581978179    -0.375482149    -6.049218756 
N         6.122521833    -2.679118169    -6.020937643 
C         6.487957338    -4.103346700    -3.835796313 
N         8.129318448    -2.735503484    -2.298615524 
N         8.535361364     1.899016860    -2.311764467 
C         6.818143262     3.339838440    -3.665370604 
N         6.157560591     1.958919705    -5.796743412 
O         6.063519152     5.447294990    -3.127818221 
O         5.600489264    -6.167732188    -3.391694368 
C         4.652691040     3.089462207    -7.771744780 
C         4.623584327    -3.631903214    -8.101205994 
C         7.581978179    -0.375482149     6.049218756 
C         9.115655553    -0.493157576     3.515920602 
N         8.129318448    -2.735503484     2.298615524 
C         6.487957338    -4.103346700     3.835796313 
N         6.122521833    -2.679118169     6.020937643 
N         6.157560591     1.958919705     5.796743412 
C         6.818143262     3.339838440     3.665370604 
N         8.535361364     1.899016860     2.311764467 
O         6.063519152     5.447294990     3.127818221 
O         5.600489264    -6.167732188     3.391694368 
C         9.668407943     2.829972258     0.000000000 
C         9.131636538    -3.831198127     0.000000000 
C        -7.577896903    -0.157187516    -6.065503453 
C        -9.084171395    -0.171326699    -3.512222685 
N        -8.260257922    -2.471063205    -2.305350468 
C        -6.614750087    -3.888827758    -3.802520084 
N        -6.130050369    -2.463611454    -5.965002749 
N        -6.132450248     2.181202563    -5.920877432 
C        -6.570515365     3.512611755    -3.732953907 
N        -8.290294624     2.173138389    -2.307121472 
O        -5.648027477     5.570462969    -3.174105035 
O        -5.820265794    -5.983967482    -3.342652738 
C        -9.350126967     3.191635879     0.000000000 
C        -9.313766909    -3.508426385     0.000000000 
C         1.495166067    -0.178594065    -9.463027696 
C        -1.466521596    -0.159915020    -9.497273525 
N        -2.126935581    -2.498337943    -8.253058874 
C        -0.025766117    -3.985006114    -7.671665528 
N         2.103430127    -2.569292946    -8.297984354 
N         2.121971086     2.065048233    -8.004738333 
C         0.018093501     3.414252509    -7.244658741 
N        -2.089861132     2.136880328    -8.136320358 
O        -0.000555636     5.397033455    -6.060783757 
O        -0.058893589    -6.120799205    -6.850048746 
C        -4.589374340     3.205851911    -7.942839466 
C        -4.662684175    -3.498422948    -8.039915431 
H        -2.275396760    -0.090453016    11.408359324 
H         2.347507820    -0.049263697    11.351752774 
H         5.621887241     2.869672415     9.593698671 
H         4.458007466     5.089342558     7.292966278 
H         5.642016703    -3.296320858     9.876490462 
H         4.375090757    -5.657302185     7.775687558 
H       -11.144519205    -0.162927261     3.762257112 
H        -8.793614873    -0.122092087     7.747120820 
H        -4.363238375     5.219772253     7.549757309 
H        -5.582173716     2.925360748     9.740431614 
H        -4.465556660    -5.522824722     7.672155144 
H        -5.686499789    -3.174967545     9.815508434 
H        11.165848172    -0.661866188    -3.798167177 
H         8.784117004    -0.298299272    -7.740838991 
H         5.621887241     2.869672415    -9.593698671 
H         4.458007466     5.089342558    -7.292966278 
H         5.642016703    -3.296320858    -9.876490462 
H         4.375090757    -5.657302185    -7.775687558 
H         8.784117004    -0.298299272     7.740838991 
H        11.165848172    -0.661866188     3.798167177 
H         9.410867428     4.878799524     0.000000000 
H        11.683423711     2.349009223     0.000000000 
H         8.574114296    -5.821659915     0.000000000 
H        11.199925982    -3.652625395     0.000000000 
H        -8.793614873    -0.122092087    -7.747120820 
H       -11.144519205    -0.162927261    -3.762257112 
H       -11.394987507     2.855999327     0.000000000 
H        -8.953175426     5.217268509     0.000000000 
H       -11.369307057    -3.226433392     0.000000000 
H        -8.855796646    -5.524070224     0.000000000 
H         2.347507820    -0.049263697   -11.351752774 
H        -2.275396760    -0.090453016   -11.408359324 
H        -4.363238375     5.219772253    -7.549757309 
H        -5.582173716     2.925360748    -9.740431614 
H        -4.465556660    -5.522824722    -7.672155144 
H        -5.686499789    -3.174967545    -9.815508434 
C         0.129302075    -3.178172424     0.000000000 
C         1.316603783    -0.540629341     0.000000000 
C        -0.667832106     1.575911958     0.000000000 
C         0.567548307     4.174227047     0.000000000 
N        -1.403408423     6.243570893     0.000000000 
H        -2.582113359     6.120949056     1.566792812 
H        -0.549086015     7.976878449     0.000000000 
H        -2.582113359     6.120949056    -1.566792812 
H         1.574346699    -4.651622121     0.000000000 
H        -1.055577931    -3.466505153    -1.670697058 
H        -1.055577931    -3.466505153     1.670697058 
H         2.537492479    -0.313315991     1.661228764 
H         2.537492479    -0.313315991    -1.661228764 
H        -1.884394541     1.369384908     1.668551250 
H        -1.884394541     1.369384908    -1.668551250 
H         1.723603936     4.484019690     1.675966593 
H         1.723603936     4.484019690    -1.675966593 

6_COMPLEX1.wfx

