%MEM=12GB
%nprocs=6
#p pbepbe aug-cc-pvtz Int(Grid=UltraFine) units=au output=wfx

6_MONOMER1 

1 1
C        -4.642767566    -1.320688835     0.000000000 
C        -2.532255896     0.659651070     0.000000000 
C         0.103970841    -0.570945573     0.000000000 
C         2.165377606     1.429732551     0.000000000 
N         4.795075594     0.188388955     0.000000000 
H         5.018497153    -0.938858706     1.564473288 
H         6.221649141     1.504827577     0.000000000 
H         5.018497153    -0.938858706    -1.564473288 
H        -6.491238973    -0.399997255     0.000000000 
H        -4.532335332    -2.528755137    -1.676254897 
H        -4.532335332    -2.528755137     1.676254897 
H        -2.711113093     1.881169706     1.665438647 
H        -2.711113093     1.881169706    -1.665438647 
H         0.299747239    -1.782547985     1.674414659 
H         0.299747239    -1.782547985    -1.674414659 
H         2.115298658     2.623507877     1.683223532 
H         2.115298658     2.623507877    -1.683223532 

6_MONOMER1.wfx

