%MEM=12GB
%nprocs=6
#p pbepbe aug-cc-pvtz Int(Grid=UltraFine) units=au output=wfx

7_COMPLEX1 

2 1
O        -5.716018175    -5.406630119    -5.579251879 
O        -7.755543257     1.380907189    -6.028307655 
O        -3.594750722     7.025024892    -6.040484472 
O         3.261039541     7.495150609    -6.097442740 
O         7.327738084     1.862465115    -5.637271960 
O         6.278666012    -4.991437150    -5.495963170 
O         0.393682432    -8.233936272    -5.400015684 
O        -6.056700011    -4.747396399     5.823489099 
O        -7.944975507     1.717085236     5.548995943 
O        -3.879595717     7.068030033     5.442797698 
O         3.044587458     7.089315443     5.423070875 
O         8.040303558     2.227510460     5.865643914 
O         6.568961529    -4.473981476     5.975127204 
O         0.366644543    -7.749324017     6.175228126 
N        -5.941887055    -8.085111976    -2.102229735 
N        -8.465587834    -4.696948588    -2.214383497 
N        -9.806995281    -0.302234170    -2.523094155 
N        -9.107981460     3.859893212    -2.652973197 
N        -6.322790750     7.541702146    -2.623590742 
N        -2.644068256     9.633768266    -2.623293879 
N         1.979784861     9.865243818    -2.616457811 
N         5.770766878     8.002765046    -2.520365011 
N         8.753831701     4.490811727    -2.412761207 
N         9.707842676     0.380044229    -2.245933756 
N         9.007060518    -4.158093580    -2.149236066 
N         6.657807192    -7.650998672    -2.013437437 
N         2.541594220    -9.707989554    -1.854604550 
N        -1.679205125    -9.841142803    -1.870114210 
N        -5.840313809    -7.636998185     2.508748499 
N        -8.817325487    -4.639331171     2.405445131 
N        -9.926978412    -0.168620526     2.105661798 
N        -9.175314588     3.985334051     1.985764755 
N        -6.534594124     7.757192075     2.004823717 
N        -2.731353616     9.566272422     2.011052126 
N         1.861711669     9.601599845     2.009841187 
N         5.780982322     8.032732978     2.112128633 
N         8.813293701     4.564236261     2.218776470 
N        10.120779948     0.549475620     2.368560754 
N         9.200811705    -3.986501080     2.479273528 
N         6.590814683    -7.315246004     2.612089467 
N         2.538355515    -9.520359538     2.782210782 
N        -1.683333691    -9.603908325     2.756423036 
C        -7.303471542    -8.242178617     0.259727854 
C        -9.229298190    -6.009114667     0.079353122 
C         0.416146233    -9.140670016    -3.281118176 
C         5.047974681    -9.642849330    -2.958372313 
C       -11.054395887     0.613943992    -0.267925893 
C       -10.544080293     3.526397368    -0.346391474 
C         7.193004554    -5.527751410    -3.446948470 
C        10.300135739    -2.063696031    -3.329434567 
C        -6.477836369     9.105904927    -0.380015224 
C        -3.856841788    10.476258467    -0.323615765 
C         8.450902564     2.206449820    -3.652952277 
C         8.025109754     6.864034394    -3.569381232 
C         3.032342834    10.680392195    -0.226317835 
C         5.734219296     9.478951139    -0.213306105 
C         3.616162875     8.342440842    -3.989403989 
C        10.222656958     4.270725097    -0.112249011 
C        11.012181452     1.421840751    -0.065715989 
C        -4.167350113    -9.957102678    -3.007198894 
C        -6.591212582    -5.987163427    -3.526960485 
C         9.798608306    -5.357454651     0.191800725 
C         8.059207340    -7.745661845     0.339837570 
C       -10.043833059    -2.843780942    -3.489107705 
C        -8.751487534     1.621635223    -3.968738115 
C         1.942765878   -10.942444990     0.520081106 
C        -1.014200456   -11.020326042     0.514008795 
C        -8.474371559     6.284608955    -3.759164770 
C        -4.111493110     7.936031696    -3.997023230 
C        -4.208304304    -9.444973842     3.780653813 
C        -6.807142676    -5.566088100     3.803318349 
C        -0.382221433    10.757960700    -3.683634020 
C         0.408843508    -8.812541525     4.135751662 
C         5.055652744    -9.231898206     3.823929703 
C       -10.382823879    -2.587416759     3.305593933 
C        -8.891387287     1.829196344     3.450223596 
C         7.341349415    -5.159902039     3.924360488 
C        10.677646442    -1.900276021     3.465000732 
C        -8.717584557     6.477136742     3.028214239 
C        -4.323045459     8.004906201     3.382108452 
C         8.878677774     2.414125403     3.732524096 
C         8.044141896     6.981748139     3.240806299 
C        -0.446443792    10.567717662     3.120054964 
C         3.507733840     8.107456539     3.406611236 
H        -8.195927064   -10.104429812     0.460414749 
H         7.645372124     6.674567299     5.243642665 
H        -0.448903679    10.004319867     5.106478792 
H        -0.456287584    12.637003828     2.953280420 
H         9.587606561     8.350610893     3.013706000 
H        12.689990124    -2.318266775     3.187690639 
H       -10.395886271     7.655044655     2.716099740 
H        -8.376005865     6.226445786     5.048843606 
H        10.240650261    -1.752856970     5.477815125 
H         6.040020756   -11.056293253     3.716675362 
H       -12.372882939    -3.106618942     3.039420659 
H        -9.962198299    -2.349112434     5.312530004 
H         4.820524118    -8.654598529     5.792863254 
H        -0.345092557    10.257158899    -5.686743752 
H        -4.020608830    -8.818787605     5.739491018 
H        -5.098620076   -11.319269879     3.704497808 
H        -0.488965751    12.816480401    -3.452052781 
H        -1.797932880   -12.940286881     0.606076230 
H       -10.129254895     7.531646774    -3.637402479 
H         2.826465967   -12.818915417     0.591835947 
H        -7.985443990     5.926163176    -5.733406502 
H         9.105117658    -9.532907784     0.476687391 
H       -12.026045639    -3.447123631    -3.353831450 
H        11.824317577    -5.802576826     0.120087275 
H        -9.442830650    -2.790963097    -5.463930145 
H        13.057756623     1.118652541    -0.242201853 
H        -4.969634099   -11.841486755    -2.681582142 
H        11.830617060     5.582521715    -0.161194504 
H        -3.918313840    -9.618837839    -5.028317171 
H         7.269414952    10.875668206    -0.218395849 
H         7.619585953     6.478372069    -5.557119702 
H         3.038287728    12.752142291    -0.103468848 
H         9.611731861     8.190913588    -3.400000830 
H        -3.996783905    12.546513770    -0.292710582 
H        12.349688039    -2.371891026    -3.210942598 
H        -8.094354181    10.401234151    -0.506206886 
H         9.690471953    -2.019134617    -5.301643794 
H       -12.272009982     4.675124124    -0.397594833 
H         4.801750354    -9.309643383    -4.980864393 
H       -13.070326596     0.120110711    -0.300236989 
H         5.974839355   -11.468878903    -2.630663273 
H       -11.207532086    -6.618283337    -0.064000807 
Fe        0.269092480     0.238925229    -0.001877151 
C         2.729937248     0.641798766     2.884370083 
C        -0.119206716    -2.671533659     2.473309482 
C         1.952610727    -3.129648075     0.810569776 
C         3.709981568    -1.088438613     1.065109642 
C         0.348842342    -0.327042384     3.764995530 
C        -2.729525323     0.223877328    -2.400980952 
C        -2.838784437     2.376851537    -0.782582462 
C        -0.571468314     3.811843310    -1.127998734 
C         0.950630827     2.549694167    -2.959405857 
C        -0.376002473     0.316032282    -3.756276293 
C        -1.381444968     0.968657772     5.554404533 
C         0.609018733    -1.624447385    -5.528432637 
N        -0.727669323     0.466773818     8.348421282 
N         0.149162856    -0.961928557    -8.326895616 
C        -0.849732619    -2.323216469     8.894390426 
C         1.877267372     1.448563605     8.946008807 
C        -2.663851054     1.853272624     9.902609425 
C         1.498408652     1.451533054    -9.006382998 
C         1.192868503    -3.117882079    -9.859773453 
C        -2.638607248    -0.672296724    -8.817436048 
H         3.575564342     2.401141367     3.478960023 
H        -1.773884319    -3.842845174     2.709137564 
H         2.142700440    -4.714707936    -0.461426803 
H         5.442504525    -0.867547995     0.010074934 
H        -4.135313479    -1.246311055    -2.565065484 
H        -4.345813186     2.824786275     0.519058073 
H        -0.074835339     5.517749778    -0.124351795 
H         2.797591176     3.116874451    -3.615175417 
H        -3.332638550     0.337726117     5.337802963 
H        -1.309431343     3.020458136     5.354890712 
H         2.652791291    -1.854902944    -5.368182714 
H        -0.300823359    -3.454402311    -5.252516439 
H         0.592553103    -3.280880591     7.781783054 
H        -0.497739813    -2.592795848    10.907918368 
H        -2.719862194    -3.012425346     8.372655883 
H         3.261268616     0.348690309     7.890932483 
H         1.975937103     3.434427022     8.403344652 
H         2.186663563     1.224993246    10.971916118 
H        -4.527641143     1.122576224     9.414970981 
H        -2.245402590     1.537131104    11.896128679 
H        -2.554915755     3.857381252     9.434718615 
H         3.487647677     1.261829166    -8.501968661 
H         1.279613975     1.746889391   -11.034933240 
H         0.641602300     3.008090610    -7.966474245 
H         3.201006185    -3.302565719    -9.434394635 
H         0.201888705    -4.839433103    -9.311886757 
H         0.896901204    -2.699522280   -11.856364448 
H        -3.344643917     0.918778001    -7.719559496 
H        -2.895922098    -0.322276349   -10.832936164 
H        -3.589649401    -2.406768921    -8.241753235 

7_COMPLEX1.wfx

