&control
 title='crystal',
 prefix='crystal',
 pseudo_dir='.',
 calculation='vc-relax',
/
&system
 ibrav=0,
 celldm(1)=1.0,
 nat=    48,
 ntyp=  4,
 ecutwfc=60.0,
 ecutrho=600.0,
 xdm=.true.,
 xdm_a1=0.4073,
 xdm_a2=2.4150,
/
&electrons
 conv_thr = 1d-8,
/
&ions
/
&cell
/
ATOMIC_SPECIES
h      1.007940 h.UPF
c     12.010700 c.UPF
n     14.006700 n.UPF
o     15.999400 o.UPF

ATOMIC_POSITIONS crystal
o     0.72556798     0.31493072     0.59751696
o     0.77463077     0.68506585     0.09753062
o     0.22537035     0.18507189     0.40246843
o     0.27443743     0.81492644     0.90247895
n     0.90651249     0.48891196     0.83334082
n     0.59376839     0.51103382     0.33332176
n     0.40621368     0.01102507     0.16668042
n     0.09350751     0.98892095     0.66666125
n     0.30384057     0.38838577     0.64217611
n     0.19635178     0.61158172     0.14218353
n     0.80363255     0.11158941     0.35780716
n     0.69616366     0.88837126     0.85782001
c     0.55595516     0.37734939     0.67546138
c     0.94425627     0.62265572     0.17547479
c     0.05573388     0.12265797     0.32452489
c     0.44405197     0.87734603     0.82453997
c     0.62970216     0.44211009     0.81484443
c     0.87054513     0.55794268     0.31487416
c     0.12944649     0.05794114     0.18512703
c     0.37030610     0.94210831     0.68515682
c     0.80686837     0.33967549     0.90280915
c     0.69322647     0.66033102     0.40277910
c     0.30678320     0.16033151     0.09722980
c     0.19312945     0.83968503     0.59718507
h     0.91582269     0.58630971     0.90150638
h     0.58452730     0.41366586     0.40152221
h     0.41544651     0.91366037     0.09848131
h     0.08420520     0.08631543     0.59849513
h     0.24214391     0.32966920     0.55403454
h     0.25802085     0.67027032     0.05403021
h     0.74197318     0.17029087     0.44596733
h     0.75786171     0.82965029     0.94596003
h     0.16301389     0.43270991     0.71003068
h     0.33720348     0.56723697     0.21002908
h     0.66278738     0.06724255     0.28997237
h     0.83699876     0.93270457     0.78996819
h     0.48523904     0.51843650     0.86755260
h     0.01505340     0.48168264     0.36762896
h     0.98492665     0.98168441     0.13237206
h     0.51478147     0.01843443     0.63244715
h     0.77714128     0.34492342     0.01360546
h     0.72289160     0.65515131     0.51357082
h     0.27710757     0.15514703     0.98642664
h     0.22285687     0.84492596     0.48639895
h     0.87883092     0.22242817     0.86130317
h     0.62115791     0.77754612     0.36121033
h     0.37886139     0.27753732     0.13879155
h     0.12114728     0.72242719     0.63870208

K_POINTS automatic
2 2 2 1 1 1

CELL_PARAMETERS cubic
    9.696775000000    -0.000125000000    -0.000354000000
   -0.000212000000    15.172631000000    -0.000010000000
   -0.000718000000    -0.000021000000    18.360986000000
