&control
 title='crystal',
 prefix='crystal',
 pseudo_dir='..',
/
&system
 ibrav=0,
 celldm(1)=1.0,
 nat=     8,
 ntyp=  1,
 ecutwfc=80.0,
 ecutrho=800.0,
 xdm=.true.,
 xdm_a1=0.6754,
 xdm_a2=1.4651,
 input_dft='b86bpbex',
 exx_fraction=0.25,
/
&electrons
 conv_thr = 1d-8,
/
ATOMIC_SPECIES
Cl    35.453000 cl.UPF

ATOMIC_POSITIONS crystal
Cl       0.000000000   0.125460983   0.108259627
Cl       0.500000000   0.625460837   0.108259646
Cl       0.000000000   0.374534025   0.608261964
Cl       0.500000000   0.874534109   0.608262007
Cl       0.000000000   0.625465975   0.391738036
Cl       0.500000000   0.125465891   0.391737993
Cl       0.000000000   0.874539017   0.891740373
Cl       0.500000000   0.374539163   0.891740354

K_POINTS automatic
4 4 4 1 1 1

CELL_PARAMETERS
  12.244564312   0.000000000   0.000000000
   0.000000000   7.734602405   0.000110247
   0.000000000   0.000197097  15.268964710
