&control
 title='crystal',
 prefix='crystal',
 pseudo_dir='.',
 calculation='vc-relax',
/
&system
 ibrav=0,
 celldm(1)=1.0,
 nat=   128,
 ntyp=  5,
 ecutwfc=60.0,
 ecutrho=600.0,
 xdm=.true.,
 xdm_a1=0.4073,
 xdm_a2=2.4150,
/
&electrons
 conv_thr = 1d-8,
/
&ions
/
&cell
/
ATOMIC_SPECIES
h      1.007940 h.UPF
c     12.010700 c.UPF
n     14.006700 n.UPF
o     15.999400 o.UPF
cl    35.453000 cl.UPF

ATOMIC_POSITIONS crystal
cl    0.87401470     0.57977501     0.07881174
cl    0.12598534     0.42022499     0.92118823
cl    0.12598637     0.07977646     0.42117293
cl    0.87401368     0.92022353     0.57882704
o     0.53629879     0.13941546     0.88987916
o     0.46370126     0.86058454     0.11012080
o     0.46365430     0.63941187     0.61009478
o     0.53634574     0.36058812     0.38990519
h     0.65465765     0.15066355     0.91903137
h     0.34534240     0.84933645     0.08096860
h     0.34530339     0.65068001     0.58094147
h     0.65469665     0.34931998     0.41905850
n     0.84796452     0.33310850     0.46188031
n     0.15203553     0.66689149     0.53811965
n     0.15205917     0.83314197     0.03811702
n     0.84794087     0.16685802     0.96188295
n     0.34055290     0.31248535     0.60733726
n     0.65944714     0.68751464     0.39266271
n     0.65948186     0.81246818     0.89263294
n     0.34051819     0.18753181     0.10736703
h     0.40711564     0.33999144     0.54008090
h     0.59288441     0.66000855     0.45991907
h     0.59291942     0.83996447     0.95989843
h     0.40708062     0.16003552     0.04010154
c     0.91931227     0.27849696     0.57414904
c     0.08068777     0.72150303     0.42585093
c     0.08071367     0.77855035     0.92581586
c     0.91928638     0.22144964     0.07418411
h     0.84290688     0.23756731     0.62544116
h     0.15709317     0.76243269     0.37455881
h     0.15712416     0.73764069     0.87451788
h     0.84287588     0.26235930     0.12548208
c     0.08095314     0.26937002     0.62794912
c     0.91904691     0.73062997     0.37205085
c     0.91907969     0.76941203     0.87199152
c     0.08092036     0.23058796     0.12800845
h     0.12587257     0.22103664     0.71749910
h     0.87412747     0.77896336     0.28250087
h     0.87416269     0.72109245     0.78241136
h     0.12583736     0.27890754     0.21758861
c     0.18208487     0.32008501     0.56308521
c     0.81791518     0.67991498     0.43691476
c     0.81793053     0.82008512     0.93687724
c     0.18206952     0.17991487     0.06312273
c     0.10992920     0.38341237     0.44654538
c     0.89007084     0.61658763     0.55345459
c     0.89008969     0.88340485     0.05343913
c     0.10991036     0.11659514     0.94656084
c     0.19725287     0.44579196     0.38348161
c     0.80274718     0.55420804     0.61651836
c     0.80276877     0.94578109     0.11647025
c     0.19723128     0.05421891     0.88352972
h     0.32441980     0.44813964     0.42242294
h     0.67558024     0.55186035     0.57757703
h     0.67559404     0.94811519     0.07750403
h     0.32440600     0.05188480     0.92249594
c     0.12423202     0.50574067     0.27334452
c     0.87576803     0.49425933     0.72665545
c     0.87576295     0.00574859     0.22657102
c     0.12423709     0.99425140     0.77342895
h     0.19129326     0.55429823     0.22667594
h     0.80870679     0.44570176     0.77332403
h     0.80870193     0.05431163     0.27320325
h     0.19129812     0.94568836     0.72679671
c     0.96010025     0.50448129     0.22185561
c     0.03989979     0.49551871     0.77814436
c     0.03990721     0.00449672     0.27810382
c     0.96009283     0.99550327     0.72189615
c     0.86942295     0.44688537     0.28270339
c     0.13057710     0.55311462     0.71729658
c     0.13057178     0.94690395     0.21729051
c     0.86942827     0.05309604     0.78270946
h     0.74225197     0.44850741     0.24654529
h     0.25774808     0.55149258     0.75345468
h     0.25775823     0.94853512     0.25348102
h     0.74224182     0.05146487     0.74651895
c     0.94246678     0.38605026     0.39851103
c     0.05753327     0.61394974     0.60148893
c     0.05755820     0.88606989     0.10148822
c     0.94244185     0.11393010     0.89851175
c     0.42696436     0.27636694     0.75413696
c     0.57303569     0.72363305     0.24586301
c     0.57303618     0.77636493     0.74582660
c     0.42696386     0.22363506     0.25417337
h     0.34966847     0.28041297     0.83314927
h     0.65033157     0.71958703     0.16685070
h     0.65031487     0.78043394     0.66679657
h     0.34968517     0.21956606     0.33320340
c     0.47209339     0.17755260     0.74325596
c     0.52790666     0.82244739     0.25674401
c     0.52789615     0.67755017     0.75670879
c     0.47210390     0.32244983     0.24329118
h     0.36724964     0.13893426     0.68816936
h     0.63275041     0.86106574     0.31183061
h     0.63274022     0.63893787     0.81177464
h     0.36725982     0.36106213     0.18822533
h     0.55571456     0.17205696     0.67009734
h     0.44428549     0.82794303     0.32990263
h     0.44429728     0.67204562     0.82989224
h     0.55570277     0.32795437     0.17010773
c     0.57133783     0.33450039     0.81753714
c     0.42866222     0.66549960     0.18246283
c     0.42866649     0.83449111     0.68247453
c     0.57133355     0.16550888     0.31752544
h     0.63707975     0.30373138     0.92411206
h     0.36292030     0.69626861     0.07588791
h     0.36291970     0.80375134     0.57587520
h     0.63708035     0.19624865     0.42412477
h     0.64875996     0.33112575     0.73830042
h     0.35124009     0.66887424     0.26169955
h     0.35124462     0.83107518     0.76171007
h     0.64875543     0.16892481     0.23828990
c     0.53159483     0.43103515     0.84665567
c     0.46840522     0.56896485     0.15334430
c     0.46841108     0.93104669     0.65344104
c     0.53158896     0.06895331     0.34655893
h     0.63600865     0.46774934     0.90735599
h     0.36399140     0.53225065     0.09264398
h     0.36400024     0.96775841     0.59275310
h     0.63599981     0.03224158     0.40724687
h     0.44652543     0.43336093     0.91734012
h     0.55347462     0.56663906     0.08265985
h     0.55349361     0.93341929     0.58277170
h     0.44650644     0.06658071     0.41722827
h     0.48108033     0.46712041     0.74025057
h     0.51891971     0.53287958     0.25974940
h     0.51890362     0.96710833     0.75987466
h     0.48109643     0.03289166     0.24012531

K_POINTS automatic
2 2 2 1 1 1

CELL_PARAMETERS cubic
   16.614344000000    -0.001000000000     0.172547000000
   -0.001700000000    28.289602000000     0.000353000000
   -4.323082000000     0.000481000000    16.504473000000
