## FHIaims input file generated by critic2.
lattice_vector 3.6799999949       0.0000000000       0.0000000000       
lattice_vector -1.8400000026      3.1869734844       0.0000000000       
lattice_vector 0.0000000000       0.0000000000       6.3100000000       
atom_frac  0.0000000000       0.0000000000       0.0000000000       Nb
atom_frac  0.3333319200       0.6666659600       0.2618859000       Te
atom_frac  0.6666669800       0.3333334900       0.7381141000       Te
