%nprocs=4
%mem=2GB
#P pbepbe aug-cc-pvtz SCF=(Conver=6) Int=(grid=ultrafine) output=wfx
 
title
 
0 1
C	18.71400 22.19500 2.742000
H	18.37900 21.58700 3.577000
N	18.79700 23.57100 3.209000
H	18.86300 24.28300 2.488000
C	18.84100 23.91000 4.508000
O	18.83700 23.07300 5.410000
C	18.95700 25.38900 4.894000
H	18.06200 25.68500 5.433000
H	19.81900 25.52500 5.542000
H	19.09001 26.05938 4.032084
H	19.70954 21.82087 2.461043
H	17.98479 22.13814 1.920400
C	16.65000 19.51600 5.550000
H	15.85600 19.11800 6.209000
H	17.38100 21.50400 5.804000
N	16.51500 20.96500 5.768000
C	15.41800 21.48800 6.353000
O	14.37000 20.87200 6.467000
C	15.57100 22.84700 6.986000
H	16.50000 23.29500 6.652000
H	14.74390 23.51764 6.710063
H	15.61789 22.72907 8.078654
H	17.63853 19.12101 5.827124
H	16.55212 19.14519 4.519021

HSG-10-dimer.wfx


