%nprocs=4
%mem=2GB
#P pbepbe aug-cc-pvtz SCF=(Conver=6) Int=(grid=ultrafine) output=wfx
 
title
 
0 1
C	5.679000 20.88000 0.749000
H	6.221000 21.83800 0.688000
H	4.631000 21.09600 0.905000
C	6.254000 19.97400 1.854000
H	6.621000 20.53900 2.695000
H	5.514000 19.25100 2.203000
H	7.080433 19.44257 1.359442
H	5.830258 20.31081 -0.1800558

HSG-17-monoA-unCP.wfx


