%nprocs=4
%mem=2GB
#P pbepbe aug-cc-pvtz SCF=(Conver=6) Int=(grid=ultrafine) output=wfx
 
title
 
0 1
C	16.05600 13.91300 3.701000
H	16.15900 14.95600 4.033000
C	17.23700 13.52900 2.786000
H	17.24200 14.19600 1.903000
H	18.17200 13.64500 3.338000
H	17.11900 12.49000 2.453000
C	14.73500 13.74900 2.932000
H	14.59700 12.70200 2.661000
H	13.89800 14.05900 3.553000
C	14.73600 14.57900 1.670000
H	13.78900 14.41800 1.168000
H	14.86200 15.62400 1.955000
H	15.57300 14.24500 1.050000
H	16.03595 13.25839 4.584791
C	16.51300 18.99700 4.107000
C	17.41000 17.97200 3.810000
C	17.48600 17.37200 2.527000
C	16.60600 17.86100 1.547000
C	15.70300 18.89200 1.854000
C	15.65400 19.47000 3.123000
H	14.96900 20.29200 3.327000
H	15.03200 19.27500 1.092000
H	16.61400 17.45600 0.523000
H	18.19800 16.55200 2.242000
H	18.01270 17.77884 4.709692
H	16.61088 19.36781 5.137980

HSG-13-dimer.wfx


