%nprocs=4
%mem=2GB
#P pbepbe aug-cc-pvtz SCF=(Conver=6) Int=(grid=ultrafine) output=wfx
 
title
 
0 1
C	13.03200 29.07900 6.986000
H	12.30800 29.25100 7.790000
H	13.47200 28.08100 7.080000
H	13.82700 29.84100 7.035000
H	12.50772 29.16746 6.023030
C	10.60200 24.81800 6.466000
O	10.95600 23.84000 7.103000
N	10.17800 25.94300 7.070000
C	10.09100 26.25600 8.476000
C	9.372000 27.59000 8.640000
C	11.44600 26.35600 9.091000
C	9.333000 25.25000 9.282000
H	9.874000 26.68900 6.497000
H	9.908000 28.37100 8.093000
H	8.364000 27.46400 8.233000
H	9.317000 27.84600 9.706000
H	9.807000 24.28200 9.160000
H	9.371000 25.57400 10.32900
H	8.328000 25.26700 8.900000
H	11.28800 26.57600 10.14400
H	11.97000 27.14900 8.585000
H	11.93200 25.39300 8.957000
H	10.61998 24.85900 5.366911

HSG-1-dimer.wfx


