%nprocs=4
%mem=2GB
#P pbepbe aug-cc-pvtz SCF=(Conver=6) Int=(grid=ultrafine) output=wfx
 
title
 
0 1
C	13.03200 29.07900 6.986000
H	12.30800 29.25100 7.790000
H	13.47200 28.08100 7.080000
H	13.82700 29.84100 7.035000
H	12.50772 29.16746 6.023030

HSG-1-monoA-unCP.wfx


