%nprocs=4
%mem=2GB
#P pbepbe aug-cc-pvtz SCF=(Conver=6) Int=(grid=ultrafine) output=wfx
 
title
 
0 1
C	6.715000 23.76400 2.930000
C	6.218000 24.82200 2.171000
N	4.990000 25.38300 2.391000
C	4.226000 24.84700 3.389000
C	4.663000 23.78000 4.166000
C	5.918000 23.22600 3.934000
C	8.039000 23.09500 2.603000
H	8.026000 22.11200 3.087000
H	8.096000 22.92700 1.519000
H	6.274000 22.37100 4.504000
H	4.018000 23.38100 4.943000
H	3.211000 25.24700 3.575000
H	6.798000 25.19700 1.318000
H	8.936083 23.65540 2.904981

HSG-17-monoB-unCP.wfx


