&control
 title='crystal',
 prefix='crystal',
 pseudo_dir='.',
 calculation='vc-relax',
/
&system
 ibrav=0,
 celldm(1)=1.0,
 nat=    50,
 ntyp=  4,
 ecutwfc=60.0,
 ecutrho=600.0,
 xdm=.true.,
 xdm_a1=0.4073,
 xdm_a2=2.4150,
/
&electrons
 conv_thr = 1d-8,
/
&ions
/
&cell
/
ATOMIC_SPECIES
h      1.007940 h.UPF
c     12.010700 c.UPF
n     14.006700 n.UPF
o     15.999400 o.UPF

ATOMIC_POSITIONS crystal
o     0.34609596     0.05753124     0.30853656
o     0.65390402     0.55753124     0.69146341
o     0.99379339     0.48790231     0.09105415
o     0.00620659     0.98790231     0.90894582
o     0.41829996     0.57784978     0.43032353
o     0.58170002     0.07784978     0.56967645
o     0.58545986     0.51157580     0.31113962
o     0.41454012     0.01157580     0.68886035
n     0.19835763     0.74385171     0.19374996
n     0.80164235     0.24385171     0.80625002
c     0.22203159     0.95024534     0.26841898
c     0.77796840     0.45024534     0.73158100
c     0.07521786     0.00614165     0.28917248
c     0.92478212     0.50614165     0.71082750
c     0.03892519     0.18729543     0.36239557
c     0.96107480     0.68729543     0.63760441
c     0.88935557     0.19076091     0.36854269
c     0.11064442     0.69076091     0.63145728
c     0.78261880     0.01594068     0.30475997
c     0.21738119     0.51594068     0.69524001
c     0.82048354     0.83248605     0.23116099
c     0.17951644     0.33248605     0.76883899
c     0.96781262     0.83241921     0.22395925
c     0.03218737     0.33241921     0.77604073
c     0.04462588     0.66384142     0.15895256
c     0.95537411     0.16384142     0.84104742
c     0.31974619     0.61919912     0.16356271
c     0.68025380     0.11919912     0.83643727
c     0.45643657     0.56387497     0.30919821
c     0.54356342     0.06387497     0.69080177
c     0.37368014     0.74295752     0.05142038
c     0.62631984     0.24295752     0.94857959
h     0.12384231     0.32028103     0.41346374
h     0.87615767     0.82028103     0.58653624
h     0.51375257     0.55661794     0.52262557
h     0.48624741     0.05661794     0.47737441
h     0.85397334     0.33161055     0.42203945
h     0.14602664     0.83161055     0.57796053
h     0.66791898     0.02376259     0.31261076
h     0.33208101     0.52376259     0.68738922
h     0.73824649     0.69453144     0.18485018
h     0.26175350     0.19453144     0.81514979
h     0.26639849     0.45524101     0.11651399
h     0.73360150     0.95524101     0.88348599
h     0.27295549     0.77880482     0.94988045
h     0.72704449     0.27880482     0.05011953
h     0.45640647     0.63672221     0.02350922
h     0.54359351     0.13672221     0.97649075
h     0.43039268     0.90373533     0.09850347
h     0.56960731     0.40373533     0.90149650

K_POINTS automatic
2 2 2 1 1 1

CELL_PARAMETERS cubic
   17.416834000000     0.000000000000    -0.077805000000
    0.000000000000    11.111608000000     0.000000000000
   -6.618720000000     0.000000000000    16.943707000000
