&control
 title='crystal',
 prefix='crystal',
 pseudo_dir='.',
 calculation='vc-relax',
/
&system
 ibrav=0,
 celldm(1)=1.0,
 nat=    52,
 ntyp=  3,
 ecutwfc=60.0,
 ecutrho=600.0,
 xdm=.true.,
 xdm_a1=0.4073,
 xdm_a2=2.4150,
/
&electrons
 conv_thr = 1d-8,
/
&ions
/
&cell
/
ATOMIC_SPECIES
h      1.007940 h.UPF
c     12.010700 c.UPF
o     15.999400 o.UPF

ATOMIC_POSITIONS crystal
h     0.28435139     0.26323047     0.67292395
h     0.71564861     0.73676953     0.32707599
h     0.78435326     0.23676205     0.17291786
h     0.21564674     0.76323796     0.82708208
c     0.12553028     0.18987250     0.70855663
c     0.87446972     0.81012750     0.29144332
c     0.62553216     0.31012002     0.20855054
c     0.37446784     0.68987998     0.79144940
h     0.11066244     0.04466177     0.67551919
h     0.88933756     0.95533823     0.32448076
h     0.61066432     0.45533075     0.17551310
h     0.38933568     0.54466926     0.82448684
c     0.87447180     0.31011926     0.70855682
c     0.12552820     0.68988074     0.29144312
c     0.37447367     0.18987326     0.20855074
c     0.62552633     0.81012675     0.79144920
c     0.11330802     0.19662335     0.82579486
c     0.88669198     0.80337665     0.17420509
c     0.61330989     0.30336917     0.32578877
c     0.38669011     0.69663084     0.67421117
h     0.88933494     0.45533139     0.67551760
h     0.11066506     0.54466861     0.32448234
h     0.38933681     0.04466113     0.17551152
h     0.61066319     0.95533888     0.82448843
c     0.88669427     0.30335987     0.82578495
c     0.11330573     0.69664013     0.17421500
c     0.38669615     0.19663265     0.32577886
c     0.61330385     0.80336736     0.67422108
h     0.71564936     0.23677207     0.67291759
h     0.28435064     0.76322793     0.32708235
h     0.21565123     0.26322045     0.17291151
h     0.78434877     0.73677956     0.82708844
c     0.17895997     0.16518103     0.92553599
c     0.82104003     0.83481897     0.07446395
c     0.67896184     0.33481149     0.42552991
c     0.32103816     0.66518851     0.57447004
c     0.82102992     0.33481115     0.92554416
c     0.17897008     0.66518885     0.07445578
c     0.32103180     0.16518137     0.42553808
c     0.67896820     0.83481864     0.57446187
o     0.00000375     0.24999367     0.98807729
o     0.99999625     0.75000633     0.01192265
o     0.50000562     0.24999885     0.48807121
o     0.49999438     0.75000116     0.51192874
h     0.32547494     0.09119326     0.96681353
h     0.67452506     0.90880674     0.03318641
h     0.82547681     0.40879926     0.46680745
h     0.17452319     0.59120074     0.53319249
h     0.67453737     0.40879573     0.96681128
h     0.32546263     0.59120427     0.03318866
h     0.17453924     0.09119679     0.46680519
h     0.82546076     0.90880322     0.53319475

K_POINTS automatic
2 2 2 1 1 1

CELL_PARAMETERS cubic
   10.149387000000     0.000001000000    -0.000080000000
    0.000001000000    13.087489000000     0.000043000000
    0.000057000000     0.000077000000    24.490080000000
