&control
 title='crystal',
 prefix='crystal',
 pseudo_dir='.',
 calculation='vc-relax',
/
&system
 ibrav=0,
 celldm(1)=1.0,
 nat=    26,
 ntyp=  3,
 ecutwfc=60.0,
 ecutrho=600.0,
 xdm=.true.,
 xdm_a1=0.4073,
 xdm_a2=2.4150,
/
&electrons
 conv_thr = 1d-8,
/
&ions
/
&cell
/
ATOMIC_SPECIES
h      1.007940 h.UPF
c     12.010700 c.UPF
o     15.999400 o.UPF

ATOMIC_POSITIONS crystal
h     0.86245539     0.28451370     0.75305376
h     0.13754457     0.78451368     0.24694620
c     0.92830213     0.12051575     0.68184381
c     0.07169784     0.62051573     0.31815615
h     0.86193620     0.09691151     0.53284181
h     0.13806377     0.59691149     0.46715814
c     0.92831475     0.87946015     0.81815152
c     0.07168522     0.37946013     0.18184844
c     0.15316576     0.10825380     0.68832436
c     0.84683421     0.60825378     0.31167559
h     0.86195582     0.90306722     0.96715181
h     0.13804415     0.40306720     0.03284814
c     0.15317507     0.89174386     0.81166937
c     0.84682490     0.39174384     0.18833059
h     0.86247585     0.71544854     0.74695001
h     0.13752412     0.21544852     0.25304994
c     0.34420471     0.17190530     0.65200512
c     0.65579526     0.67190528     0.34799483
c     0.34421683     0.82811135     0.84799849
c     0.65578314     0.32811133     0.15200147
o     0.46442000     0.00000884     0.74999966
o     0.53557997     0.50000882     0.25000030
h     0.42286649     0.31405324     0.56922112
h     0.57713348     0.81405322     0.43077884
h     0.42288284     0.68595642     0.93077748
h     0.57711713     0.18595640     0.06922248

K_POINTS automatic
2 2 2 1 1 1

CELL_PARAMETERS cubic
   12.774019000000     0.000000000000    -0.000068000000
    0.000000000000    10.160965000000     0.000000000000
   -0.000324000000     0.000000000000    12.563888000000
