&control
 title='crystal',
 prefix='crystal',
 pseudo_dir='.',
 calculation='vc-relax',
/
&system
 ibrav=0,
 celldm(1)=1.0,
 nat=   104,
 ntyp=  3,
 ecutwfc=60.0,
 ecutrho=600.0,
 xdm=.true.,
 xdm_a1=0.4073,
 xdm_a2=2.4150,
/
&electrons
 conv_thr = 1d-8,
/
&ions
/
&cell
/
ATOMIC_SPECIES
h      1.007940 h.UPF
c     12.010700 c.UPF
o     15.999400 o.UPF

ATOMIC_POSITIONS crystal
o     0.96559956     0.70125497     0.38198348
o     0.03440040     0.29874504     0.61801650
o     0.46559958     0.79874505     0.61801649
o     0.53440039     0.20125496     0.38198348
o     0.53441701     0.29875183     0.88199776
o     0.46558295     0.70124819     0.11800222
o     0.03441703     0.20124819     0.11800222
o     0.96558294     0.79875182     0.88199776
c     0.84536109     0.61807899     0.33506886
c     0.15463887     0.38192102     0.66493112
c     0.34536111     0.88192103     0.66493112
c     0.65463886     0.11807898     0.33506886
c     0.65466076     0.38192299     0.83507301
c     0.34533920     0.61807702     0.16492697
c     0.15466078     0.11807703     0.16492697
c     0.84533919     0.88192298     0.83507301
h     0.67320867     0.63958620     0.29803638
h     0.32679129     0.36041381     0.70196360
h     0.17320869     0.86041382     0.70196359
h     0.82679128     0.13958620     0.29803639
h     0.82681412     0.36041207     0.79804687
h     0.17318584     0.63958795     0.20195311
h     0.32681414     0.13958796     0.20195310
h     0.67318583     0.86041206     0.79804687
c     0.98314879     0.52841820     0.35043901
c     0.01685117     0.47158181     0.64956097
c     0.48314881     0.97158182     0.64956096
c     0.51685116     0.02841820     0.35043902
c     0.51686629     0.47158317     0.85042946
c     0.48313367     0.52841685     0.14957052
c     0.01686631     0.02841685     0.14957051
c     0.98313366     0.97158316     0.85042946
c     0.06204027     0.41207194     0.34493102
c     0.93795969     0.58792807     0.65506896
c     0.56204029     0.08792808     0.65506896
c     0.43795968     0.91207193     0.34493102
c     0.43796958     0.58793010     0.84490154
c     0.56203037     0.41206991     0.15509843
c     0.93796960     0.91206992     0.15509843
c     0.06203036     0.08793009     0.84490155
h     0.11547583     0.38357477     0.27486047
h     0.88452413     0.61642525     0.72513951
h     0.61547585     0.11642526     0.72513951
h     0.38452412     0.88357476     0.27486047
h     0.38454385     0.61641678     0.77482624
h     0.61545611     0.38358323     0.22517373
h     0.88454387     0.88358324     0.22517373
h     0.11545610     0.11641677     0.77482625
h     0.92781358     0.35567953     0.37626469
h     0.07218638     0.64432049     0.62373529
h     0.42781360     0.14432049     0.62373529
h     0.57218637     0.85567952     0.37626469
h     0.57218547     0.64432652     0.87623076
h     0.42781449     0.35567349     0.12376922
h     0.07218549     0.85567350     0.12376921
h     0.92781448     0.14432651     0.87623077
c     0.29493019     0.44285355     0.41022183
c     0.70506977     0.55714646     0.58977815
c     0.79493021     0.05714647     0.58977815
c     0.20506976     0.94285354     0.41022183
c     0.20506862     0.55715420     0.91019287
c     0.79493134     0.44284581     0.08980711
c     0.70506864     0.94284582     0.08980711
c     0.29493133     0.05715419     0.91019287
h     0.48252678     0.43164886     0.37840977
h     0.51747318     0.56835115     0.62159021
h     0.98252680     0.06835116     0.62159021
h     0.01747317     0.93164885     0.37840977
h     0.01747849     0.56835160     0.87837560
h     0.98252147     0.43164842     0.12162438
h     0.51747851     0.93164842     0.12162437
h     0.48252146     0.06835159     0.87837561
h     0.29328093     0.40553169     0.47974872
h     0.70671903     0.59446833     0.52025126
h     0.79328095     0.09446834     0.52025126
h     0.20671902     0.90553168     0.47974872
h     0.20670796     0.59448452     0.97971339
h     0.79329200     0.40551549     0.02028659
h     0.70670798     0.90551550     0.02028658
h     0.29329199     0.09448451     0.97971339
c     0.19369750     0.55570890     0.40842458
c     0.80630246     0.44429111     0.59157539
c     0.69369752     0.94429112     0.59157539
c     0.30630245     0.05570889     0.40842459
c     0.30631264     0.44429813     0.90841475
c     0.69368732     0.55570188     0.09158523
c     0.80631266     0.05570189     0.09158523
c     0.19368731     0.94429812     0.90841475
c     0.18081441     0.66127293     0.42693057
c     0.81918555     0.33872709     0.57306940
c     0.68081443     0.83872709     0.57306940
c     0.31918554     0.16127292     0.42693058
c     0.31919298     0.33873699     0.92693647
c     0.68080698     0.66126302     0.07306351
c     0.81919300     0.16126303     0.07306351
c     0.18080697     0.83873698     0.92693647
h     0.28853526     0.71899070     0.46672270
h     0.71146470     0.28100931     0.53327728
h     0.78853528     0.78100932     0.53327727
h     0.21146469     0.21899069     0.46672270
h     0.21147377     0.28102393     0.96673390
h     0.78852619     0.71897609     0.03326608
h     0.71147379     0.21897610     0.03326608
h     0.28852618     0.78102392     0.96673390

K_POINTS automatic
2 2 2 1 1 1

CELL_PARAMETERS cubic
    9.936037000000     0.000000000000     0.000000000000
    0.000000000000    23.780062000000     0.000306000000
    0.000000000000     0.000342000000    26.883094000000
