&control
 title='crystal',
 prefix='crystal',
 pseudo_dir='.',
 calculation='vc-relax',
/
&system
 ibrav=0,
 celldm(1)=1.0,
 nat=    26,
 ntyp=  3,
 ecutwfc=60.0,
 ecutrho=600.0,
 xdm=.true.,
 xdm_a1=0.4073,
 xdm_a2=2.4150,
/
&electrons
 conv_thr = 1d-8,
/
&ions
/
&cell
/
ATOMIC_SPECIES
h      1.007940 h.UPF
c     12.010700 c.UPF
o     15.999400 o.UPF

ATOMIC_POSITIONS crystal
o     0.21339828     0.58539148     0.28969579
o     0.78660171     0.41460851     0.71030417
c     0.38628719     0.68744207     0.18959081
c     0.61371280     0.31255792     0.81040916
c     0.93194861     0.73247066     0.36118707
c     0.06805138     0.26752933     0.63881289
h     0.77911323     0.66971087     0.44324000
h     0.22088676     0.33028912     0.55675997
h     0.61047819     0.58696919     0.12604206
h     0.38952180     0.41303079     0.87395790
c     0.93027084     0.92174769     0.30704375
c     0.06972915     0.07825230     0.69295621
c     0.21625002     0.89341255     0.19856154
c     0.78374998     0.10658744     0.80143842
c     0.13004283     0.12371224     0.16291820
c     0.86995717     0.87628775     0.83708176
c     0.81251919     0.15551162     0.28571446
c     0.18748080     0.84448837     0.71428550
h     0.16014225     0.15339070     0.01381147
h     0.83985774     0.84660929     0.98618849
h     0.22045068     0.21097261     0.22298357
h     0.77954931     0.78902738     0.77701639
h     0.72331176     0.25766668     0.41851240
h     0.27668823     0.74233331     0.58148756
h     0.66121297     0.20702817     0.20783479
h     0.33878702     0.79297182     0.79216517

K_POINTS automatic
2 2 2 1 1 1

CELL_PARAMETERS cubic
   10.169789000000    -0.009942000000     0.100066000000
    5.084029000000    12.083588000000    -0.342228000000
    4.488879000000    -0.905118000000    13.368046000000
