&control
 title='crystal',
 prefix='crystal',
 pseudo_dir='.',
 calculation='vc-relax',
/
&system
 ibrav=0,
 celldm(1)=1.0,
 nat=    52,
 ntyp=  3,
 ecutwfc=60.0,
 ecutrho=600.0,
 xdm=.true.,
 xdm_a1=0.4073,
 xdm_a2=2.4150,
/
&electrons
 conv_thr = 1d-8,
/
&ions
/
&cell
/
ATOMIC_SPECIES
h      1.007940 h.UPF
c     12.010700 c.UPF
o     15.999400 o.UPF

ATOMIC_POSITIONS crystal
c     0.89777142     0.46937107     0.12071212
c     0.10222859     0.53062894     0.87928788
c     0.89777143     0.03062894     0.62071212
c     0.10222858     0.96937106     0.37928788
c     0.68711490     0.74031493     0.00661461
c     0.31288511     0.25968508     0.99338539
c     0.68711490     0.75968508     0.50661461
c     0.31288511     0.24031492     0.49338539
c     0.82402567     0.63118248     0.01939220
c     0.17597434     0.36881753     0.98060780
c     0.82402568     0.86881753     0.51939220
c     0.17597433     0.13118247     0.48060780
c     0.68068586     0.64322398     0.10033878
c     0.31931415     0.35677603     0.89966122
c     0.68068586     0.85677603     0.60033878
c     0.31931415     0.14322397     0.39966122
o     0.81055394     0.47692241     0.17199381
o     0.18944607     0.52307760     0.82800619
o     0.81055394     0.02307760     0.67199381
o     0.18944607     0.97692240     0.32800619
c     0.63850962     0.89453018     0.89064110
c     0.36149039     0.10546983     0.10935890
c     0.63850962     0.60546983     0.39064110
c     0.36149039     0.39453017     0.60935890
c     0.79069879     0.77220326     0.90433886
c     0.20930122     0.22779675     0.09566114
c     0.79069880     0.72779675     0.40433886
c     0.20930121     0.27220325     0.59566114
h     0.00127760     0.34046525     0.16932463
h     0.99872241     0.65953476     0.83067537
h     0.00127760     0.15953476     0.66932463
h     0.99872241     0.84046524     0.33067537
h     0.60343072     0.66238983     0.13138994
h     0.39656929     0.33761018     0.86861006
h     0.60343073     0.83761018     0.63138994
h     0.39656928     0.16238982     0.36861006
h     0.62532311     0.16708199     0.88733723
h     0.37467690     0.83291802     0.11266277
h     0.62532312     0.33291802     0.38733723
h     0.37467689     0.66708198     0.61266277
h     0.54064939     0.78170024     0.81950040
h     0.45935062     0.21829977     0.18049960
h     0.54064940     0.71829977     0.31950040
h     0.45935061     0.28170023     0.68049960
h     0.86302767     0.97463268     0.90681946
h     0.13697234     0.02536733     0.09318054
h     0.86302768     0.52536733     0.40681946
h     0.13697233     0.47463267     0.59318054
h     0.78101448     0.58617975     0.84117301
h     0.21898553     0.41382026     0.15882699
h     0.78101449     0.91382026     0.34117301
h     0.21898552     0.08617974     0.65882699

K_POINTS automatic
2 2 2 1 1 1

CELL_PARAMETERS cubic
   19.733613000000     0.000000000000     0.893974000000
    0.000000000000     7.542716000000     0.000000000000
  -13.549168000000     0.000000000000    21.611126000000
