&control
 title='crystal',
 prefix='crystal',
 pseudo_dir='.',
 calculation='vc-relax',
/
&system
 ibrav=0,
 celldm(1)=1.0,
 nat=    52,
 ntyp=  3,
 ecutwfc=60.0,
 ecutrho=600.0,
 xdm=.true.,
 xdm_a1=0.4073,
 xdm_a2=2.4150,
/
&electrons
 conv_thr = 1d-8,
/
&ions
/
&cell
/
ATOMIC_SPECIES
h      1.007940 h.UPF
c     12.010700 c.UPF
o     15.999400 o.UPF

ATOMIC_POSITIONS crystal
h     0.18533779     0.19436783     0.43738658
h     0.81466220     0.80563218     0.93738661
h     0.31464963     0.69436700     0.93740547
h     0.68535036     0.30563301     0.43740550
c     0.23798340     0.16686205     0.25930754
c     0.76201659     0.83313796     0.75930757
c     0.26201656     0.66685722     0.75930549
c     0.73798342     0.33314279     0.25930552
c     0.23025335     0.07578749     0.11691145
c     0.76974663     0.92421252     0.61691148
c     0.26976119     0.57579407     0.61692339
c     0.73023880     0.42420593     0.11692342
c     0.18802574     0.95953560     0.04453131
c     0.81197425     0.04046441     0.54453134
c     0.31199863     0.45953429     0.54453518
c     0.68800136     0.54046572     0.04453521
c     0.33446802     0.09352222     0.89701496
c     0.66553196     0.90647779     0.39701499
c     0.16555797     0.59352138     0.39701175
c     0.83444202     0.40647863     0.89701178
c     0.30574792     0.97874585     0.80177965
c     0.69425206     0.02125416     0.30177968
c     0.19428293     0.47874687     0.30177447
c     0.80571705     0.52125314     0.80177450
c     0.40266230     0.19513551     0.91121119
c     0.59733769     0.80486450     0.41121122
c     0.09735387     0.69513690     0.41120153
c     0.90264611     0.30486310     0.91120156
h     0.49081302     0.24582537     0.80191196
h     0.50918697     0.75417464     0.30191199
h     0.00920733     0.74582460     0.30189640
h     0.99079266     0.25417541     0.80189643
o     0.34307414     0.24159696     0.13403462
o     0.65692584     0.75840305     0.63403465
o     0.15692756     0.74159541     0.63403530
o     0.84307242     0.25840460     0.13403533
h     0.23929705     0.89787612     0.17382656
h     0.76070293     0.10212388     0.67382659
h     0.26073120     0.39787482     0.67382312
h     0.73926879     0.60212518     0.17382315
h     0.04786756     0.94240020     0.00579638
h     0.95213243     0.05759981     0.50579641
h     0.45215908     0.44240652     0.50580812
h     0.54784091     0.55759349     0.00580815
h     0.23523801     0.97051082     0.62260051
h     0.76476198     0.02948919     0.12260054
h     0.26479464     0.47050865     0.12259940
h     0.73520534     0.52949136     0.62259943
h     0.42643891     0.92939577     0.79367605
h     0.57356107     0.07060424     0.29367608
h     0.07359188     0.42939786     0.29367229
h     0.92640811     0.57060215     0.79367232

K_POINTS automatic
2 2 2 1 1 1

CELL_PARAMETERS cubic
   14.211291000000     0.000056000000     0.000000000000
    0.000061000000    23.361920000000     0.000000000000
    0.000000000000     0.000000000000    10.038730000000
