&control
 title='crystal',
 prefix='crystal',
 pseudo_dir='.',
 calculation='vc-relax',
/
&system
 ibrav=0,
 celldm(1)=1.0,
 nat=    52,
 ntyp=  3,
 ecutwfc=60.0,
 ecutrho=600.0,
 xdm=.true.,
 xdm_a1=0.4073,
 xdm_a2=2.4150,
/
&electrons
 conv_thr = 1d-8,
/
&ions
/
&cell
/
ATOMIC_SPECIES
h      1.007940 h.UPF
c     12.010700 c.UPF
o     15.999400 o.UPF

ATOMIC_POSITIONS crystal
h     0.21407619     0.42325492     0.16789814
h     0.71408388     0.92325558     0.16788999
h     0.21408440     0.57676684     0.66792510
h     0.71409210     0.07676750     0.66791695
c     0.11742111     0.38132329     0.09128399
c     0.61742880     0.88132395     0.09127584
c     0.11742889     0.61868879     0.59130147
c     0.61743659     0.11868945     0.59129332
c     0.07330342     0.27990455     0.05789619
c     0.57331111     0.77990521     0.05788804
c     0.07329402     0.72010297     0.55789868
c     0.57330171     0.22010363     0.55789053
c     0.07954122     0.16063803     0.06583778
c     0.57954892     0.66063870     0.06582963
c     0.07951299     0.83936929     0.56581816
c     0.57952069     0.33936995     0.56581001
c     0.92665687     0.27987768     0.94210104
c     0.42666456     0.77987834     0.94209288
c     0.92665068     0.72011456     0.44210100
c     0.42665837     0.22011522     0.44209285
c     0.92024332     0.16059987     0.93439589
c     0.42025101     0.66060053     0.93438774
c     0.92022029     0.83938982     0.43437600
c     0.42022799     0.33939048     0.43436785
c     0.88288087     0.38128997     0.90842849
c     0.38288856     0.88129063     0.90842034
c     0.88287023     0.61869934     0.40845255
c     0.38287792     0.11870000     0.40844440
h     0.78632838     0.42322229     0.83175076
h     0.28633607     0.92322295     0.83174260
h     0.78632527     0.57675276     0.33177978
h     0.28633296     0.07675343     0.33177163
o     0.00023011     0.44527832     0.99978068
o     0.50023781     0.94527898     0.99977253
o     0.00023188     0.55472361     0.49981132
o     0.50023957     0.05472427     0.49980317
h     0.27984292     0.12492163     0.00139054
h     0.77985061     0.62492229     0.00138239
h     0.27981064     0.87508627     0.50135911
h     0.77981833     0.37508693     0.50135095
h     0.96662161     0.12727360     0.20786644
h     0.46662931     0.62727426     0.20785829
h     0.96660877     0.87274067     0.70784019
h     0.46661647     0.37274133     0.70783204
h     0.71989125     0.12492959     0.99891797
h     0.21989894     0.62493025     0.99890982
h     0.71986644     0.87505296     0.49889946
h     0.21987413     0.37505362     0.49889131
h     0.03306770     0.12712009     0.79244716
h     0.53307539     0.62712075     0.79243901
h     0.03303030     0.87286670     0.29242014
h     0.53303799     0.37286736     0.29241199

K_POINTS automatic
2 2 2 1 1 1

CELL_PARAMETERS cubic
   10.286755000000    -0.000115000000     0.537396000000
   -0.000182000000    24.047599000000     0.000138000000
    5.330471000000     0.000029000000    13.561141000000
