&control
 title='crystal',
 prefix='crystal',
 pseudo_dir='.',
 calculation='vc-relax',
/
&system
 ibrav=0,
 celldm(1)=1.0,
 nat=    52,
 ntyp=  3,
 ecutwfc=60.0,
 ecutrho=600.0,
 xdm=.true.,
 xdm_a1=0.4073,
 xdm_a2=2.4150,
/
&electrons
 conv_thr = 1d-8,
/
&ions
/
&cell
/
ATOMIC_SPECIES
h      1.007940 h.UPF
c     12.010700 c.UPF
o     15.999400 o.UPF

ATOMIC_POSITIONS crystal
h     0.29658899     0.47276097     0.89017934
h     0.79658900     0.02723904     0.10982069
h     0.70341102     0.97276098     0.60982070
h     0.20341102     0.52723905     0.39017932
c     0.33303031     0.37392211     0.94272516
c     0.83303032     0.12607790     0.05727487
c     0.66696970     0.87392212     0.55727488
c     0.16696969     0.62607791     0.44272514
c     0.42284401     0.32896905     0.07815354
c     0.92284402     0.17103097     0.92184649
c     0.57715600     0.82896906     0.42184650
c     0.07715599     0.67103098     0.57815352
c     0.52876842     0.33522638     0.23904275
c     0.02876843     0.16477363     0.76095728
c     0.47123159     0.83522639     0.26095729
c     0.97123158     0.66477364     0.73904273
c     0.42280231     0.18101308     0.06712656
c     0.92280232     0.31898693     0.93287347
c     0.57719770     0.68101309     0.43287348
c     0.07719769     0.81898695     0.56712655
c     0.52877141     0.17098305     0.22653594
c     0.02877142     0.32901696     0.77346408
c     0.47122860     0.67098306     0.27346410
c     0.97122859     0.82901698     0.72653593
c     0.33290097     0.13961783     0.92536756
c     0.83290098     0.36038218     0.07463246
c     0.66709904     0.63961784     0.57463248
c     0.16709903     0.86038219     0.42536755
h     0.29627646     0.04235150     0.85820793
h     0.79627647     0.45764852     0.14179210
h     0.70372355     0.54235151     0.64179211
h     0.20372355     0.95764853     0.35820791
o     0.27650909     0.25791123     0.84702790
o     0.77650909     0.24208879     0.15297213
o     0.72349093     0.75791124     0.65297214
o     0.22349092     0.74208880     0.34702789
h     0.58838482     0.38490985     0.08462780
h     0.08838483     0.11509016     0.91537223
h     0.41161519     0.88490986     0.41537224
h     0.91161519     0.61509017     0.58462778
h     0.53063970     0.37876482     0.49694514
h     0.03063971     0.12123519     0.50305489
h     0.46936031     0.87876483     0.00305490
h     0.96936030     0.62123521     0.99694513
h     0.53071947     0.12123058     0.47744898
h     0.03071948     0.37876944     0.52255105
h     0.46928054     0.62123059     0.02255106
h     0.96928054     0.87876945     0.97744897
h     0.58846994     0.12562471     0.06492853
h     0.08846995     0.37437530     0.93507149
h     0.41153007     0.62562472     0.43507151
h     0.91153006     0.87437531     0.56492852

K_POINTS automatic
2 2 2 1 1 1

CELL_PARAMETERS cubic
   24.672185000000     0.000000000000     0.000000000000
    0.000000000000    18.164133000000     0.000000000000
    0.000000000000     0.000000000000     7.409927000000
