&control
 title='crystal',
 prefix='crystal',
 pseudo_dir='.',
 calculation='vc-relax',
/
&system
 ibrav=0,
 celldm(1)=1.0,
 nat=    26,
 ntyp=  3,
 ecutwfc=60.0,
 ecutrho=600.0,
 xdm=.true.,
 xdm_a1=0.4073,
 xdm_a2=2.4150,
/
&electrons
 conv_thr = 1d-8,
/
&ions
/
&cell
/
ATOMIC_SPECIES
h      1.007940 h.UPF
c     12.010700 c.UPF
o     15.999400 o.UPF

ATOMIC_POSITIONS crystal
h     0.05053429     0.44362889     0.16876433
h     0.94946567     0.55637111     0.83123570
c     0.83494723     0.36142096     0.23126377
c     0.16505273     0.63857904     0.76873626
c     0.64772157     0.30708418     0.42024834
c     0.35227839     0.69291582     0.57975169
c     0.53230163     0.28545821     0.65377353
c     0.46769833     0.71454179     0.34622650
c     0.38980811     0.19842612     0.39154860
c     0.61019185     0.80157388     0.60845143
c     0.24627599     0.16250138     0.62155572
c     0.75372397     0.83749862     0.37844431
c     0.42516821     0.18961183     0.18568000
c     0.57483175     0.81038817     0.81432002
h     0.30118287     0.12593418     0.08498625
h     0.69881709     0.87406582     0.91501378
o     0.70002095     0.28995430     0.08405225
o     0.29997901     0.71004569     0.91594778
h     0.63236871     0.20740824     0.70469581
h     0.36763125     0.79259176     0.29530422
h     0.51960693     0.41827334     0.75662273
h     0.48039303     0.58172665     0.24337730
h     0.06858798     0.22248203     0.70922000
h     0.93141198     0.77751797     0.29078002
h     0.18661465     0.01320229     0.65044602
h     0.81338532     0.98679771     0.34955401

K_POINTS automatic
2 2 2 1 1 1

CELL_PARAMETERS cubic
   10.083088000000    -0.103571000000     1.276221000000
   -4.247399000000    13.273993000000    -2.325455000000
    3.528623000000     0.309965000000    12.637385000000
