&control
 title='crystal',
 prefix='crystal',
 pseudo_dir='.',
 calculation='vc-relax',
/
&system
 ibrav=0,
 celldm(1)=1.0,
 nat=    26,
 ntyp=  3,
 ecutwfc=60.0,
 ecutrho=600.0,
 xdm=.true.,
 xdm_a1=0.4073,
 xdm_a2=2.4150,
/
&electrons
 conv_thr = 1d-8,
/
&ions
/
&cell
/
ATOMIC_SPECIES
h      1.007940 h.UPF
c     12.010700 c.UPF
o     15.999400 o.UPF

ATOMIC_POSITIONS crystal
o     0.53198638     0.86556662     0.19318094
o     0.46801368     0.36556662     0.80681901
c     0.43414687     0.99377175     0.04316345
c     0.56585319     0.49377175     0.95683650
h     0.51522336     0.00981466     0.86949235
h     0.48477670     0.50981467     0.13050760
c     0.40914242     0.85941334     0.40750062
c     0.59085763     0.35941335     0.59249933
h     0.46844302     0.76175267     0.53699439
h     0.53155703     0.26175268     0.46300556
c     0.25383531     0.06633210     0.16098539
c     0.74616475     0.56633211     0.83901456
c     0.23859298     0.98186518     0.39103082
c     0.76140707     0.48186519     0.60896913
c     0.04488521     0.18334251     0.20528084
c     0.95511485     0.68334252     0.79471911
h     0.87747019     0.17090344     0.07387763
h     0.12252987     0.67090345     0.92612232
h     0.09355870     0.31374477     0.21967163
h     0.90644135     0.81374477     0.78032832
c     0.03199017     0.09157898     0.46425446
c     0.96800989     0.59157898     0.53574550
h     0.85615851     0.02954287     0.48210695
h     0.14384154     0.52954288     0.51789300
h     0.07981694     0.16827100     0.62996599
h     0.92018312     0.66827101     0.37003397

K_POINTS automatic
2 2 2 1 1 1

CELL_PARAMETERS cubic
   10.272979000000     0.000000000000    -0.444596000000
    0.000000000000    15.391137000000     0.000000000000
   -0.646748000000     0.000000000000    10.123024000000
