&control
 title='crystal',
 prefix='crystal',
 pseudo_dir='.',
 calculation='vc-relax',
/
&system
 ibrav=0,
 celldm(1)=1.0,
 nat=   104,
 ntyp=  3,
 ecutwfc=60.0,
 ecutrho=600.0,
 xdm=.true.,
 xdm_a1=0.4073,
 xdm_a2=2.4150,
/
&electrons
 conv_thr = 1d-8,
/
&ions
/
&cell
/
ATOMIC_SPECIES
h      1.007940 h.UPF
c     12.010700 c.UPF
o     15.999400 o.UPF

ATOMIC_POSITIONS crystal
h     0.99397475     0.44740680     0.15864529
h     0.00602526     0.55259321     0.84135474
h     0.49397475     0.05259321     0.84135474
h     0.50602525     0.94740680     0.15864529
h     0.50607379     0.55265262     0.65865862
h     0.49392622     0.44734739     0.34134141
h     0.00607379     0.94734739     0.34134141
h     0.99392622     0.05265262     0.65865862
c     0.09078927     0.41432760     0.12801239
c     0.90921074     0.58567241     0.87198764
c     0.59078927     0.08567242     0.87198764
c     0.40921074     0.91432759     0.12801239
c     0.40924606     0.58568172     0.62801496
c     0.59075395     0.41431829     0.37198507
c     0.90924606     0.91431830     0.37198507
c     0.09075394     0.08568172     0.62801496
c     0.14475169     0.32154362     0.12205183
c     0.85524832     0.67845639     0.87794820
c     0.64475169     0.17845639     0.87794820
c     0.35524831     0.82154362     0.12205183
c     0.35528105     0.67846046     0.62202565
c     0.64471896     0.32153955     0.37797438
c     0.85528105     0.82153956     0.37797438
c     0.14471896     0.17846045     0.62202565
c     0.15067075     0.20837384     0.12510774
c     0.84932926     0.79162617     0.87489229
c     0.65067075     0.29162618     0.87489229
c     0.34932926     0.70837383     0.12510774
c     0.34933794     0.79163360     0.62508842
c     0.65066207     0.20836642     0.37491160
c     0.84933794     0.70836642     0.37491160
c     0.15066207     0.29163359     0.62508842
c     0.28152028     0.33047643     0.06517490
c     0.71847973     0.66952358     0.93482513
c     0.78152028     0.16952359     0.93482513
c     0.21847973     0.83047642     0.06517490
c     0.21850281     0.66951304     0.56522610
c     0.78149720     0.33048697     0.43477393
c     0.71850281     0.83048697     0.43477393
c     0.28149720     0.16951304     0.56522610
c     0.30329651     0.21841560     0.06594557
c     0.69670350     0.78158441     0.93405446
c     0.80329651     0.28158442     0.93405446
c     0.19670350     0.71841560     0.06594557
c     0.19670636     0.78157011     0.56598013
c     0.80329365     0.21842990     0.43401989
c     0.69670636     0.71842990     0.43401989
c     0.30329364     0.28157011     0.56598013
c     0.30686213     0.42850278     0.03654257
c     0.69313788     0.57149723     0.96345746
c     0.80686213     0.07149724     0.96345746
c     0.19313788     0.92850278     0.03654257
c     0.19314711     0.57148843     0.53662270
c     0.80685290     0.42851158     0.46337733
c     0.69314711     0.92851159     0.46337733
c     0.30685289     0.07148843     0.53662270
h     0.38941718     0.47361331     0.98733165
h     0.61058283     0.52638670     0.01266838
h     0.88941718     0.02638671     0.01266838
h     0.11058282     0.97361331     0.98733165
h     0.11056015     0.52640739     0.48742896
h     0.88943986     0.47359262     0.51257107
h     0.61056015     0.97359262     0.51257107
h     0.38943986     0.02640739     0.48742896
o     0.19023366     0.48136729     0.07604590
o     0.80976635     0.51863272     0.92395413
o     0.69023366     0.01863272     0.92395413
o     0.30976634     0.98136729     0.07604590
o     0.30979323     0.51862791     0.57608348
o     0.69020678     0.48137210     0.42391654
o     0.80979323     0.98137210     0.42391654
o     0.19020677     0.01862791     0.57608348
h     0.13445063     0.17241103     0.25650410
h     0.86554938     0.82758898     0.74349593
h     0.63445063     0.32758898     0.74349593
h     0.36554937     0.67241103     0.25650410
h     0.36554823     0.82759931     0.75648102
h     0.63445178     0.17240070     0.24351901
h     0.86554823     0.67240071     0.24351901
h     0.13445178     0.32759931     0.75648102
h     0.08713920     0.17272051     0.02228429
h     0.91286081     0.82727950     0.97771574
h     0.58713920     0.32727950     0.97771574
h     0.41286081     0.67272051     0.02228429
h     0.41283918     0.82725939     0.52221104
h     0.58716084     0.17274062     0.47778899
h     0.91283918     0.67274062     0.47778899
h     0.08716083     0.32725939     0.52221104
h     0.32625968     0.18485094     0.93442664
h     0.67374033     0.81514907     0.06557339
h     0.82625968     0.31514907     0.06557339
h     0.17374032     0.68485094     0.93442664
h     0.17374523     0.81514205     0.43447861
h     0.82625478     0.18485796     0.56552142
h     0.67374523     0.68485797     0.56552142
h     0.32625477     0.31514204     0.43447861
h     0.37575431     0.19085377     0.16598196
h     0.62424570     0.80914624     0.83401807
h     0.87575431     0.30914625     0.83401807
h     0.12424570     0.69085376     0.16598196
h     0.12429613     0.80914179     0.66606712
h     0.87570388     0.19085822     0.33393290
h     0.62429613     0.69085822     0.33393290
h     0.37570387     0.30914179     0.66606712

K_POINTS automatic
2 2 2 1 1 1

CELL_PARAMETERS cubic
   18.740744000000     0.000000000000     0.000000000000
    0.000000000000    25.404802000000    -0.000363000000
    0.000000000000    -0.000186000000    13.938391000000
