&control
 title='crystal',
 prefix='crystal',
 pseudo_dir='.',
 calculation='vc-relax',
/
&system
 ibrav=0,
 celldm(1)=1.0,
 nat=    26,
 ntyp=  3,
 ecutwfc=60.0,
 ecutrho=600.0,
 xdm=.true.,
 xdm_a1=0.4073,
 xdm_a2=2.4150,
/
&electrons
 conv_thr = 1d-8,
/
&ions
/
&cell
/
ATOMIC_SPECIES
h      1.007940 h.UPF
c     12.010700 c.UPF
o     15.999400 o.UPF

ATOMIC_POSITIONS crystal
o     0.01484062     0.14854668     0.71620328
o     0.98515624     0.64856445     0.28378966
c     0.92724742     0.01318174     0.55498689
c     0.07275283     0.51320729     0.44501151
c     0.75559101     0.93643487     0.64790792
c     0.24440581     0.43645321     0.35209198
c     0.73536373     0.02546233     0.87303220
c     0.26462697     0.52547240     0.12695787
c     0.89465500     0.15457729     0.91214528
c     0.10533699     0.65458602     0.08784279
h     0.94901993     0.25608275     0.04981895
h     0.05097267     0.75608796     0.95016686
h     0.00736919     0.99659308     0.39401187
h     0.99263812     0.49662626     0.60599447
c     0.56202244     0.81052254     0.66729021
c     0.43798121     0.31054785     0.33271712
c     0.54105919     0.90905916     0.91919484
c     0.45893978     0.40907491     0.08080633
h     0.40790777     0.81802735     0.51369342
h     0.59209615     0.31806286     0.48631429
h     0.61343869     0.67455707     0.69391736
h     0.38657458     0.17457866     0.30609802
h     0.58301269     0.83028324     0.09130549
h     0.41699593     0.33029074     0.90870089
h     0.37458564     0.97364326     0.91095543
h     0.62540937     0.47366597     0.08904414

K_POINTS automatic
2 2 2 1 1 1

CELL_PARAMETERS cubic
   11.144608000000    -0.000015000000    -0.487044000000
   -0.000028000000    14.623935000000    -0.000083000000
   -1.708251000000    -0.000054000000    10.053610000000
