&control
 title='crystal',
 prefix='crystal',
 pseudo_dir='.',
 calculation='vc-relax',
/
&system
 ibrav=0,
 celldm(1)=1.0,
 nat=    52,
 ntyp=  3,
 ecutwfc=60.0,
 ecutrho=600.0,
 xdm=.true.,
 xdm_a1=0.4073,
 xdm_a2=2.4150,
/
&electrons
 conv_thr = 1d-8,
/
&ions
/
&cell
/
ATOMIC_SPECIES
h      1.007940 h.UPF
c     12.010700 c.UPF
o     15.999400 o.UPF

ATOMIC_POSITIONS crystal
o     0.58477008     0.90467751     0.71078900
o     0.41522991     0.09532249     0.28921098
o     0.58477009     0.59532249     0.21078900
o     0.41522989     0.40467751     0.78921098
c     0.59259903     0.72478524     0.63210283
c     0.40740097     0.27521476     0.36789715
c     0.59259904     0.77521476     0.13210283
c     0.40740095     0.22478524     0.86789715
c     0.71064209     0.80680345     0.59820163
c     0.28935791     0.19319655     0.40179836
c     0.71064210     0.69319655     0.09820163
c     0.28935789     0.30680345     0.90179835
c     0.77831042     0.04342411     0.65663726
c     0.22168957     0.95657589     0.34336272
c     0.77831043     0.45657589     0.15663726
c     0.22168955     0.54342411     0.84336272
c     0.70012491     0.10033196     0.72492481
c     0.29987509     0.89966804     0.27507518
c     0.70012492     0.39966804     0.22492481
c     0.29987506     0.60033196     0.77507517
h     0.70043122     0.25426614     0.78187949
h     0.29956878     0.74573386     0.21812050
h     0.70043123     0.24573386     0.28187949
h     0.29956876     0.75426614     0.71812049
h     0.50860517     0.56228923     0.61537269
h     0.49139482     0.43771077     0.38462729
h     0.50860518     0.93771077     0.11537269
h     0.49139480     0.06228923     0.88462728
c     0.81924013     0.81011089     0.53253517
c     0.18075987     0.18988911     0.46746481
c     0.81924014     0.68988911     0.03253517
c     0.18075985     0.31011089     0.96746481
c     0.89432249     0.07395980     0.59745648
c     0.10567751     0.92604020     0.40254351
c     0.89432250     0.42604020     0.09745648
c     0.10567749     0.57395980     0.90254350
h     0.92532598     0.66614268     0.56508064
h     0.07467402     0.33385732     0.43491934
h     0.92532599     0.83385732     0.06508064
h     0.07467400     0.16614268     0.93491933
h     0.73595183     0.81170529     0.42692380
h     0.26404816     0.18829471     0.57307619
h     0.73595185     0.68829471     0.92692380
h     0.26404814     0.31170529     0.07307618
h     0.85335586     0.22845389     0.52902333
h     0.14664413     0.77154611     0.47097666
h     0.85335587     0.27154611     0.02902333
h     0.14664411     0.72845389     0.97097665
h     0.04316622     0.08371483     0.66649493
h     0.95683378     0.91628517     0.33350505
h     0.04316623     0.41628517     0.16649493
h     0.95683376     0.58371483     0.83350505

K_POINTS automatic
2 2 2 1 1 1

CELL_PARAMETERS cubic
   16.224079000000     0.000000000000    -0.165912000000
    0.000000000000    10.156701000000     0.000000000000
  -12.109091000000     0.000000000000    19.706799000000
