&control
 title='crystal',
 prefix='crystal',
 pseudo_dir='.',
 calculation='vc-relax',
/
&system
 ibrav=0,
 celldm(1)=1.0,
 nat=    26,
 ntyp=  3,
 ecutwfc=60.0,
 ecutrho=600.0,
 xdm=.true.,
 xdm_a1=0.4073,
 xdm_a2=2.4150,
/
&electrons
 conv_thr = 1d-8,
/
&ions
/
&cell
/
ATOMIC_SPECIES
h      1.007940 h.UPF
c     12.010700 c.UPF
o     15.999400 o.UPF

ATOMIC_POSITIONS crystal
o     0.68210588     0.83219310     0.65323556
o     0.31789409     0.16780701     0.34676442
c     0.79401915     0.10071031     0.60575572
c     0.20598082     0.89928980     0.39424426
c     0.99626388     0.12300336     0.69475741
c     0.00373609     0.87699675     0.30524257
c     0.01235859     0.86323098     0.79988619
c     0.98764138     0.13676913     0.20011379
c     0.81964075     0.68805273     0.77267068
c     0.18035922     0.31194738     0.22732930
h     0.75077709     0.47493257     0.81583031
h     0.24922288     0.52506754     0.18416967
h     0.70268942     0.22991836     0.51001406
h     0.29731055     0.77008175     0.48998592
c     0.23085720     0.25274096     0.75240560
c     0.76914277     0.74725915     0.24759438
c     0.24822575     0.96384766     0.87040412
c     0.75177422     0.03615245     0.12959586
h     0.35338641     0.33932164     0.64606184
h     0.64661356     0.66067847     0.35393814
h     0.23655777     0.39763178     0.82731449
h     0.76344220     0.60236833     0.17268549
h     0.26039681     0.94435420     0.01295983
h     0.73960316     0.05564591     0.98704015
h     0.38222036     0.88704664     0.83320416
h     0.61777961     0.11295347     0.16679581

K_POINTS automatic
2 2 2 1 1 1

CELL_PARAMETERS cubic
   11.514825000000     0.069388000000     0.145653000000
   -2.525910000000     9.814920000000     0.088763000000
   -1.592807000000     3.877657000000    14.289817000000
