&control
 title='crystal',
 prefix='crystal',
 pseudo_dir='.',
 calculation='vc-relax',
/
&system
 ibrav=0,
 celldm(1)=1.0,
 nat=    26,
 ntyp=  3,
 ecutwfc=60.0,
 ecutrho=600.0,
 xdm=.true.,
 xdm_a1=0.4073,
 xdm_a2=2.4150,
/
&electrons
 conv_thr = 1d-8,
/
&ions
/
&cell
/
ATOMIC_SPECIES
h      1.007940 h.UPF
c     12.010700 c.UPF
o     15.999400 o.UPF

ATOMIC_POSITIONS crystal
o     0.28996735     0.16149599     0.98364501
o     0.71002647     0.66150113     0.01635729
c     0.44894143     0.02683826     0.07233001
c     0.55106103     0.52684237     0.92767864
c     0.35230969     0.95028955     0.24493091
c     0.64768458     0.45029873     0.75505898
c     0.12693977     0.03868892     0.26454938
c     0.87303804     0.53870580     0.73542780
c     0.09150257     0.16725307     0.10397979
c     0.90847359     0.66725802     0.89600216
c     0.32924289     0.82529761     0.44050795
c     0.67077560     0.32529087     0.55950746
c     0.07668362     0.92282369     0.46030452
c     0.92330401     0.42283114     0.53967796
h     0.61160949     0.01061607     0.99219589
h     0.38841354     0.51060944     0.00783282
h     0.30353901     0.69091461     0.38785675
h     0.69653447     0.19091787     0.61220475
h     0.48028538     0.83256718     0.59810924
h     0.51972436     0.33252132     0.40190827
h     0.90478855     0.84517721     0.41569255
h     0.09522105     0.34519774     0.58428760
h     0.08197040     0.98603173     0.62963667
h     0.91798401     0.48603012     0.37033352
h     0.95543337     0.26836923     0.04908838
h     0.04454436     0.76837205     0.95089530

K_POINTS automatic
2 2 2 1 1 1

CELL_PARAMETERS cubic
   10.180142000000     0.000145000000    -0.552186000000
    0.000237000000    14.788523000000     0.000020000000
   -1.639231000000    -0.000009000000    10.837877000000
