&control
 title='crystal',
 prefix='crystal',
 pseudo_dir='.',
 calculation='vc-relax',
/
&system
 ibrav=0,
 celldm(1)=1.0,
 nat=    52,
 ntyp=  3,
 ecutwfc=60.0,
 ecutrho=600.0,
 xdm=.true.,
 xdm_a1=0.4073,
 xdm_a2=2.4150,
/
&electrons
 conv_thr = 1d-8,
/
&ions
/
&cell
/
ATOMIC_SPECIES
h      1.007940 h.UPF
c     12.010700 c.UPF
o     15.999400 o.UPF

ATOMIC_POSITIONS crystal
o     0.37154618     0.48846385     0.34564773
o     0.12846763     0.51154722     0.84563877
o     0.87154218     0.01151401     0.65433698
o     0.62845056     0.98850178     0.15432565
c     0.36771910     0.50694606     0.49417551
c     0.13226709     0.49307512     0.99416816
c     0.86773575     0.99306704     0.50580660
c     0.63226456     0.00693150     0.00579575
c     0.36873076     0.33592820     0.55249781
c     0.13126495     0.66406028     0.05248650
c     0.86873735     0.16404680     0.44750500
c     0.63126822     0.83593839     0.94750124
c     0.37385373     0.20698952     0.43782282
c     0.12617066     0.79302116     0.93783110
c     0.87382103     0.29299671     0.56218079
c     0.62615653     0.70700665     0.06218015
c     0.37569939     0.30234207     0.31279360
c     0.12432856     0.69767283     0.81278331
c     0.87566725     0.19763795     0.68721026
c     0.62430820     0.80238406     0.18720034
c     0.36950146     0.18652256     0.66642425
c     0.13048432     0.81347037     0.16643045
c     0.86951336     0.31348451     0.33357099
c     0.63050207     0.68649784     0.83358024
c     0.37444554     0.04285601     0.53848720
c     0.12556540     0.95714593     0.03849723
c     0.87443085     0.45714753     0.46152227
c     0.62555895     0.54285244     0.96153439
h     0.36489582     0.64750337     0.53177944
h     0.13509322     0.35249330     0.03176962
h     0.86492291     0.85248851     0.46818422
h     0.63509136     0.14750738     0.96816590
h     0.24678531     0.18030997     0.73279195
h     0.25316951     0.81967379     0.23282287
h     0.74683116     0.31968605     0.26718609
h     0.75321509     0.68028799     0.76721634
h     0.49060221     0.18414600     0.73492449
h     0.00935300     0.81583791     0.23490399
h     0.99064344     0.31588264     0.26510221
h     0.50939898     0.68409416     0.76507811
h     0.25307154     0.95558706     0.53097676
h     0.24696189     0.04440094     0.03100605
h     0.75303038     0.54437892     0.46902569
h     0.74694107     0.45560788     0.96906612
h     0.49791102     0.95830030     0.53476338
h     0.00212027     0.04170912     0.03475658
h     0.99787710     0.54171574     0.46527594
h     0.50209048     0.45829475     0.96527354
h     0.38341507     0.27102906     0.19969293
h     0.11660862     0.72899896     0.69969487
h     0.88338697     0.22892432     0.80030348
h     0.61658294     0.77109490     0.30030307

K_POINTS automatic
2 2 2 1 1 1

CELL_PARAMETERS cubic
   13.874060000000    -0.000440000000    -0.000564000000
   -0.000469000000    13.744078000000    -0.000022000000
   -0.000679000000     0.000029000000    17.613664000000
