&control
 title='crystal',
 prefix='crystal',
 pseudo_dir='.',
 calculation='vc-relax',
/
&system
 ibrav=0,
 celldm(1)=1.0,
 nat=   104,
 ntyp=  3,
 ecutwfc=60.0,
 ecutrho=600.0,
 xdm=.true.,
 xdm_a1=0.4073,
 xdm_a2=2.4150,
/
&electrons
 conv_thr = 1d-8,
/
&ions
/
&cell
/
ATOMIC_SPECIES
h      1.007940 h.UPF
c     12.010700 c.UPF
o     15.999400 o.UPF

ATOMIC_POSITIONS crystal
o     0.29162919     0.25875465     0.24325138
o     0.79162887     0.75875495     0.24325122
o     0.29162917     0.74124521     0.74325106
o     0.79162884     0.24124551     0.74325090
o     0.70837080     0.74124535     0.75674867
o     0.20837048     0.24124565     0.75674851
o     0.70837077     0.25875435     0.25674836
o     0.20837045     0.75875464     0.25674820
c     0.33271000     0.17343358     0.33180314
c     0.83270968     0.67343388     0.33180298
c     0.33270998     0.82656627     0.83180282
c     0.83270965     0.32656656     0.83180266
c     0.66728998     0.82656642     0.66819692
c     0.16728966     0.32656672     0.66819676
c     0.66728996     0.17343330     0.16819661
c     0.16728963     0.67343359     0.16819645
h     0.32027623     0.10664406     0.51683406
h     0.82027591     0.60664435     0.51683390
h     0.32027621     0.89335580     0.01683375
h     0.82027588     0.39335609     0.01683358
h     0.67972376     0.89335596     0.48316599
h     0.17972344     0.39335625     0.48316583
h     0.67972373     0.10664375     0.98316567
h     0.17972341     0.60664405     0.98316551
c     0.31333144     0.34238866     0.00860962
c     0.81333112     0.84238895     0.00860946
c     0.31333141     0.65761120     0.50860930
c     0.81333109     0.15761150     0.50860914
c     0.68666855     0.65761136     0.99139043
c     0.18666823     0.15761165     0.99139027
c     0.68666852     0.34238835     0.49139011
c     0.18666820     0.84238865     0.49138995
h     0.28473350     0.41291553     0.92127158
h     0.78473318     0.91291583     0.92127142
h     0.28473348     0.58708434     0.42127127
h     0.78473315     0.08708463     0.42127111
h     0.71526649     0.58708448     0.07872847
h     0.21526617     0.08708477     0.07872831
h     0.71526646     0.41291522     0.57872815
h     0.21526614     0.91291552     0.57872799
c     0.37943391     0.20313469     0.15408094
c     0.87943359     0.70313498     0.15408078
c     0.37943388     0.79686514     0.65408062
c     0.87943356     0.29686544     0.65408046
c     0.62056608     0.79686532     0.84591912
c     0.12056576     0.29686561     0.84591896
c     0.62056605     0.20313442     0.34591881
c     0.12056573     0.70313471     0.34591865
c     0.36715849     0.31035255     0.95190185
c     0.86715817     0.81035285     0.95190169
c     0.36715846     0.68964728     0.45190153
c     0.86715814     0.18964758     0.45190137
c     0.63284150     0.68964745     0.04809820
c     0.13284118     0.18964775     0.04809804
c     0.63284148     0.31035228     0.54809788
c     0.13284115     0.81035257     0.54809772
c     0.43894052     0.19018423     0.02074649
c     0.93894020     0.69018452     0.02074633
c     0.43894050     0.80981558     0.52074618
c     0.93894017     0.30981587     0.52074602
c     0.56105947     0.80981578     0.97925357
c     0.06105914     0.30981607     0.97925341
c     0.56105944     0.19018398     0.47925325
c     0.06105912     0.69018428     0.47925309
h     0.45369741     0.05020066     0.96136119
h     0.95369709     0.55020096     0.96136103
h     0.45369738     0.94979914     0.46136088
h     0.95369706     0.44979943     0.46136072
h     0.54630258     0.94979934     0.03863886
h     0.04630226     0.44979964     0.03863870
h     0.54630255     0.05020042     0.53863854
h     0.04630223     0.55020072     0.53863838
h     0.46718173     0.25571060     0.12074190
h     0.96718141     0.75571089     0.12074174
h     0.46718170     0.74428920     0.62074158
h     0.96718138     0.24428949     0.62074142
h     0.53281826     0.74428942     0.87925816
h     0.03281794     0.24428971     0.87925800
h     0.53281823     0.25571035     0.37925784
h     0.03281791     0.75571065     0.37925768
c     0.42496367     0.31177549     0.79782142
c     0.92496335     0.81177578     0.79782126
c     0.42496364     0.68822432     0.29782110
c     0.92496332     0.18822462     0.29782094
c     0.57503632     0.68822452     0.20217864
c     0.07503600     0.18822481     0.20217847
c     0.57503629     0.31177524     0.70217832
c     0.07503597     0.81177553     0.70217816
h     0.43159567     0.24237522     0.61102293
h     0.93159535     0.74237551     0.61102277
h     0.43159565     0.75762459     0.11102262
h     0.93159532     0.25762489     0.11102246
h     0.56840432     0.75762480     0.38897712
h     0.06840400     0.25762509     0.38897696
h     0.56840429     0.24237496     0.88897680
h     0.06840397     0.74237526     0.88897664
h     0.44453958     0.44833246     0.77208805
h     0.94453925     0.94833275     0.77208789
h     0.44453955     0.55166735     0.27208773
h     0.94453923     0.05166764     0.27208757
h     0.55546041     0.55166755     0.22791201
h     0.05546009     0.05166784     0.22791185
h     0.55546039     0.44833222     0.72791170
h     0.05546006     0.94833251     0.72791154

K_POINTS automatic
2 2 2 1 1 1

CELL_PARAMETERS cubic
   48.186681000000    -0.000001000000    -0.242859000000
    0.000000000000    13.595088000000     0.000000000000
    2.379789000000     0.000000000000     9.838153000000
