&control
 title='crystal',
 prefix='crystal',
 pseudo_dir='.',
 calculation='vc-relax',
/
&system
 ibrav=0,
 celldm(1)=1.0,
 nat=    52,
 ntyp=  3,
 ecutwfc=60.0,
 ecutrho=600.0,
 xdm=.true.,
 xdm_a1=0.4073,
 xdm_a2=2.4150,
/
&electrons
 conv_thr = 1d-8,
/
&ions
/
&cell
/
ATOMIC_SPECIES
h      1.007940 h.UPF
c     12.010700 c.UPF
o     15.999400 o.UPF

ATOMIC_POSITIONS crystal
o     0.08042948     0.99082419     0.14214683
o     0.91957053     0.00917578     0.85785314
o     0.08042948     0.50917576     0.64214683
o     0.91957053     0.49082420     0.35785315
c     0.12999575     0.80953083     0.14634552
c     0.87000426     0.19046914     0.85365445
c     0.12999575     0.69046912     0.64634552
c     0.87000426     0.30953084     0.35365446
h     0.07633626     0.66235402     0.30762723
h     0.92366376     0.33764595     0.69237274
h     0.07633626     0.83764593     0.80762723
h     0.92366375     0.16235403     0.19237275
c     0.15832575     0.16987489     0.92978508
c     0.84167426     0.83012508     0.07021489
c     0.15832576     0.33012506     0.42978508
c     0.84167425     0.66987490     0.57021490
h     0.12754025     0.32466130     0.91366407
h     0.87245977     0.67533867     0.08633590
h     0.12754025     0.17533865     0.41366407
h     0.87245976     0.82466131     0.58633591
c     0.23732837     0.87310813     0.93869325
c     0.76267164     0.12689184     0.06130671
c     0.23732838     0.62689182     0.43869325
c     0.76267163     0.37310814     0.56130672
c     0.25529062     0.09910772     0.80139471
c     0.74470939     0.90089225     0.19860525
c     0.25529062     0.40089223     0.30139471
c     0.74470939     0.59910773     0.69860527
c     0.35372362     0.86762790     0.76770892
c     0.64627639     0.13237207     0.23229105
c     0.35372362     0.63237205     0.26770892
c     0.64627639     0.36762791     0.73229106
h     0.40430217     0.70642061     0.62082062
h     0.59569784     0.29357936     0.37917934
h     0.40430217     0.79357934     0.12082062
h     0.59569783     0.20642062     0.87917936
h     0.35992683     0.89117986     0.90297565
h     0.64007318     0.10882011     0.09702431
h     0.35992684     0.60882009     0.40297565
h     0.64007317     0.39117987     0.59702432
c     0.37463638     0.11627410     0.60981699
c     0.62536363     0.88372587     0.39018298
c     0.37463639     0.38372585     0.10981699
c     0.62536362     0.61627411     0.89018299
h     0.43593201     0.09693339     0.37182783
h     0.56406800     0.90306658     0.62817214
h     0.43593202     0.40306656     0.87182783
h     0.56406799     0.59693340     0.12817215
h     0.39516214     0.28107720     0.64951844
h     0.60483787     0.71892277     0.35048152
h     0.39516214     0.21892275     0.14951845
h     0.60483787     0.78107721     0.85048153

K_POINTS automatic
2 2 2 1 1 1

CELL_PARAMETERS cubic
   37.114559000000     0.000000000000    -0.715034000000
    0.000000000000    10.055312000000     0.000000000000
   11.016274000000     0.000000000000     8.364222000000
