&control
 title='crystal',
 prefix='crystal',
 pseudo_dir='.',
 calculation='vc-relax',
/
&system
 ibrav=0,
 celldm(1)=1.0,
 nat=   104,
 ntyp=  3,
 ecutwfc=60.0,
 ecutrho=600.0,
 xdm=.true.,
 xdm_a1=0.4073,
 xdm_a2=2.4150,
/
&electrons
 conv_thr = 1d-8,
/
&ions
/
&cell
/
ATOMIC_SPECIES
h      1.007940 h.UPF
c     12.010700 c.UPF
o     15.999400 o.UPF

ATOMIC_POSITIONS crystal
c     0.29160154     0.94432309     0.59061892
c     0.70839845     0.05567693     0.40938108
c     0.79160095     0.94433218     0.90937903
c     0.29160095     0.55566785     0.09062096
c     0.79160153     0.55567694     0.40938107
c     0.20839846     0.44432308     0.59061893
c     0.70839903     0.44433218     0.90937904
c     0.20839904     0.05566783     0.09062097
c     0.19101257     0.05741550     0.59255545
c     0.80898742     0.94258452     0.40744455
c     0.69101199     0.05742459     0.90744251
c     0.19101199     0.44257544     0.09255749
c     0.69101256     0.44258453     0.40744454
c     0.30898743     0.55741549     0.59255545
c     0.80898799     0.55742458     0.90744251
c     0.30898800     0.94257542     0.09255749
c     0.97857618     0.03004368     0.64964420
c     0.02142381     0.96995634     0.35035580
c     0.47857559     0.03005278     0.85035376
c     0.97857559     0.46994725     0.14964623
c     0.47857617     0.46995635     0.35035580
c     0.52142382     0.53004367     0.64964420
c     0.02142439     0.53005277     0.85035377
c     0.52142440     0.96994724     0.14964624
c     0.05628670     0.91337275     0.65476070
c     0.94371329     0.08662727     0.34523930
c     0.55628612     0.91338184     0.84523725
c     0.05628612     0.58661819     0.15476274
c     0.55628669     0.58662728     0.34523929
c     0.44371330     0.41337274     0.65476071
c     0.94371386     0.41338183     0.84523726
c     0.44371387     0.08661817     0.15476275
c     0.17954235     0.16323421     0.57451799
c     0.82045764     0.83676581     0.42548201
c     0.67954177     0.16324330     0.92547997
c     0.17954177     0.33675673     0.07452003
c     0.67954234     0.33676582     0.42548200
c     0.32045765     0.66323420     0.57451799
c     0.82045821     0.66324330     0.92547997
c     0.32045822     0.83675671     0.07452003
c     0.84105339     0.11993902     0.66494259
c     0.15894660     0.88006099     0.33505741
c     0.34105281     0.11994812     0.83505537
c     0.84105281     0.38005191     0.16494463
c     0.34105338     0.38006101     0.33505740
c     0.65894661     0.61993901     0.66494259
c     0.15894717     0.61994811     0.83505537
c     0.65894718     0.88005190     0.16494463
o     0.96332210     0.20330505     0.61885424
o     0.03667789     0.79669497     0.38114576
o     0.46332151     0.20331414     0.88114372
o     0.96332151     0.29668589     0.11885628
o     0.46332209     0.29669498     0.38114575
o     0.53667790     0.70330504     0.61885424
o     0.03667847     0.70331413     0.88114372
o     0.53667848     0.79668587     0.11885628
h     0.29215359     0.90737186     0.52092589
h     0.70784640     0.09262816     0.47907411
h     0.79215301     0.90738095     0.97907206
h     0.29215301     0.59261908     0.02092793
h     0.79215358     0.59262817     0.47907410
h     0.20784641     0.40737185     0.52092590
h     0.70784697     0.40738094     0.97907207
h     0.20784698     0.09261906     0.02092794
h     0.47818225     0.93274950     0.62323982
h     0.52181774     0.06725051     0.37676018
h     0.97818166     0.93275860     0.87675813
h     0.47818166     0.56724143     0.12324186
h     0.97818224     0.56725053     0.37676017
h     0.02181775     0.43274950     0.62323982
h     0.52181832     0.43275859     0.87675814
h     0.02181833     0.06724142     0.12324187
h     0.92222835     0.85746928     0.62251797
h     0.07777164     0.14253074     0.37748203
h     0.42222777     0.85747837     0.87747998
h     0.92222777     0.64252166     0.12252001
h     0.42222834     0.64253075     0.37748202
h     0.57777165     0.35746927     0.62251798
h     0.07777221     0.35747836     0.87747999
h     0.57777222     0.14252165     0.12252002
h     0.10743900     0.88407908     0.72481674
h     0.89256099     0.11592094     0.27518326
h     0.60743842     0.88408817     0.77518121
h     0.10743842     0.61591186     0.22481878
h     0.60743899     0.61592095     0.27518325
h     0.39256100     0.38407907     0.72481675
h     0.89256156     0.38408817     0.77518122
h     0.39256157     0.11591184     0.22481879
h     0.28896998     0.22108767     0.53542399
h     0.71103001     0.77891235     0.46457601
h     0.78896940     0.22109676     0.96457397
h     0.28896940     0.27890327     0.03542603
h     0.78896997     0.27891236     0.46457600
h     0.21103002     0.72108766     0.53542399
h     0.71103058     0.72109675     0.96457397
h     0.21103059     0.77890325     0.03542603
h     0.66801724     0.14156223     0.70144002
h     0.33198275     0.85843779     0.29855998
h     0.16801665     0.14157132     0.79855793
h     0.66801665     0.35842871     0.20144206
h     0.16801723     0.35843780     0.29855997
h     0.83198276     0.64156222     0.70144003
h     0.33198333     0.64157131     0.79855794
h     0.83198334     0.85842870     0.20144207

K_POINTS automatic
2 2 2 1 1 1

CELL_PARAMETERS cubic
    9.928414000000     0.000000000000     0.000000000000
    0.000000000000    23.751765000000    -0.000008000000
    0.000000000000    -0.000001000000    26.887482000000
