&control
 title='crystal',
 prefix='crystal',
 pseudo_dir='.',
 calculation='vc-relax',
/
&system
 ibrav=0,
 celldm(1)=1.0,
 nat=   104,
 ntyp=  3,
 ecutwfc=60.0,
 ecutrho=600.0,
 xdm=.true.,
 xdm_a1=0.4073,
 xdm_a2=2.4150,
/
&electrons
 conv_thr = 1d-8,
/
&ions
/
&cell
/
ATOMIC_SPECIES
h      1.007940 h.UPF
c     12.010700 c.UPF
o     15.999400 o.UPF

ATOMIC_POSITIONS crystal
h     0.91009243     0.02063693     0.21022677
h     0.08990757     0.97936307     0.78977319
h     0.91009062     0.47935960     0.71022225
h     0.41009242     0.02063692     0.28977321
h     0.41009061     0.47935960     0.78977769
h     0.58990939     0.52064040     0.21022227
h     0.58990758     0.97936308     0.71022675
h     0.08990938     0.52064040     0.28977771
h     0.86018799     0.12168075     0.58165786
h     0.13981202     0.87831925     0.41834210
h     0.86018617     0.37831578     0.08165334
h     0.36018798     0.12168075     0.91834212
h     0.36018617     0.37831578     0.41834660
h     0.63981384     0.62168422     0.58165336
h     0.63981202     0.87831925     0.08165784
h     0.13981383     0.62168422     0.91834662
c     0.91570641     0.15426411     0.44723746
c     0.08429360     0.84573589     0.55276250
c     0.91570459     0.34573243     0.94723294
c     0.41570640     0.15426410     0.05276252
c     0.41570458     0.34573242     0.55276700
c     0.58429542     0.65426758     0.44723296
c     0.58429361     0.84573590     0.94723744
c     0.08429541     0.65426757     0.05276702
c     0.94657440     0.09051551     0.21081340
c     0.05342560     0.90948449     0.78918656
c     0.94657259     0.40948103     0.71080888
c     0.44657440     0.09051550     0.28918658
c     0.44657258     0.40948102     0.78919106
c     0.55342742     0.59051898     0.21080890
c     0.55342561     0.90948450     0.71081338
c     0.05342741     0.59051897     0.28919108
c     0.03245102     0.14957408     0.52383117
c     0.96754898     0.85042592     0.47616879
c     0.03244921     0.35042246     0.02382665
c     0.53245101     0.14957407     0.97616881
c     0.53244920     0.35042245     0.47617329
c     0.46755080     0.64957755     0.52382667
c     0.46754899     0.85042593     0.02383115
c     0.96755080     0.64957754     0.97617331
c     0.05978168     0.09292449     0.31029683
c     0.94021833     0.90707551     0.68970313
c     0.05977986     0.40707204     0.81029231
c     0.55978167     0.09292449     0.18970315
c     0.55977985     0.40707204     0.68970763
c     0.44022015     0.59292796     0.31029233
c     0.44021834     0.90707551     0.81029681
c     0.94022014     0.59292796     0.18970765
c     0.16569977     0.07552778     0.32033398
c     0.83430024     0.92447222     0.67966598
c     0.16569795     0.42446875     0.82032947
c     0.66569976     0.07552778     0.17966600
c     0.66569794     0.42446875     0.67967047
c     0.33430206     0.57553125     0.32032949
c     0.33430025     0.92447222     0.82033396
c     0.83430205     0.57553125     0.17967049
c     0.12244629     0.16524440     0.66057023
c     0.87755372     0.83475560     0.33942973
c     0.12244448     0.33475213     0.16056571
c     0.62244628     0.16524440     0.83942975
c     0.62244447     0.33475213     0.33943423
c     0.37755554     0.66524787     0.66056573
c     0.37755372     0.83475560     0.16057021
c     0.87755553     0.66524787     0.83943425
h     0.22360572     0.03707300     0.20944416
h     0.77639429     0.96292700     0.79055580
h     0.22360390     0.46292353     0.70943965
h     0.72360571     0.03707300     0.29055582
h     0.72360389     0.46292353     0.79056029
h     0.27639611     0.53707647     0.20943967
h     0.27639430     0.96292700     0.70944414
h     0.77639610     0.53707647     0.29056031
h     0.14411835     0.20163844     0.83391840
h     0.85588165     0.79836156     0.16608156
h     0.14411654     0.29835810     0.33391388
h     0.64411834     0.20163843     0.66608158
h     0.64411653     0.29835809     0.16608606
h     0.35588347     0.70164191     0.83391390
h     0.35588166     0.79836157     0.33391838
h     0.85588346     0.70164190     0.66608608
o     0.20583848     0.11980243     0.53676404
o     0.79416152     0.88019757     0.46323592
o     0.20583667     0.38019410     0.03675952
o     0.70583848     0.11980243     0.96323594
o     0.70583666     0.38019410     0.46324042
o     0.29416334     0.61980590     0.53675954
o     0.29416153     0.88019757     0.03676402
o     0.79416333     0.61980590     0.96324044
h     0.93441261     0.12324715     0.02439308
h     0.06558739     0.87675285     0.97560687
h     0.93441080     0.37674939     0.52438857
h     0.43441260     0.12324714     0.47560689
h     0.43441079     0.37674938     0.97561137
h     0.56558922     0.62325062     0.02438859
h     0.56558740     0.87675286     0.52439306
h     0.06558921     0.62325061     0.47561139
h     0.88609943     0.22428468     0.39683425
h     0.11390058     0.77571532     0.60316571
h     0.88609761     0.27571186     0.89682973
h     0.38609942     0.22428467     0.10316573
h     0.38609760     0.27571185     0.60317021
h     0.61390240     0.72428815     0.39682975
h     0.61390059     0.77571533     0.89683423
h     0.11390239     0.72428814     0.10317023

K_POINTS automatic
2 2 2 1 1 1

CELL_PARAMETERS cubic
   23.768392000000     0.000011000000     0.000000000000
    0.000000000000    26.889631000000     0.000000000000
    0.000000000000     0.000000000000     9.917491000000
