&control
 title='crystal',
 prefix='crystal',
 pseudo_dir='.',
 calculation='vc-relax',
/
&system
 ibrav=0,
 celldm(1)=1.0,
 nat=    88,
 ntyp=  4,
 ecutwfc=60.0,
 ecutrho=600.0,
 xdm=.true.,
 xdm_a1=0.4073,
 xdm_a2=2.4150,
/
&electrons
 conv_thr = 1d-8,
/
&ions
/
&cell
/
ATOMIC_SPECIES
h      1.007940 h.UPF
c     12.010700 c.UPF
o     15.999400 o.UPF
f     18.998403 f.UPF

ATOMIC_POSITIONS crystal
c     0.73706027     0.51173411     0.54664715
c     0.23706027     0.98826591     0.54664715
c     0.76293974     0.01173410     0.04664715
c     0.26293973     0.48826590     0.04664715
c     0.67533574     0.64524196     0.47903008
c     0.17533573     0.85475806     0.47903008
c     0.82466427     0.14524195     0.97903007
c     0.32466427     0.35475805     0.97903007
c     0.63403262     0.52957769     0.32525207
c     0.13403262     0.97042233     0.32525207
c     0.86596739     0.02957768     0.82525206
c     0.36596738     0.47042232     0.82525206
c     0.56512360     0.64579362     0.29619170
c     0.06512360     0.85420640     0.29619170
c     0.93487640     0.14579361     0.79619169
c     0.43487640     0.35420639     0.79619169
c     0.56000038     0.85926664     0.21042141
c     0.06000038     0.64073338     0.21042141
c     0.93999962     0.35926663     0.71042141
c     0.43999962     0.14073337     0.71042141
c     0.49607417     0.96740436     0.19317502
c     0.99607417     0.53259566     0.19317502
c     0.00392583     0.46740435     0.69317501
c     0.50392583     0.03259565     0.69317501
c     0.43792968     0.85968117     0.26409915
c     0.93792968     0.64031885     0.26409915
c     0.06207032     0.35968116     0.76409915
c     0.56207032     0.14031884     0.76409915
c     0.44077215     0.64725631     0.34790263
c     0.94077214     0.85274371     0.34790263
c     0.05922786     0.14725630     0.84790263
c     0.55922786     0.35274370     0.84790263
c     0.50518287     0.54153037     0.36331812
c     0.00518287     0.95846964     0.36331812
c     0.99481713     0.04153037     0.86331811
c     0.49481713     0.45846963     0.86331811
f     0.37570043     0.96912118     0.25295626
f     0.87570043     0.53087884     0.25295626
f     0.12429957     0.46912117     0.75295625
f     0.62429957     0.03087883     0.75295625
h     0.77167303     0.20259828     0.58922870
h     0.27167302     0.29740174     0.58922870
h     0.72832698     0.70259827     0.08922870
h     0.22832698     0.79740173     0.08922870
h     0.69327479     0.36813005     0.14060890
h     0.19327479     0.13186997     0.14060890
h     0.80672521     0.86813004     0.64060889
h     0.30672521     0.63186996     0.64060889
h     0.64164385     0.66874519     0.59948502
h     0.14164384     0.83125482     0.59948502
h     0.85835616     0.16874518     0.09948501
h     0.35835616     0.33125482     0.09948501
h     0.69167732     0.81689890     0.43721545
h     0.19167731     0.68310111     0.43721545
h     0.80832269     0.31689889     0.93721544
h     0.30832269     0.18310111     0.93721544
h     0.62433627     0.35153066     0.36453094
h     0.12433627     0.14846936     0.36453094
h     0.87566373     0.85153065     0.86453093
h     0.37566373     0.64846935     0.86453093
h     0.60615042     0.94225045     0.15666972
h     0.10615042     0.55774957     0.15666972
h     0.89384958     0.44225044     0.65666971
h     0.39384958     0.05774956     0.65666971
h     0.49131349     0.13321508     0.12717941
h     0.99131349     0.36678494     0.12717941
h     0.00868651     0.63321507     0.62717940
h     0.50868651     0.86678493     0.62717940
h     0.39454614     0.56895175     0.40510868
h     0.89454613     0.93104827     0.40510868
h     0.10545387     0.06895174     0.90510867
h     0.60545387     0.43104826     0.90510867
h     0.50845412     0.37582416     0.43066036
h     0.00845412     0.12417586     0.43066036
h     0.99154588     0.87582415     0.93066035
h     0.49154588     0.62417585     0.93066035
o     0.78824934     0.60256205     0.61861715
o     0.28824933     0.89743797     0.61861715
o     0.71175067     0.10256204     0.11861714
o     0.21175067     0.39743796     0.11861714
o     0.73067714     0.28855436     0.53084858
o     0.23067714     0.21144565     0.53084858
o     0.76932286     0.78855436     0.03084857
o     0.26932286     0.71144564     0.03084857
o     0.67428075     0.52693270     0.15725369
o     0.17428075     0.97306731     0.15725369
o     0.82571926     0.02693269     0.65725368
o     0.32571925     0.47306731     0.65725368

K_POINTS automatic
2 2 2 1 1 1

CELL_PARAMETERS cubic
   36.559509000000     0.000000000000     0.000000000000
    0.000000000000    11.068848000000     0.000000000000
    0.000000000000     0.000000000000    13.735153000000
