&control
 title='14-cyclohexanedione',
 prefix='14-cyclohexanedione',
 pseudo_dir='.',
 calculation='vc-relax',
 etot_conv_thr=1.0D-5,
 forc_conv_thr=1.0D-4,
/
&system
 ibrav = 0,
 celldm(1) = 1.d0,
 nat = 32,
 ntyp = 3,
 ecutwfc=80.0,
 ecutrho=800.0,
 xdm=.true.,
 xdm_a1=0.6512,
 xdm_a2=1.4633,
/
&electrons
 conv_thr = 1d-8,
/
&ions
/
&cell
/
ATOMIC_SPECIES
 c 12.0107 c.UPF
 h 1.00794 h.UPF
 o 15.9994 o.UPF

ATOMIC_POSITIONS crystal
c        0.431293879   0.174429663   0.446835134
c        0.568706121   0.674429663   0.553164866
c        0.518196332   0.175804897   0.253216705
c        0.481803668   0.675804897   0.746783295
c        0.358162225   0.218783415   0.067582913
c        0.641837775   0.718783415   0.932417087
c        0.171609748   0.075823651   0.057772352
c        0.828390252   0.575823651   0.942227648
c        0.101343401   0.028215335   0.255186611
c        0.898656599   0.528215335   0.744813389
c        0.200677614   0.172757735   0.427484688
c        0.799322386   0.672757735   0.572515312
h        0.643968974   0.293222706   0.265605411
h        0.356031026   0.793222706   0.734394589
h        0.587447599   0.015702670   0.242982686
h        0.412552401   0.515702670   0.757017314
h        0.300124478   0.384723849   0.075566631
h        0.699875522   0.884723849   0.924433369
h        0.422644331   0.202524800   0.928770281
h        0.577355669   0.702524800   0.071229719
h        0.140341027   0.858279225   0.289490636
h        0.859658973   0.358279225   0.710509364
h        0.933632449   0.040199294   0.233759250
h        0.066367551   0.540199294   0.766240750
h        0.151038315   0.340563890   0.394554707
h        0.848961685   0.840563890   0.605445293
h        0.155721795   0.127042053   0.570827173
h        0.844278205   0.627042053   0.429172827
o        0.544659793   0.173465758   0.609536375
o        0.455340207   0.673465758   0.390463625
o        0.082854342   0.000061059   0.899912942
o        0.917145658   0.500061059   0.100087058

K_POINTS automatic
4 4 4  1 1 1

CELL_PARAMETERS cubic
  12.461953046   0.000000000   0.083802846
   0.000000000  11.724894905   0.000000000
  -2.119459411   0.000000000  12.617755015
