&control
 title='acetic_acid',
 prefix='acetic_acid',
 pseudo_dir='.',
 calculation='vc-relax',
 etot_conv_thr=1.0D-5,
 forc_conv_thr=1.0D-4,
/
&system
 ibrav = 0,
 celldm(1) = 1.d0,
 nat = 32,
 ntyp = 3,
 ecutwfc=80.0,
 ecutrho=800.0,
 xdm=.true.,
 xdm_a1=0.6512,
 xdm_a2=1.4633,
/
&electrons
 conv_thr = 1d-8,
/
&ions
/
&cell
/
ATOMIC_SPECIES
 c 12.0107 c.UPF
 h 1.00794 h.UPF
 o 15.9994 o.UPF

ATOMIC_POSITIONS crystal
c        0.334658168   0.707059099   0.177133546
c        0.665341832   0.292940901   0.677133546
c        0.834647500   0.792949482   0.177140058
c        0.165352500   0.207050518   0.677140058
c        0.411396701   0.615295183   0.359018047
c        0.588603299   0.384704817   0.859018047
c        0.911394504   0.884700641   0.359012423
c        0.088605496   0.115299359   0.859012423
h        0.317992024   0.959957120   0.887885192
h        0.682007976   0.040042880   0.387885192
h        0.817994876   0.540039839   0.887904072
h        0.182005124   0.459960161   0.387904072
h        0.374199887   0.479476292   0.501128295
h        0.625800113   0.520523708   1.001128295
h        0.874197468   1.020509010   0.501117587
h        0.470625901   0.451095980   0.282481886
h        0.529374099   0.548904020   0.782481886
h        0.970623420   1.048927711   0.282497091
h        0.029376580  -0.048927711   0.782497091
h        0.450110305   0.846747680   0.421572148
h        0.549889695   0.153252320   0.921572148
h        0.950107892   0.653252083   0.421581049
h        0.049892108   0.346747917   0.921581049
h        0.125802532  -0.020509010   1.001117587
o        0.373000726   0.893020065   0.006252474
o        0.626999274   0.106979935   0.506252474
o        0.872997893   0.606983805   0.006270978
o        0.127002107   0.393016195   0.506270978
o        0.243361367   0.618856804   0.180105388
o        0.756638633   0.381143196   0.680105388
o        0.743350307   0.881133964   0.180099763
o        0.256649693   0.118866036   0.680099763

K_POINTS automatic
2 7 5  1 1 1

CELL_PARAMETERS cubic
  24.648953291   0.000323185   0.000000000
  -0.000078217   7.362549331   0.000000000
   0.000000000   0.000000000  10.923011177
