&control
 title='adamantane',
 prefix='adamantane',
 pseudo_dir='.',
 calculation='vc-relax',
 etot_conv_thr=1.0D-5,
 forc_conv_thr=1.0D-4,
/
&system
 ibrav = 0,
 celldm(1) = 1.d0,
 nat = 52,
 ntyp = 2,
 ecutwfc=80.0,
 ecutrho=800.0,
 xdm=.true.,
 xdm_a1=0.6512,
 xdm_a2=1.4633,
/
&electrons
 conv_thr = 1d-8,
/
&ions
/
&cell
/
ATOMIC_SPECIES
 c 12.0107 c.UPF
 h 1.00794 h.UPF

ATOMIC_POSITIONS crystal
c        0.000000000   0.000000000   0.200626732
c        0.000000000   0.000000000   0.799373268
c        0.500000000   0.500000000   0.299372823
c        0.500000000   0.500000000   0.700627177
c        0.971197357   0.187740738   0.100499954
c        0.187740738   0.028802643   0.899500046
c        0.028802643   0.812259262   0.100499954
c        0.812259262   0.971197357   0.899500046
c        0.528804251   0.687740099   0.399500675
c        0.312259901   0.528804251   0.600499325
c        0.471195749   0.312259901   0.399500675
c        0.687740099   0.471195749   0.600499325
c        0.158229217   0.216592940  -0.000519189
c        0.216592940   0.841770783   0.000519189
c        0.841770783   0.783407060  -0.000519189
c        0.783407060   0.158229217   0.000519189
c        0.341772874   0.716594208   0.500519259
c        0.283405792   0.341772874   0.499480741
c        0.658227126   0.283405792   0.500519259
c        0.716594208   0.658227126   0.499480741
h        0.132151977   0.020187109   0.274830789
h        0.020187109   0.867848023   0.725169211
h        0.867848023   0.979812891   0.274830789
h        0.979812891   0.132151977   0.725169211
h        0.367847571   0.520188397   0.225170027
h        0.479811603   0.367847571   0.774829973
h        0.632152429   0.479811603   0.225170027
h        0.520188397   0.632152429   0.774829973
h        0.950825840   0.322343571   0.172375197
h        0.322343571   0.049174160   0.827624803
h        0.049174160   0.677656429   0.172375197
h        0.677656429   0.950825840   0.827624803
h        0.549176971   0.822343236   0.327624783
h        0.177656764   0.549176971   0.672375217
h        0.450823029   0.177656764   0.327624783
h        0.822343236   0.450823029   0.672375217
h        0.293443864   0.241898594   0.069556984
h        0.241898594   0.706556136   0.930443016
h        0.706556136   0.758101406   0.069556984
h        0.758101406   0.293443864   0.930443016
h        0.206558364   0.741900308   0.430443112
h        0.258099692   0.206558364   0.569556888
h        0.793441636   0.258099692   0.430443112
h        0.741900308   0.793441636   0.569556888
h        0.139394107   0.352058705   0.928293455
h        0.352058705   0.860605893   0.071706545
h        0.860605893   0.647941295   0.928293455
h        0.647941295   0.139394107   0.071706545
h        0.360609451   0.852059777   0.571706626
h        0.147940223   0.360609451   0.428293374
h        0.639390549   0.147940223   0.571706626
h        0.852059777   0.639390549   0.428293374

K_POINTS automatic
4 4 3  1 1 1

CELL_PARAMETERS cubic
  12.497490581   0.000000000   0.000000000
   0.000000000  12.497490581   0.000000000
   0.000000000   0.000000000  16.708239276
