&control
 title='ammonia',
 prefix='ammonia',
 pseudo_dir='.',
 calculation='vc-relax',
 etot_conv_thr=1.0D-5,
 forc_conv_thr=1.0D-4,
/
&system
 ibrav = 0,
 celldm(1) = 1.d0,
 nat = 16,
 ntyp = 2,
 ecutwfc=80.0,
 ecutrho=800.0,
 xdm=.true.,
 xdm_a1=0.6512,
 xdm_a2=1.4633,
/
&electrons
 conv_thr = 1d-8,
/
&ions
/
&cell
/
ATOMIC_SPECIES
 h 1.00794 h.UPF
 n 14.0067 n.UPF

ATOMIC_POSITIONS crystal
h        0.368230346   0.274103254   0.101190698
h        0.274103254   0.101190698   0.368230346
h        0.101190698   0.368230346   0.274103254
h        0.868230346   0.225896746   0.898809302
h        0.774103254   0.398809302   0.631769654
h        0.601190698   0.131769654   0.725896746
h        0.725896746   0.601190698   0.131769654
h        0.898809302   0.868230346   0.225896746
h        0.398809302   0.631769654   0.774103254
h        0.131769654   0.725896746   0.601190698
h        0.225896746   0.898809302   0.868230346
h        0.631769654   0.774103254   0.398809302
n        0.204403700   0.204403700   0.204403700
n        0.704403700   0.295596300   0.795596300
n        0.795596300   0.704403700   0.295596300
n        0.295596300   0.795596300   0.704403700

K_POINTS automatic
4 4 4 1 1 1

CELL_PARAMETERS cubic
   9.420735946   0.000000000   0.000000000
   0.000000000   9.420735946   0.000000000
   0.000000000   0.000000000   9.420735946
