&control
 title='anthracene',
 prefix='anthracene',
 pseudo_dir='.',
 calculation='vc-relax',
 etot_conv_thr=1.0D-5,
 forc_conv_thr=1.0D-4,
/
&system
 ibrav = 0,
 celldm(1) = 1.d0,
 nat = 48,
 ntyp = 2,
 ecutwfc=80.0,
 ecutrho=800.0,
 xdm=.true.,
 xdm_a1=0.6512,
 xdm_a2=1.4633,
/
&electrons
 conv_thr = 1d-8,
/
&ions
/
&cell
/
ATOMIC_SPECIES
 c 12.0107 c.UPF
 h 1.00794 h.UPF

ATOMIC_POSITIONS crystal
c        0.087492479   0.031738870   0.369102801
c        0.412507521   0.531738870   0.630897199
c        0.912507521   0.968261130   0.630897199
c        0.587492479   0.468261130   0.369102801
c        0.118723939   0.161806743   0.282163344
c        0.381276061   0.661806743   0.717836656
c        0.881276061   0.838193257   0.717836656
c        0.618723939   0.338193257   0.282163344
c        0.059656442   0.084864478   0.140097203
c        0.440343558   0.584864478   0.859902797
c        0.940343558   0.915135522   0.859902797
c        0.559656442   0.415135522   0.140097203
c        0.087999998   0.214563919   0.048467902
c        0.412000002   0.714563919   0.951532098
c        0.912000002   0.785436081   0.951532098
c        0.587999998   0.285436081   0.048467902
c        0.969090140   0.864853218   0.090160400
c        0.530909860   0.364853218   0.909839600
c        0.030909860   0.135146782   0.909839600
c        0.469090140   0.635146782   0.090160400
c        0.939550357   0.735234489   0.183763010
c        0.560449643   0.235234489   0.816236990
c        0.060449643   0.264765511   0.816236990
c        0.439550357   0.764765511   0.183763010
c        0.995975493   0.816405092   0.319023763
c        0.504024507   0.316405092   0.680976237
c        0.004024507   0.183594908   0.680976237
c        0.495975493   0.683594908   0.319023763
h        0.133625429   0.093796992   0.477226253
h        0.366374571   0.593796992   0.522773747
h        0.866374571   0.906203008   0.522773747
h        0.633625429   0.406203008   0.477226253
h        0.188253666   0.326993384   0.319747222
h        0.311746334   0.826993384   0.680252778
h        0.811746334   0.673006616   0.680252778
h        0.688253666   0.173006616   0.319747222
h        0.157302894   0.380026050   0.086232159
h        0.342697106   0.880026050   0.913767841
h        0.842697106   0.619973950   0.913767841
h        0.657302894   0.119973950   0.086232159
h        0.870682991   0.570044770   0.145680403
h        0.629317009   0.070044770   0.854319597
h        0.129317009   0.429955230   0.854319597
h        0.370682991   0.929955230   0.145680403
h        0.971150900   0.714671855   0.388532646
h        0.528849100   0.214671855   0.611467354
h        0.028849100   0.285328145   0.611467354
h        0.471150900   0.785328145   0.388532646

K_POINTS automatic
4 4 3  1 1 1

CELL_PARAMETERS cubic
  15.808240580   0.000000000  -0.073877816
   0.000000000  11.177668970   0.000000000
 -12.101836957   0.000000000  17.123196188
