&control
 title='benzene',
 prefix='benzene',
 pseudo_dir='.',
 calculation='vc-relax',
 etot_conv_thr=1.0D-5,
 forc_conv_thr=1.0D-4,
/
&system
 ibrav = 0,
 celldm(1) = 1.d0,
 nat = 48,
 ntyp = 2,
 ecutwfc=80.0,
 ecutrho=800.0,
 xdm=.true.,
 xdm_a1=0.6512,
 xdm_a2=1.4633,
/
&electrons
 conv_thr = 1d-8,
/
&ions
/
&cell
/
ATOMIC_SPECIES
 c 12.0107 c.UPF
 h 1.00794 h.UPF

ATOMIC_POSITIONS crystal
c        0.937969275   0.141789061   0.994017673
c        0.562027407   0.641789331   0.994013638
c        0.937969900   0.358208513   0.494015808
c        0.562027719   0.858211332   0.494014618
c        0.062030725   0.858210939   0.005982327
c        0.437972593   0.358210669   0.005986362
c        0.062030100   0.641791487   0.505984192
c        0.437972281   0.141788668   0.505985382
c        0.860378268   0.044933252   0.128739140
c        0.639623694   0.544934332   0.128734124
c        0.860376452   0.455066890   0.628741691
c        0.639622090   0.955064358   0.628733332
c        0.139621732   0.955066748   0.871260860
c        0.360376306   0.455065668   0.871265876
c        0.139623548   0.544933110   0.371258309
c        0.360377910   0.044935642   0.371266668
c        0.077089565   0.096659061   0.865291709
c        0.422907522   0.596657699   0.865295522
c        0.077090141   0.403341403   0.365290843
c        0.422907700   0.903342760   0.365294655
c        0.922910435   0.903340939   0.134708291
c        0.577092478   0.403342301   0.134704478
c        0.922909859   0.596658597   0.634709157
c        0.577092300   0.096657240   0.634705345
h        0.890000203   0.252443096   0.989025448
h        0.610002986   0.752439967   0.989011065
h        0.890001899   0.247558231   0.489025017
h        0.610002921   0.747559062   0.489010943
h        0.109999797   0.747556904   0.010974552
h        0.389997014   0.247560033   0.010988935
h        0.109998101   0.752441769   0.510974983
h        0.389997079   0.252440938   0.510989057
h        0.750766055   0.078604126   0.228729038
h        0.749236791   0.578605882   0.228715662
h        0.750767836   0.421395151   0.728727986
h        0.749236179   0.921392578   0.728717107
h        0.249233945   0.921395874   0.771270962
h        0.250763209   0.421394118   0.771284338
h        0.249232164   0.578604849   0.271272014
h        0.250763821   0.078607422   0.271282893
h        0.136496362   0.171534677   0.758921233
h        0.363505330   0.671530228   0.758919611
h        0.136496447   0.328466914   0.258921256
h        0.363505931   0.828470722   0.258918452
h        0.863503638   0.828465323   0.241078767
h        0.636494670   0.328469772   0.241080389
h        0.863503553   0.671533086   0.741078744
h        0.636494069   0.171529278   0.741081548

K_POINTS automatic
4 4 4 1 1 1

CELL_PARAMETERS cubic
  13.765649019   0.000006174   0.000078773
   0.000005013  17.602718796   0.000012061
   0.000100685   0.000016707  12.671994311
