&control
 title='co2',
 prefix='co2',
 pseudo_dir='.',
 calculation='vc-relax',
 etot_conv_thr=1.0D-5,
 forc_conv_thr=1.0D-4,
/
&system
 ibrav = 0,
 celldm(1) = 1.d0,
 nat = 12,
 ntyp = 2,
 ecutwfc=80.0,
 ecutrho=800.0,
 xdm=.true.,
 xdm_a1=0.6512,
 xdm_a2=1.4633,
/
&electrons
 conv_thr = 1d-8,
/
&ions
/
&cell
/
ATOMIC_SPECIES
 c 12.0107 c.UPF
 o 15.9994 o.UPF

ATOMIC_POSITIONS crystal
c        0.000000000   0.000000000   0.000000000
c        0.500000000   0.000000000   0.500000000
c        0.500000000   0.500000000   0.000000000
c        0.000000000   0.500000000   0.500000000
o        0.119407460   0.119407460   0.119407460
o        0.619407460   0.119407460   0.380592540
o        0.619407460   0.380592540   0.880592540
o        0.880592540   0.619407460   0.380592540
o        0.880592540   0.880592540   0.880592540
o        0.380592540   0.880592540   0.619407460
o        0.380592540   0.619407460   0.119407460
o        0.119407460   0.380592540   0.619407460

K_POINTS automatic
5 5 5  1 1 1

CELL_PARAMETERS cubic
  10.679622225   0.000000000   0.000000000
   0.000000000  10.679622225   0.000000000
   0.000000000   0.000000000  10.679622225
