&control
 title='cytosine',
 prefix='cytosine',
 pseudo_dir='.',
 calculation='vc-relax',
 etot_conv_thr=1.0D-5,
 forc_conv_thr=1.0D-4,
/
&system
 ibrav = 0,
 celldm(1) = 1.d0,
 nat = 52,
 ntyp = 4,
 ecutwfc=80.0,
 ecutrho=800.0,
 xdm=.true.,
 xdm_a1=0.6512,
 xdm_a2=1.4633,
/
&electrons
 conv_thr = 1d-8,
/
&ions
/
&cell
/
ATOMIC_SPECIES
 c 12.0107 c.UPF
 h 1.00794 h.UPF
 o 15.9994 o.UPF
 n 14.0067 n.UPF

ATOMIC_POSITIONS crystal
c        0.983174983   0.152045286   0.314834413
c        0.483176097   0.347954210   0.685163461
c        0.016825017   0.652045286   0.185165587
c        0.516823903   0.847954210   0.814836539
c        0.131341898   0.263531696   0.543739125
c        0.631343315   0.236471288   0.456261859
c        0.868658102   0.763531696   0.956260875
c        0.368656685   0.736471288   0.043738141
c        0.172369178   0.132466857   0.666329325
c        0.672365841   0.367536680   0.333679217
c        0.827630822   0.632466857   0.833670675
c        0.327634159   0.867536680   0.166320783
c        0.114638520   0.015084883   0.603178421
c        0.614642042   0.484910145   0.396817230
c        0.885361480   0.515084883   0.896821579
c        0.385357958   0.984910145   0.103182770
h        0.990339337   0.928747682   0.334506367
h        0.490339631   0.571252312   0.665491175
h        0.009660663   0.428747682   0.165493633
h        0.509660369   0.071252312   0.834508825
h        0.154401382   0.478085917   0.515373532
h        0.654401684   0.021915252   0.484630376
h        0.845598618   0.978085917   0.984626468
h        0.345598316   0.521915252   0.015369624
h        0.259357335   0.376803515   0.686218664
h        0.759357916   0.123196063   0.313785889
h        0.740642665   0.876803515   0.813781336
h        0.240642084   0.623196063   0.186214111
h        0.245798234   0.128598047   0.804858278
h        0.745801322   0.371400758   0.195142394
h        0.754201766   0.628598047   0.695141722
h        0.254198678   0.871400758   0.304857606
h        0.137085517   0.909186887   0.684327469
h        0.637086177   0.590813937   0.315671035
h        0.862914483   0.409186887   0.815672531
h        0.362913823   0.090813937   0.184328965
o        0.897897638   0.154148322   0.151553950
o        0.397896761   0.345852578   0.848447685
o        0.102102362   0.654148322   0.348446050
o        0.602103239   0.845852578   0.651552315
n        0.022891022   0.023815178   0.429996327
n        0.522889914   0.476185548   0.570004107
n        0.977108978   0.523815178   0.070003673
n        0.477110086   0.976185548   0.929995893
n        0.038956025   0.270947291   0.377548962
n        0.538954379   0.229053605   0.622455353
n        0.961043975   0.770947291   0.122451038
n        0.461045621   0.729053605   0.877544647
n        0.184734867   0.382890146   0.594843123
n        0.684736043   0.117105919   0.405164255
n        0.815265133   0.882890146   0.905156877
n        0.315263957   0.617105919   0.094835745

K_POINTS automatic
4 4 4 1 1 1

CELL_PARAMETERS cubic
  24.339717828   0.000000000   0.000043708
   0.000000000  17.910487196   0.000000000
  -0.000008318   0.000000000   7.143937355
