&control
 title='ethylcarbamate',
 prefix='ethylcarbamate',
 pseudo_dir='.',
 calculation='vc-relax',
 etot_conv_thr=1.0D-5,
 forc_conv_thr=1.0D-4,
/
&system
 ibrav = 0,
 celldm(1) = 1.d0,
 nat = 26,
 ntyp = 4,
 ecutwfc=80.0,
 ecutrho=800.0,
 xdm=.true.,
 xdm_a1=0.6512,
 xdm_a2=1.4633,
/
&electrons
 conv_thr = 1d-8,
/
&ions
/
&cell
/
ATOMIC_SPECIES
 c 12.0107 c.UPF
 h 1.00794 h.UPF
 o 15.9994 o.UPF
 n 14.0067 n.UPF

ATOMIC_POSITIONS crystal
c        0.857462820   0.797954402   0.368471174
c        0.142537180   0.202045598   0.631528826
c        0.779388574   0.598949841   0.276919384
c        0.220611426   0.401050159   0.723080616
c        0.007694081   0.279360028   0.152643047
c        0.992305919   0.720639972   0.847356953
h        0.670936141   0.902343620   0.401367796
h        0.329063859   0.097656380   0.598632204
h        0.022702296   0.782227035   0.500316715
h        0.977297704   0.217772965   0.499683285
h        0.932110351   0.864328913   0.273842116
h        0.067889649   0.135671087   0.726157884
h        0.703027458   0.532094190   0.370733461
h        0.296972542   0.467905810   0.629266539
h        0.616785875   0.612807435   0.143579642
h        0.383214125   0.387192565   0.856420358
h        0.429554487   0.221058434   0.153436256
h        0.570445513   0.778941566   0.846563744
h        0.247166138   0.023980759   0.052973817
h        0.752833862   0.976019241   0.947026183
o        0.035270841   0.465715542   0.239091800
o        0.964729159   0.534284458   0.760908200
o        0.778020911   0.222717356   0.102777651
o        0.221979089   0.777282644   0.897222349
n        0.253234504   0.162770384   0.130195811
n        0.746765496   0.837229616   0.869804189

K_POINTS automatic
4 4 4 1 1 1

CELL_PARAMETERS cubic
   9.518189427   0.025538290  -0.107733020
   3.117973701  12.707321213   0.102159203
  -3.808873534  -1.855411113  13.387484734
