&control
 title='formamide',
 prefix='formamide',
 pseudo_dir='.',
 calculation='vc-relax',
 etot_conv_thr=1.0D-5,
 forc_conv_thr=1.0D-4,
/
&system
 ibrav = 0,
 celldm(1) = 1.d0,
 nat = 24,
 ntyp = 4,
 ecutwfc=80.0,
 ecutrho=800.0,
 xdm=.true.,
 xdm_a1=0.6512,
 xdm_a2=1.4633,
/
&electrons
 conv_thr = 1d-8,
/
&ions
/
&cell
/
ATOMIC_SPECIES
 c 12.0107 c.UPF
 h 1.00794 h.UPF
 o 15.9994 o.UPF
 n 14.0067 n.UPF

ATOMIC_POSITIONS crystal
c        0.333321758   0.052290610   0.256877019
c        0.166681637   0.552291531   0.243124559
c        0.666678242   0.947709390   0.743122981
c        0.833318363   0.447708469   0.756875441
h        0.188089565   0.257546939   0.145073315
h        0.311910000   0.757546240   0.354926302
h        0.811910435   0.742453061   0.854926685
h        0.688090000   0.242453760   0.645073698
h        0.377002512   0.131562221  -0.014173041
h        0.122996241   0.631561640   0.514173474
h        0.622997488   0.868437779   1.014173041
h        0.877003759   0.368438360   0.485826526
h        0.233271817   0.087010973   0.391162305
h        0.266731911   0.587011943   0.108838786
h        0.766728183   0.912989027   0.608837695
h        0.733268089   0.412988057   0.891161214
o        0.475052714   0.925276405   0.246432662
o        0.024953864   0.425277053   0.253568388
o        0.524947286   0.074723595   0.753567338
o        0.975046136   0.574722947   0.746431612
n        0.294911517   0.154727068   0.117572011
n        0.205087659   0.654726035   0.382427385
n        0.705088483   0.845272932   0.882427989
n        0.794912341   0.345273965   0.617572615

K_POINTS automatic
7 3 4  1 1 1

CELL_PARAMETERS cubic
   6.780806590   0.000026958   0.016160979
   0.000054291  16.950135334   0.000052605
  -2.375429769   0.000010322  12.936542980
