&control
 title='crystal',
 prefix='crystal',
 pseudo_dir='.',
 calculation='vc-relax',
 etot_conv_thr=1.0D-5,
 forc_conv_thr=1.0D-4,
/
&system
 ibrav=0,
 celldm(1)=1.0,
 nat=    22,
 ntyp=  3,
 ecutwfc=80.0,
 ecutrho=800.0,
 xdm=.true.,
 xdm_a1=0.6512,
 xdm_a2=1.4633,
/
&electrons
 conv_thr = 1d-8,
/
&ions
/
&cell
/
ATOMIC_SPECIES
h      1.007940 h.UPF
c     12.010700 c.UPF
n     14.006700 n.UPF

ATOMIC_POSITIONS crystal
h       -0.000000732   0.243012857   0.427114352
h        0.184099140   0.756987039   0.756987361
h       -0.000000787   0.427114285   0.243012637
h        0.815895445   0.572882584   0.572882707
h        0.427113826  -0.000000933   0.243012674
h        0.427113997   0.243012667  -0.000000651
h        0.243012867  -0.000000682   0.427114809
h        0.243012640   0.427114665  -0.000000620
h        0.572882939   0.815895873   0.572883025
h        0.756987114   0.184099614   0.756987279
h        0.756987287   0.756987502   0.184099566
h        0.572883195   0.572883348   0.815895953
c        0.000000608   0.244248913   0.244248649
c        0.000009373   0.755756390   0.755756472
c        0.244249599   0.000000451   0.244248020
c        0.244249472   0.244248038   0.000000474
c        0.755755826   0.000007968   0.755755713
c        0.755755803   0.755755827   0.000007789
n        0.251178253   0.251178635   0.251178764
n       -0.000003075   0.748820112  -0.000002485
n        0.748820275  -0.000002491  -0.000002562
n       -0.000003067  -0.000002663   0.748820076

K_POINTS automatic
5 5 5  1 1 1

CELL_PARAMETERS cubic
  11.317244135  -0.000006384  -0.000017701
  -3.772379643  10.670027032  -0.000017755
  -3.772385067  -5.334943650   9.240558075
