&control
 title='imidazole',
 prefix='imidazole',
 pseudo_dir='.',
 calculation='vc-relax',
 etot_conv_thr=1.0D-5,
 forc_conv_thr=1.0D-4,
/
&system
 ibrav = 0,
 celldm(1) = 1.d0,
 nat = 36,
 ntyp = 3,
 ecutwfc=80.0,
 ecutrho=800.0,
 xdm=.true.,
 xdm_a1=0.6512,
 xdm_a2=1.4633,
/
&electrons
 conv_thr = 1d-8,
/
&ions
/
&cell
/
ATOMIC_SPECIES
 c 12.0107 c.UPF
 h 1.00794 h.UPF
 n 14.0067 n.UPF

ATOMIC_POSITIONS crystal
c        0.160242607   0.211311581   0.182987555
c        0.839757393   0.711311581   0.317012445
c        0.839757393   0.788688419   0.817012445
c        0.160242607   0.288688419   0.682987555
c        0.308660777   0.552474290   0.303620789
c        0.691339223   0.052474290   0.196379211
c        0.691339223   0.447525710   0.696379211
c        0.308660777   0.947525710   0.803620789
c        0.316121224   0.551053874   0.165162181
c        0.683878776   0.051053874   0.334837819
c        0.683878776   0.448946126   0.834837819
c        0.316121224   0.948946126   0.665162181
h        0.206619911   0.268927001   0.982049123
h        0.793380089   0.768927001   0.517950877
h        0.793380089   0.731072999   0.017950877
h        0.206619911   0.231072999   0.482049123
h        0.081773507   0.031990895   0.154246281
h        0.918226493   0.531990895   0.345753719
h        0.918226493   0.968009105   0.845753719
h        0.081773507   0.468009105   0.654246281
h        0.367653837   0.693251791   0.394782717
h        0.632346163   0.193251791   0.105217283
h        0.632346163   0.306748209   0.605217283
h        0.367653837   0.806748209   0.894782717
h        0.381376752   0.683621909   0.116819176
h        0.618623248   0.183621909   0.383180824
h        0.618623248   0.316378091   0.883180824
h        0.381376752   0.816378091   0.616819176
n        0.220736760   0.333273119   0.089793877
n        0.779263240   0.833273119   0.410206123
n        0.779263240   0.666726881   0.910206123
n        0.220736760   0.166726881   0.589793877
n        0.210779343   0.338740828   0.314286579
n        0.789220657   0.838740828   0.185713421
n        0.789220657   0.661259172   0.685713421
n        0.210779343   0.161259172   0.814286579

K_POINTS automatic
4 5 3  1 1 1

CELL_PARAMETERS cubic
  14.133086004   0.000000000   0.028813990
   0.000000000  10.019651748   0.000000000
  -8.682608091   0.000000000  16.202360212
