&control
 title='anthracene',
 prefix='anthracene',
 pseudo_dir='.',
 etot_conv_thr=1.0D-5,
 forc_conv_thr=1.0D-4,
 calculation='relax',
/
&system
 ibrav=1,
 celldm(1)=35,
 nat=24,
 ntyp=2,
 ecutwfc=80.0,
 ecutrho=800.0,
 xdm=.true.,
 xdm_a1=0.6512,
 xdm_a2=1.4633,
/
&electrons
 conv_thr = 1d-8,
/
&ions
/
ATOMIC_SPECIES
c 12.0107000000 c.UPF
h 1.0079400000 h.UPF

ATOMIC_POSITIONS angstrom
c -7.52594 -1.90304 -0.01440
c -6.15429 -1.90228 -0.00945
c -5.41824 -0.67459 -0.01016
c -6.15095 0.57180 -0.01616
c -7.58162 0.52574 -0.02118
c -8.24938 -0.67241 -0.02036
c -4.01682 -0.64167 -0.00528
c -5.44062 1.78032 -0.01690
c -4.03920 1.81324 -0.01201
c -3.30649 0.56685 -0.00606
c -1.87581 0.61290 -0.00115
h -1.32605 -0.32481 0.00328
c -1.20805 1.81105 -0.00206
c -1.93149 3.04168 -0.00790
c -3.30315 3.04093 -0.01272
h -3.46553 -1.57946 -0.00076
h -8.07070 -2.84266 -0.01383
h -5.60232 -2.83870 -0.00488
h -8.13139 1.46346 -0.02568
h -9.33532 -0.69141 -0.02424
h -5.99190 2.71812 -0.02138
h -0.12212 1.83006 0.00171
h -1.38674 3.98130 -0.00852
h -3.85511 3.97735 -0.01715

K_POINTS gamma

