&control
 title='adamantane',
 prefix='adamantane',
 pseudo_dir='.',
 etot_conv_thr=1.0D-5,
 forc_conv_thr=1.0D-4,
 calculation='relax',
/
&system
 ibrav=1,
 celldm(1)=25,
 nat=26,
 ntyp=2,
 ecutwfc=80.0,
 ecutrho=800.0,
 xdm=.true.,
 xdm_a1=0.6512,
 xdm_a2=1.4633,
/
&electrons
 conv_thr = 1d-8,
/
&ions
/
ATOMIC_SPECIES
c 12.0107000000 c.UPF
h 1.0079400000 h.UPF

ATOMIC_POSITIONS angstrom
c -2.68473 0.55633 -0.00021
h -1.58620 0.56750 -0.00011
h -3.01451 1.60421 -0.00053
c -3.20677 -0.16257 1.26334
h -2.83419 0.35028 2.15981
c -3.20717 -0.16339 -1.26274
h -2.83477 0.34932 -2.15926
c -2.71227 -1.62644 -1.25993
h -1.61417 -1.65230 -1.28164
h -3.06141 -2.14401 -2.16387
c -2.71172 -1.62564 1.26010
h -3.06060 -2.14324 2.16411
h -1.61367 -1.65198 1.28126
c -3.23427 -2.35056 0.00057
h -2.88132 -3.39018 0.00080
c -4.77855 -2.32785 0.00032
h -5.16291 -2.85711 -0.88237
h -5.16338 -2.85738 0.88256
c -4.75125 -0.14523 1.26048
h -5.11644 0.89068 1.28154
h -5.13533 -0.63748 2.16431
c -4.75151 -0.14517 -1.25952
h -5.11579 0.89109 -1.28020
h -5.13633 -0.63655 -2.16366
c -5.27820 -0.86645 0.00060
h -6.37602 -0.85279 0.00041

K_POINTS gamma

