&control
 title='imidazole',
 prefix='imidazole',
 pseudo_dir='.',
 etot_conv_thr=1.0D-5,
 forc_conv_thr=1.0D-4,
 calculation='relax',
/
&system
 ibrav=1,
 celldm(1)=35,
 nat=9,
 ntyp=3,
 ecutwfc=80.0,
 ecutrho=800.0,
 xdm=.true.,
 xdm_a1=0.6512,
 xdm_a2=1.4633,
/
&electrons
 conv_thr = 1d-8,
/
&ions
/
ATOMIC_SPECIES
c 12.0107000000 c.UPF
h 1.0079400000 h.UPF
n 14.0067000000 n.UPF

ATOMIC_POSITIONS angstrom
c -0.04675 -2.02857 0.00006
c 1.65969 -0.72929 -0.00003
c 0.56330 0.09992 -0.00011
n -0.52752 -0.74725 -0.00010
h -1.49812 -0.47196 -0.00022
h -0.69659 -2.89243 0.00013
h 2.70372 -0.45058 -0.00001
h 0.46063 1.17407 -0.00017
n 1.26952 -2.05184 0.00002

K_POINTS gamma

