&control
 title='crystal',
 prefix='crystal',
 pseudo_dir='.',
 calculation='relax',
 etot_conv_thr=1.0D-5,
 forc_conv_thr=1.0D-4,
/
&system
 ibrav=0,
 celldm(1)=1.0,
 nat=14,
 ntyp=3,
 ecutwfc=80.0,
 ecutrho=800.0,
 xdm=.true.,
 xdm_a1=0.6512,
 xdm_a2=1.4633,
/
&electrons
 conv_thr = 1d-8,
/
&ions
/
ATOMIC_SPECIES
h      1.007940 h.UPF
c     12.010700 c.UPF
o     15.999400 o.UPF

ATOMIC_POSITIONS angstrom
h    5.20552175525459        7.28737549999997        4.60631943017388     
c    5.79097861096068        8.15797722499997        4.94486783795585     
c    4.88545372496707        9.33452277499997        5.25851997946331     
c    6.80116425762847        8.45360047499997        3.87412432039588     
h    6.33356856444151        7.81101348749997        5.83302173052310     
h    4.34286377148625        9.68148651249997        4.37036608689606     
c    3.87526807829928        9.03889952499997        6.32926349702328     
o    7.74028431891461        7.52641051249997        3.78015111859745     
o    6.75136574536110        9.46073116249997        3.14371480348593     
h    5.47091058067316        10.2051245000000        5.59706838724528     
o    3.92506659056666        8.03176883749997        7.05967301393323     
o    2.93614801701315        9.96608948749997        6.42323669882171     
h    8.40596325979720        7.73238469999997        3.02331482724038     
h    2.27046907613056        9.76011529999997        7.18007299017878     

K_POINTS gamma

CELL_PARAMETERS cubic
50. 0. 0.
0. 50. 0.
0. 0. 50.
