&control
 title='naphthalene',
 prefix='naphthalene',
 pseudo_dir='.',
 calculation='vc-relax',
 etot_conv_thr=1.0D-5,
 forc_conv_thr=1.0D-4,
/
&system
 ibrav = 0,
 celldm(1) = 1.d0,
 nat = 36,
 ntyp = 2,
 ecutwfc=80.0,
 ecutrho=800.0,
 xdm=.true.,
 xdm_a1=0.6512,
 xdm_a2=1.4633,
/
&electrons
 conv_thr = 1d-8,
/
&ions
/
&cell
/
ATOMIC_SPECIES
 c 12.0107 c.UPF
 h 1.00794 h.UPF

ATOMIC_POSITIONS crystal
c        0.084328858   0.020192298   0.330190361
c        0.415671142   0.520192298   0.669809639
c        0.915671142   0.979807702   0.669809639
c        0.584328858   0.479807702   0.330190361
c        0.114501651   0.166042564   0.223085058
c        0.385498349   0.666042564   0.776914942
c        0.885498349   0.833957436   0.776914942
c        0.614501651   0.333957436   0.223085058
c        0.048697410   0.107439328   0.037269119
c        0.451302590   0.607439328   0.962730881
c        0.951302590   0.892560672   0.962730881
c        0.548697410   0.392560672   0.037269119
c        0.076463695   0.254382055   0.923268322
c        0.423536305   0.754382055   0.076731678
c        0.923536305   0.745617945   0.076731678
c        0.576463695   0.245617945   0.923268322
c        0.987871736   0.808144436   0.256474363
c        0.512128264   0.308144436   0.743525637
c        0.012128264   0.191855564   0.743525637
c        0.487871736   0.691855564   0.256474363
h        0.135007528   0.069127975   0.472224244
h        0.364992472   0.569127975   0.527775756
h        0.864992472   0.930872025   0.527775756
h        0.635007528   0.430872025   0.472224244
h        0.188160609   0.329577462   0.278778320
h        0.311839391   0.829577462   0.721221680
h        0.811839391   0.670422538   0.721221680
h        0.688160609   0.170422538   0.278778320
h        0.150326597   0.417380650   0.980461671
h        0.349673403   0.917380650   0.019538329
h        0.849673403   0.582619350   0.019538329
h        0.650326597   0.082619350   0.980461671
h        0.963584455   0.693935090   0.341494463
h        0.536415545   0.193935090   0.658505537
h        0.036415545   0.306064910   0.658505537
h        0.463584455   0.806064910   0.341494463

K_POINTS automatic
4 4 4 1 1 1

CELL_PARAMETERS cubic
  15.173045230   0.000000000   0.020575976
   0.000000000  11.108286777   0.000000000
  -9.200643120   0.000000000  13.438043302
