&control
 title='oxalic_acid_alpha',
 prefix='oxalic_acid_alpha',
 pseudo_dir='.',
 calculation='vc-relax',
 etot_conv_thr=1.0D-5,
 forc_conv_thr=1.0D-4,
/
&system
 ibrav = 0,
 celldm(1) = 1.d0,
 nat = 32,
 ntyp = 3,
 ecutwfc=80.0,
 ecutrho=800.0,
 xdm=.true.,
 xdm_a1=0.6512,
 xdm_a2=1.4633,
/
&electrons
 conv_thr = 1d-8,
/
&ions
/
&cell
/
ATOMIC_SPECIES
 c 12.0107 c.UPF
 h 1.00794 h.UPF
 o 15.9994 o.UPF

ATOMIC_POSITIONS crystal
c        0.056677546   0.057472412   0.916026335
c        0.443322454   0.057472412   0.416026335
c        0.556679821   0.442529415   0.916021069
c        0.943320179   0.442529415   0.416021069
c        0.943322454   0.942527588   0.083973665
c        0.556677546   0.942527588   0.583973665
c        0.443320179   0.557470585   0.083978931
c        0.056679821   0.557470585   0.583978931
h        0.094222156   0.306494826   0.846067608
h        0.405777844   0.306494826   0.346067608
h        0.594221843   0.193504889   0.846068722
h        0.905778157   0.193504889   0.346068722
h        0.905777844   0.693505174   0.153932392
h        0.594222156   0.693505174   0.653932392
h        0.405778157   0.806495111   0.153931278
h        0.094221843   0.806495111   0.653931278
o        0.154858872   0.993703562   0.765719635
o        0.345141128   0.993703562   0.265719635
o        0.654854377   0.506293169   0.765721110
o        0.845145623   0.506293169   0.265721110
o        0.845141128   0.006296438   0.234280365
o        0.654858872   0.006296438   0.734280365
o        0.345145623   0.493706831   0.234278890
o        0.154854377   0.493706831   0.734278890
o        0.031525228   0.224394245   0.957632694
o        0.468474772   0.224394245   0.457632694
o        0.531524520   0.275604674   0.957633688
o        0.968475480   0.275604674   0.457633688
o        0.968474772   0.775605755   0.042367306
o        0.531525228   0.775605755   0.542367306
o        0.468475480   0.724395326   0.042366312
o        0.031524520   0.724395326   0.542366312

K_POINTS automatic
4 4 4 1 1 1

CELL_PARAMETERS cubic
  12.486073452   0.000000000   0.000000000
   0.000000000  14.359523447  -0.000173487
   0.000000000   0.000192230  11.599008478
