&control
 title='pyrazole',
 prefix='pyrazole',
 pseudo_dir='.',
 calculation='vc-relax',
 etot_conv_thr=1.0D-5,
 forc_conv_thr=1.0D-4,
/
&system
 ibrav = 0,
 celldm(1) = 1.d0,
 nat = 72,
 ntyp = 3,
 ecutwfc=80.0,
 ecutrho=800.0,
 xdm=.true.,
 xdm_a1=0.6512,
 xdm_a2=1.4633,
/
&electrons
 conv_thr = 1d-8,
/
&ions
/
&cell
/
ATOMIC_SPECIES
 c 12.0107 c.UPF
 h 1.00794 h.UPF
 n 14.0067 n.UPF

ATOMIC_POSITIONS crystal
c        0.296512086   0.057361765   0.384656998
c        0.796512086   0.942638235   0.615343002
c        0.296512470   0.442637676   0.884657668
c        0.796512470   0.557362324   0.115342332
c        0.723024511   0.185948680   0.925777611
c        0.223024511   0.814051320   0.074222389
c        0.723024632   0.314051088   0.425778094
c        0.223024632   0.685948912   0.574221906
c        0.400381391   0.117814846   0.505656414
c        0.900381391   0.882185154   0.494343586
c        0.400379987   0.382184446   0.005656269
c        0.900379987   0.617815554   0.994343731
c        0.617769264   0.107641010   0.001467789
c        0.117769264   0.892358990   0.998532211
c        0.617769388   0.392358579   0.501467079
c        0.117769388   0.607641421   0.498532921
c        0.302375146   0.200314651   0.573069219
c        0.802375146   0.799685349   0.426930781
c        0.302376622   0.299684257   0.073070762
c        0.802376622   0.700315743   0.926929238
c        0.711744770   0.053799283   0.139059472
c        0.211744770   0.946200717   0.860940528
c        0.711745339   0.446200123   0.639059392
c        0.211745339   0.553799877   0.360940608
h        0.047752626   0.235987770   0.505476246
h        0.547752626   0.764012230   0.494523754
h        0.047753115   0.264011467   0.005476232
h        0.547753115   0.735988533   0.994523768
h        0.963496248   0.085737823   0.231038699
h        0.463496248   0.914262177   0.768961301
h        0.963496430   0.414261142   0.731038746
h        0.463496430   0.585738858   0.268961254
h        0.329721128   0.266714595   0.668352681
h        0.829721128   0.733285405   0.331647319
h        0.329720715   0.233284738   0.168352545
h        0.829720715   0.766715262   0.831647455
h        0.683429240   0.987424645   0.233927565
h        0.183429240   0.012575355   0.766072435
h        0.683429801   0.512574801   0.733927354
h        0.183429801   0.487425199   0.266072646
h        0.528113331   0.103353729   0.539556049
h        0.028113331   0.896646271   0.460443951
h        0.528113345   0.396645648   0.039556845
h        0.028113345   0.603354352   0.960443155
h        0.491471984   0.092226291   0.961930379
h       -0.008528016   0.907773709   0.038069621
h        0.491472057   0.407773724   0.461929901
h       -0.008527943   0.592226276   0.538070099
h        0.323079597   0.985578691   0.302840521
h        0.823079597   0.014421309   0.697159479
h        0.323078939   0.514420589   0.802841258
h        0.823078939   0.485579411   0.197158742
h        0.698098259   0.245319127   0.814882708
h        0.198098259   0.754680873   0.185117292
h        0.698097665   0.254680311   0.314882128
h        0.198097665   0.745319689   0.685117872
n        0.151413410   0.186491725   0.494448266
n        0.651413410   0.813508275   0.505551734
n        0.151410910   0.313506791   0.994447916
n        0.651410910   0.686493209   0.005552084
n        0.861916279   0.099815275   0.140202803
n        0.361916279   0.900184725   0.859797197
n        0.861915979   0.400183806   0.640202266
n        0.361915979   0.599816194   0.359797734
n        0.145001748   0.099709726   0.377701050
n        0.645001748   0.900290274   0.622298950
n        0.145001373   0.400289357   0.877701322
n        0.645001373   0.599710643   0.122298678
n        0.871660340   0.180956800   0.010915941
n        0.371660340   0.819043200   0.989084059
n        0.871659878   0.319042279   0.510915476
n        0.371659878   0.680957721   0.489084524

K_POINTS automatic
3 2 4  1 1 1

CELL_PARAMETERS cubic
  15.379521063   0.000000000   0.000000000
   0.000000000  23.804498558   0.000003646
   0.000000000   0.000000948  12.894386922
