&control
 title='pyrazine',
 prefix='pyrazine',
 pseudo_dir='.',
 calculation='vc-relax',
 etot_conv_thr=1.0D-5,
 forc_conv_thr=1.0D-4,
/
&system
 ibrav = 0,
 celldm(1) = 1.d0,
 nat = 20,
 ntyp = 3,
 ecutwfc=80.0,
 ecutrho=800.0,
 xdm=.true.,
 xdm_a1=0.6512,
 xdm_a2=1.4633,
/
&electrons
 conv_thr = 1d-8,
/
&ions
/
&cell
/
ATOMIC_SPECIES
 c 12.0107 c.UPF
 h 1.00794 h.UPF
 n 14.0067 n.UPF

ATOMIC_POSITIONS crystal
c        0.075308204   0.181352617   0.130107563
c        0.924691796   0.181352617   0.130107563
c        0.575308868   0.318645102   0.630107984
c        0.424691132   0.318645102   0.630107984
c        0.924691796   0.818647383   0.869892437
c        0.075308204   0.818647383   0.869892437
c        0.424691132   0.681354898   0.369892016
c        0.575308868   0.681354898   0.369892016
h        0.136908736   0.328561081   0.239205510
h        0.863091264   0.328561081   0.239205510
h        0.636909315   0.171438832   0.739203891
h        0.363090685   0.171438832   0.739203891
h        0.863091264   0.671438919   0.760794490
h        0.136908736   0.671438919   0.760794490
h        0.363090685   0.828561168   0.260796109
h        0.636909315   0.828561168   0.260796109
n        0.151441329   0.000000000   0.000000000
n        0.848558671   0.000000000   0.000000000
n        0.651441555   0.500000000   0.500000000
n        0.348558445   0.500000000   0.500000000

K_POINTS automatic
4 4 4 1 1 1

CELL_PARAMETERS cubic
  17.506550170   0.000000000   0.000000000
   0.000000000  10.785020119   0.000022583
   0.000000000  -0.000005985   6.962442841
