&control
 title='crystal',
 prefix='crystal',
 pseudo_dir='.',
 calculation='vc-relax',
 etot_conv_thr=1.0D-5,
 forc_conv_thr=1.0D-4,
/
&system
 ibrav=0,
 celldm(1)=1.0,
 nat=28,
 ntyp=3,
 ecutwfc=80.0,
 ecutrho=800.0,
 xdm=.true.,
 xdm_a1=0.6512,
 xdm_a2=1.4633,
/
&electrons
 conv_thr = 1d-8,
/
&ions
/
&cell
/
ATOMIC_SPECIES
h      1.007940 h.UPF
c     12.010700 c.UPF
o     15.999400 o.UPF

ATOMIC_POSITIONS crystal
h        0.977996201   0.830578379   0.904287307
h        0.022003799   0.169421621   0.095712693
h        0.022003799   0.330578379   0.595712693
h        0.977996201   0.669421621   0.404287307
h        0.183153748   0.894168191   0.150342949
h        0.816846252   0.105831809   0.849657051
h        0.816846252   0.394168191   0.349657051
h        0.183153748   0.605831809   0.650342949
h        0.552720577   0.884944351   0.600822610
h        0.447279423   0.115055649   0.399177390
h        0.447279423   0.384944351   0.899177390
h        0.552720577   0.615055649   0.100822610
c        0.082925428   0.932299149   0.971654072
c        0.917074572   0.067700851   0.028345928
c        0.917074572   0.432299149   0.528345928
c        0.082925428   0.567700851   0.471654072
c        0.262924508   0.966626335   0.761472302
c        0.737075492   0.033373665   0.238527698
c        0.737075492   0.466626335   0.738527698
c        0.262924508   0.533373665   0.261472302
o        0.248158831   0.080401971   0.612041765
o        0.751841169   0.919598029   0.387958235
o        0.751841169   0.580401971   0.887958235
o        0.248158831   0.419598029   0.112041765
o        0.436385180   0.861622152   0.750471405
o        0.563614820   0.138377848   0.249528595
o        0.563614820   0.361622152   0.749528595
o        0.436385180   0.638377848   0.250471405

K_POINTS automatic
5 3 5  1 1 1

CELL_PARAMETERS cubic
  10.441425429   0.000000000  -0.005872523
   0.000000000  16.317828537   0.000000000
  -0.250724576   0.000000000   9.524923384
