&control
 title='uracil',
 prefix='uracil',
 pseudo_dir='.',
 calculation='vc-relax',
 etot_conv_thr=1.0D-5,
 forc_conv_thr=1.0D-4,
/
&system
 ibrav = 0,
 celldm(1) = 1.d0,
 nat = 48,
 ntyp = 4,
 ecutwfc=80.0,
 ecutrho=800.0,
 xdm=.true.,
 xdm_a1=0.6512,
 xdm_a2=1.4633,
/
&electrons
 conv_thr = 1d-8,
/
&ions
/
&cell
/
ATOMIC_SPECIES
 c 12.0107 c.UPF
 h 1.00794 h.UPF
 o 15.9994 o.UPF
 n 14.0067 n.UPF

ATOMIC_POSITIONS crystal
c        0.146723932   0.211689518  -0.009380944
c        0.353276068   0.711689518   1.009380944
c        0.853276068   0.788310482   1.009380944
c        0.646723932   0.288310482  -0.009380944
c        0.179185515   0.012092073   0.037474153
c        0.320814485   0.512092073   0.962525847
c        0.820814485   0.987907927   0.962525847
c        0.679185515   0.487907927   0.037474153
c        0.303785686   0.028730872   0.078442492
c        0.196214314   0.528730872   0.921557508
c        0.696214314   0.971269128   0.921557508
c        0.803785686   0.471269128   0.078442492
c        0.343010498   0.132660932   0.070103813
c        0.156989502   0.632660932   0.929896187
c        0.656989502   0.867339068   0.929896187
c        0.843010498   0.367339068   0.070103813
h        0.435244662   0.151986873   0.091273214
h        0.064755338   0.651986873   0.908726786
h        0.564755338   0.848013127   0.908726786
h        0.935244662   0.348013127   0.091273214
h        0.299240274   0.298945838   0.010389987
h        0.200759726   0.798945838   0.989610013
h        0.700759726   0.701054162   0.989610013
h        0.799240274   0.201054162   0.010389987
h        0.017726431   0.096307117   0.972877872
h        0.482273569   0.596307117   0.027122128
h        0.982273569   0.903692883   0.027122128
h        0.517726431   0.403692883   0.972877872
h        0.362922298   0.958205266   0.106143256
h        0.137077702   0.458205266   0.893856744
h        0.637077702   0.041794734   0.893856744
h        0.862922298   0.541794734   0.106143256
o        0.078212958   0.291103708   0.955029591
o        0.421787042   0.791103708   0.044970409
o        0.921787042   0.708896292   0.044970409
o        0.578212958   0.208896292   0.955029591
o        0.130409926   0.920411384   0.033170176
o        0.369590074   0.420411384   0.966829824
o        0.869590074   0.079588616   0.966829824
o        0.630409926   0.579588616   0.033170176
n        0.267400311   0.220819560   0.026877049
n        0.232599689   0.720819560   0.973122951
n        0.732599689   0.779180440   0.973122951
n        0.767400311   0.279180440   0.026877049
n        0.108379825   0.105562301  -0.002011679
n        0.391620175   0.605562301   1.002011679
n        0.891620175   0.894437699   1.002011679
n        0.608379825   0.394437699  -0.002011679

K_POINTS automatic
4 4 4 1 1 1

CELL_PARAMETERS cubic
  22.544437476   0.000000000  -0.105407152
   0.000000000  23.137973710   0.000000000
  -3.567355604   0.000000000   5.878684102
