&control
 title='crystal',
 prefix='crystal',
 pseudo_dir='../..',
 forc_conv_thr=1.0D-4,
 etot_conv_thr=1.0D-5,
/
&system
 ibrav=0,
 nat=    24,
 ntyp=  3,
 ecutwfc=80.0,
 ecutrho=800.0,
 vdw_corr='xdm',
 nosym=.true.,
/
&electrons
 conv_thr = 1d-10,
/
&ions
/
&cell
 press_conv_thr=0.01,
/
ATOMIC_SPECIES
C    12.010700 c.UPF
N    14.006700 n.UPF
H     1.007940 h.UPF

ATOMIC_POSITIONS crystal
C             0.0860995951        0.4608806972        0.2495085369
C             0.9138988745        0.9608801956        0.2504908059
C             0.9138994166        0.5391196919        0.7504912781
C             0.0861009306        0.0391200523        0.7495092384
C             0.2979997884        0.3501683623        0.3681987589
C             0.7019986769        0.8501682091        0.1318003959
C             0.7019989950        0.6498321010        0.6318008578
C             0.2980011111        0.1498320150        0.8681997047
N             0.4689621113        0.2612592932        0.4639148341
N             0.5310368573        0.7612591195        0.0360842607
N             0.5310364763        0.7387412732        0.5360848295
N             0.4689626633        0.2387413960        0.9639156284
H             0.8988882110        0.3886623650        0.1592989708
H             0.1011103680        0.8886620104        0.3407003874
H             0.1011114308        0.6113372844        0.8407011730
H             0.8988894560        0.1113384698        0.6592997897
H             0.2465541656        0.5338938886        0.1736281958
H             0.7534452333        0.0338934644        0.3263717233
H             0.7534462996        0.4661061759        0.8263720732
H             0.2465544366        0.9661066902        0.6736283406
H             0.9494114065        0.5469319037        0.3245005541
H             0.0505882993        0.0469309886        0.1754990598
H             0.0505885074        0.4530679498        0.6755003004
H             0.9494111796        0.9530691028        0.8245006026

K_POINTS automatic
7 3 3  1 1 1

CELL_PARAMETERS bohr
   7.455710805   0.000005535   0.004868412
   0.000011129  15.157581231   0.000001801
  -2.295238826   0.000000039  14.398699736
