&control
 title='crystal',
 prefix='crystal',
 pseudo_dir='.',
 calculation='vc-relax',
/
&system
 ibrav=0,
 celldm(1)=1.0,
 nat=    66,
 ntyp=  4,
 ecutwfc=60.0,
 ecutrho=600.0,
 xdm=.true.,
 xdm_a1=0.4073,
 xdm_a2=2.4150,
/
&electrons
 conv_thr = 1d-8,
/
&ions
/
&cell
/
ATOMIC_SPECIES
h      1.007940 h.UPF
c     12.010700 c.UPF
n     14.006700 n.UPF
o     15.999400 o.UPF

ATOMIC_POSITIONS crystal
o     0.63058691     0.20543660     0.97325682
o     0.36941307     0.70543659     0.02674318
c     0.46222533     0.04829391     0.22932269
c     0.53777466     0.54829389     0.77067731
h     0.42865908     0.89334878     0.20510692
h     0.57134090     0.39334876     0.79489308
h     0.38185308     0.09142652     0.29537112
h     0.61814690     0.59142650     0.70462888
c     0.42197623     0.17281733     0.11605854
c     0.57802375     0.67281731     0.88394146
h     0.30943431     0.11189353     0.04716293
h     0.69056568     0.61189352     0.95283707
h     0.38820447     0.32847497     0.13135318
h     0.61179552     0.82847495     0.86864682
o     0.74407698     0.46770460     0.51867897
o     0.25592300     0.96770458     0.48132103
c     0.60677696     0.16777207     0.07435067
c     0.39322303     0.66777205     0.92564933
o     0.79640907     0.53927285     0.33829343
o     0.20359092     0.03927284     0.66170657
n     0.74496400     0.11529970     0.16826464
n     0.25503598     0.61529968     0.83173536
c     0.94004275     0.08681936     0.15876384
c     0.05995723     0.58681934     0.84123616
h     0.03249215     0.12301886     0.24423281
h     0.96750784     0.62301885     0.75576719
h     0.96847968     0.19317658     0.09300910
h     0.03152030     0.69317656     0.90699090
c     0.97480382     0.87597174     0.11862132
c     0.02519616     0.37597172     0.88137868
h     0.11266999     0.86842131     0.09416675
h     0.88732999     0.36842130     0.90583325
h     0.86883628     0.84752278     0.03745544
h     0.13116371     0.34752277     0.96254456
c     0.96875971     0.71221085     0.20982468
c     0.03124028     0.21221083     0.79017532
h     0.09035119     0.72779780     0.28418229
h     0.90964880     0.22779778     0.71581771
h     0.98174297     0.56767430     0.16835576
h     0.01825701     0.06767428     0.83164424
c     0.79076992     0.71318206     0.25964033
c     0.20923007     0.21318204     0.74035967
h     0.66378608     0.69609461     0.18900145
h     0.33621390     0.19609460     0.81099855
c     0.67582733     0.07107813     0.27645100
c     0.32417266     0.57107812     0.72354900
h     0.70523470     0.19874890     0.33674303
h     0.29476529     0.69874888     0.66325697
c     0.77574493     0.89051352     0.34048018
c     0.22425506     0.39051351     0.65951982
h     0.92035498     0.93316292     0.38350449
h     0.07964500     0.43316290     0.61649551
c     0.68229041     0.80472716     0.43666156
c     0.31770957     0.30472714     0.56333844
h     0.52775945     0.80438773     0.40575592
h     0.47224054     0.30438772     0.59424408
c     0.74182550     0.58914597     0.43997161
c     0.25817449     0.08914596     0.56002839
c     0.73198435     0.90933741     0.55604203
c     0.26801563     0.40933739     0.44395797
h     0.65223967     0.84802738     0.61828369
h     0.34776031     0.34802736     0.38171631
h     0.69901075     0.06768523     0.54484964
h     0.30098924     0.56768521     0.45515036
h     0.88279658     0.89575402     0.59473691
h     0.11720341     0.39575400     0.40526309

K_POINTS automatic
2 2 2 1 1 1

CELL_PARAMETERS cubic
   13.719399000000     0.000000000000    -0.003080000000
    0.000000000000    12.749232000000     0.000000000000
   -4.595861000000     0.000000000000    21.334174000000
