%nprocs=4
%mem=4GB
#p pbepbe aug-cc-pvtz output=wfx scf=(conver=6) int=(grid=ultrafine)

title

0 1
b 0.000000000000000 0.000000000000000 0.878883966886701
b 0.000000000000000 0.000000000000000 -0.878883966886701
h 0.000000000000000 0.975210094166339 0.000000000000000
h 0.000000000000000 -0.975210094166339 0.000000000000000
h -1.039642711084257 0.000000000000000 1.452326848975255
h 1.039642711084257 0.000000000000000 1.452326848975255
h 1.039642711084257 0.000000000000000 -1.452326848975255
h -1.039642711084257 0.000000000000000 -1.452326848975255

b2h6.wfx

