%nprocs=4
%mem=4GB
#p pbepbe aug-cc-pvtz output=wfx scf=(conver=6) int=(grid=ultrafine)

title

0 1
c 0.000000000000000 0.000000000000000 0.663750515165874
cl 1.400406880101153 0.000000000000000 -0.331875257582937
cl -1.400406880101153 0.000000000000000 -0.331875257582937

ccl2.wfx

