%nprocs=4
%mem=4GB
#p pbepbe aug-cc-pvtz output=wfx scf=(conver=6) int=(grid=ultrafine)

title

0 3
c 0.000000000000000 0.000000000000000 0.282695239491202
h 0.990291162530691 0.000000000000000 -0.141347619745604
h -0.990291162530691 0.000000000000000 -0.141347619745604

ch2.wfx

