%nprocs=4
%mem=4GB
#p pbepbe aug-cc-pvtz output=wfx scf=(conver=6) int=(grid=ultrafine)

title

0 2
o -1.109865510404581 -0.642467867806536 0.000000000000000
o 0.091134399320085 -0.642467867806536 0.000000000000000
cl 1.018731111084496 1.284935735613077 0.000000000000000

cloo.wfx

