%nprocs=4
%mem=4GB
#p pbepbe aug-cc-pvtz output=wfx scf=(conver=6) int=(grid=ultrafine)

title

0 1
h 0.000000000000000 0.000000000000000 1.096666583939648
c 0.000000000000000 0.000000000000000 0.029866664602069
n 0.000000000000000 0.000000000000000 -1.126533248541717

hcn.wfx

