%nprocs=4
%mem=4GB
#p pbepbe aug-cc-pvtz output=wfx scf=(conver=6) int=(grid=ultrafine)

title

0 1
o -0.481691630597996 0.332618145240714 0.000000000000000
h -0.729507289624149 -0.598880898650914 0.000000000000000
cl 1.211198920222150 0.266262753410194 0.000000000000000

hocl.wfx

