%nprocs=4
%mem=4GB
#p pbepbe aug-cc-pvtz output=wfx scf=(conver=6) int=(grid=ultrafine)

title

0 1
p 0.000000000000000 0.000000000000000 0.950994627594935
p 0.000000000000000 0.000000000000000 -0.950994627594935

p2.wfx

