%nprocs=4
%mem=4GB
#p pbepbe aug-cc-pvtz output=wfx scf=(conver=6) int=(grid=ultrafine)

title

0 1
s 0.000000000000000 0.000000000000000 0.665312418495677
s 1.640063757951673 0.000000000000000 -0.332656209247841
s -1.640063757951673 0.000000000000000 -0.332656209247841

s3.wfx

