%nprocs=4
%mem=4GB
#p pbepbe aug-cc-pvtz output=wfx scf=(conver=6) int=(grid=ultrafine)

title

0 1
p 0.000000000000000 0.000000000000000 -0.573336811624171
h 0.595171606322477 1.030867461372910 0.191112270541392
h 0.595171606322477 -1.030867461372910 0.191112270541392
h -1.190343212644953 0.000000000000000 0.191112270541392

ph3.wfx

