%nprocs=4
%mem=4GB
#p pbepbe aug-cc-pvtz output=wfx scf=(conver=6) int=(grid=ultrafine)

title

0 1
si 0.000000000000000 0.000000000000000 -1.170884226398730
h -1.204599764429825 -0.695475998259321 -1.684777976146021
h 0.000000000000000 1.390951996518638 -1.684777976146021
h 1.204599764429825 -0.695475998259321 -1.684777976146021
si 0.000000000000000 0.000000000000000 1.170884226398730
h 1.204599764429825 0.695475998259321 1.684777976146021
h -1.204599764429825 0.695475998259321 1.684777976146021
h 0.000000000000000 -1.390951996518638 1.684777976146021

si2h6.wfx

