%nprocs=4
%mem=4GB
#p pbepbe aug-cc-pvtz output=wfx scf=(conver=6) int=(grid=ultrafine)

title

0 1
si 0.000000000000000 0.000000000000000 -0.758538486109164
o 0.000000000000000 0.000000000000000 0.758538486109164

sio.wfx

