%nprocs=4
%mem=4GB
#p pbepbe aug-cc-pvtz output=wfx scf=(conver=6) int=(grid=ultrafine)

title

0 2
n 0.000000000000000 0.000000000000000 0.310468022059043
o 1.101234336174539 0.000000000000000 -0.155234011029524
o -1.101234336174539 0.000000000000000 -0.155234011029524

no2.wfx

