%nprocs=4
%mem=4GB
#p pbepbe aug-cc-pvtz output=wfx scf=(conver=6) int=(grid=ultrafine)

title

0 1
f 1.488113846002550 0.104832070929501 -0.524859981956307
o 0.483980076045943 -0.382750856281761 0.524859981956307
o -0.483980076045943 0.382750856281761 0.524859981956307
f -1.488113846002550 -0.104832070929501 -0.524859981956307

foof.wfx

