%nprocs=4
%mem=4GB
#p pbepbe aug-cc-pvtz output=wfx scf=(conver=6) int=(grid=ultrafine)

title

0 1
h 0.853686188552643 0.853686188552643 -0.853686188552643
si 0.000000000000000 0.000000000000000 0.000000000000000
h -0.853686188552643 -0.853686188552643 -0.853686188552643
h 0.853686188552643 -0.853686188552643 0.853686188552643
h -0.853686188552643 0.853686188552643 0.853686188552643

sih4.wfx

