%nprocs=4
%mem=4GB
#p pbepbe aug-cc-pvtz output=wfx scf=(conver=6) int=(grid=ultrafine)

title

0 2
c 0.000000000000000 0.000000000000000 -0.777031531637171
f 0.000000000000000 0.000000000000000 0.491254120411393

cf.wfx

