%nprocs=4
%mem=4GB
#p pbepbe aug-cc-pvtz output=wfx scf=(conver=6) int=(grid=ultrafine)

title

0 1
f -1.100771043644921 0.000000000000000 0.291353248200742
o 0.000000000000000 0.000000000000000 -0.582706496401490
f 1.100771043644921 0.000000000000000 0.291353248200742

f2o.wfx

