%nprocs=4
%mem=4GB
#p pbepbe aug-cc-pvtz output=wfx scf=(conver=6) int=(grid=ultrafine)

title

0 1
o 0.941079686125936 -0.253811478457072 0.000000000000000
n -0.265107921344662 -0.358149170871220 0.000000000000000
h -0.675971764781274 0.611960649328286 0.000000000000000

hno.wfx

