%nprocs=4
%mem=4GB
#p pbepbe aug-cc-pvtz output=wfx scf=(conver=6) int=(grid=ultrafine)

title

0 1
b 0.000000000000000 0.000000000000000 0.000000000000000
h 0.000000000000000 0.000000000000000 1.233250000675844

bh.wfx

