%nprocs=4
%mem=4GB
#p pbepbe aug-cc-pvtz output=wfx scf=(conver=6) int=(grid=ultrafine)

title

0 2
c 0.000000000000000 0.000000000000000 -1.162385912491510
h 0.000000000000000 0.000000000000000 1.113456916348842
c 0.000000000000000 0.000000000000000 0.048928996142673

c2h.wfx

