%nprocs=4
%mem=4GB
#p pbepbe aug-cc-pvtz output=wfx scf=(conver=6) int=(grid=ultrafine)

title

0 1
be 0.000000000000000 0.000000000000000 0.000000000000000
f 0.000000000000000 0.000000000000000 1.379589895927933
f 0.000000000000000 0.000000000000000 -1.379589895927933

bef2.wfx

