&control
 title='crystal',
 prefix='crystal',
 pseudo_dir='.',
 calculation='vc-relax',
/
&system
 ibrav=0,
 celldm(1)=1.0,
 nat=   120,
 ntyp=  4,
 ecutwfc=60.0,
 ecutrho=600.0,
 xdm=.true.,
 xdm_a1=0.4073,
 xdm_a2=2.4150,
/
&electrons
 conv_thr = 1d-8,
/
&ions
/
&cell
/
ATOMIC_SPECIES
h      1.007940 h.UPF
c     12.010700 c.UPF
o     15.999400 o.UPF
si    28.085500 si.UPF

ATOMIC_POSITIONS crystal
c     0.28279414     0.94436802     0.08115874
c     0.71720579     0.05563195     0.91884128
c     0.78277946     0.55564495     0.08114411
c     0.21722047     0.44435502     0.91885591
h     0.37544758     0.89981722     0.03163142
h     0.62455235     0.10018275     0.96836860
h     0.87544075     0.60021554     0.03162125
h     0.12455918     0.39978442     0.96837877
c     0.25407129     0.07221953     0.02978983
c     0.74592864     0.92778044     0.97021019
c     0.75402343     0.42778968     0.02977077
c     0.24597649     0.57221029     0.97022925
c     0.55225287     0.00443412     0.23799357
c     0.44774706     0.99556585     0.76200644
c     0.05220715     0.49546472     0.23796699
c     0.94779277     0.50453524     0.76203303
h     0.56692674     0.09206084     0.18770632
h     0.43307319     0.90793912     0.81229370
h     0.06685166     0.40783837     0.18767898
h     0.93314827     0.59216160     0.81232104
h     0.62454355     0.93107286     0.19933428
h     0.37545638     0.06892710     0.80066574
h     0.12453901     0.56882602     0.19932715
h     0.87546092     0.43117395     0.80067287
h     0.59138967     0.02192911     0.32647695
h     0.40861026     0.97807085     0.67352307
h     0.09129530     0.47797005     0.32646150
h     0.90870463     0.52202992     0.67353852
c     0.33914143     0.78195740     0.29209559
c     0.66085850     0.21804256     0.70790443
c     0.83936625     0.71801565     0.29208146
c     0.16063367     0.28198431     0.70791856
h     0.22269298     0.75187005     0.30580161
h     0.77730695     0.24812992     0.69419841
h     0.72295251     0.74816473     0.30579349
h     0.27704742     0.25183524     0.69420653
h     0.39798186     0.77085947     0.37457627
h     0.60201807     0.22914050     0.62542375
h     0.89821930     0.72906523     0.37456431
h     0.10178063     0.27093473     0.62543571
h     0.39132049     0.71787677     0.22792920
h     0.60867944     0.28212319     0.77207082
h     0.89161508     0.78207266     0.22791982
h     0.10838485     0.21792731     0.77208020
c     0.23068822     0.05893010     0.33612822
c     0.76931171     0.94106986     0.66387180
c     0.73058610     0.44110123     0.33610470
c     0.26941383     0.55889874     0.66389532
c     0.25528211     0.19956963     0.30554315
c     0.74471782     0.80043033     0.69445687
c     0.75513635     0.30044677     0.30557606
c     0.24486358     0.69955319     0.69442396
h     0.19192612     0.25972353     0.36749985
h     0.80807381     0.74027644     0.63250017
h     0.69169013     0.24032545     0.36751565
h     0.30830980     0.75967451     0.63248437
h     0.37346353     0.22724340     0.31008971
h     0.62653640     0.77275657     0.68991030
h     0.87329819     0.27276149     0.31019613
h     0.12670174     0.72723847     0.68980389
h     0.21625378     0.22312290     0.21822566
h     0.78374615     0.77687706     0.78177436
h     0.71618026     0.27686587     0.21824060
h     0.28381967     0.72313409     0.78175942
c     0.06379977     0.02615538     0.32539704
c     0.93620016     0.97384459     0.67460298
c     0.56372109     0.47386069     0.32529897
c     0.43627884     0.52613927     0.67470105
h     0.99667724     0.08468224     0.38621022
h     0.00332269     0.91531773     0.61378980
h     0.49655692     0.41537625     0.38613107
h     0.50344301     0.58462371     0.61386895
h     0.04052991     0.92643167     0.34660431
h     0.95947002     0.07356830     0.65339571
h     0.54046747     0.57359922     0.34643442
h     0.45953246     0.42640074     0.65356559
h     0.02252232     0.04407488     0.23751263
h     0.97747761     0.95592508     0.76248739
h     0.52248491     0.45585817     0.23741444
h     0.47751502     0.54414179     0.76258558
c     0.27838682     0.03747654     0.46273418
c     0.72161311     0.96252343     0.53726584
c     0.77819456     0.46261430     0.46272738
c     0.22180537     0.53738566     0.53727264
h     0.21083926     0.09710652     0.52211202
h     0.78916067     0.90289345     0.47788799
h     0.71060688     0.40297420     0.52208242
h     0.28939305     0.59702577     0.47791760
h     0.26262804     0.93843120     0.49046618
h     0.73737189     0.06156877     0.50953384
h     0.76239317     0.56166068     0.49043300
h     0.23760676     0.43833928     0.50956702
h     0.39627962     0.06298213     0.47531256
h     0.60372031     0.93701783     0.52468746
h     0.89607952     0.43715918     0.47537495
h     0.10392041     0.56284079     0.52462507
o     0.15229798     0.86441080     0.07547985
o     0.84770194     0.13558916     0.92452017
o     0.65231485     0.63559985     0.07549583
o     0.34768508     0.36440012     0.92450419
h     0.06646072     0.91297204     0.04535290
h     0.93353921     0.08702793     0.95464712
h     0.56642317     0.58702594     0.04543850
h     0.43357676     0.41297403     0.95456152
o     0.12877107     0.10771330     0.99939590
o     0.87122886     0.89228667     0.00060412
o     0.62871555     0.39227771     0.99937720
o     0.37128438     0.60772225     0.00062282
o     0.37559696     0.14510966     0.02256361
o     0.62440297     0.85489030     0.97743641
o     0.87552937     0.35491200     0.02255259
o     0.12447056     0.64508797     0.97744743
h     0.35170116     0.23179874     0.98625601
h     0.64829877     0.76820122     0.01374401
h     0.85163267     0.26820899     0.98625256
h     0.14836726     0.73179097     0.01374746
si    0.35214861     0.95060739     0.24044508
si    0.64785132     0.04939258     0.75955494
si    0.85215572     0.54936438     0.24041898
si    0.14784421     0.45063558     0.75958104

K_POINTS automatic
2 2 2 1 1 1

CELL_PARAMETERS cubic
   16.878893000000    -0.001351000000     0.266724000000
   -0.001555000000    19.888200000000    -0.000226000000
    0.025735000000    -0.000203000000    21.718828000000
