&control
 title='crystal',
 prefix='crystal',
 pseudo_dir='..',
 calculation='vc-relax',
 etot_conv_thr=1.0D-5,
/
&system
 ibrav=0,
 celldm(1)=1.0,
 nat=    56,
 ntyp=  4,
 ecutwfc=80.0,
 ecutrho=800.0,
 xdm=.true.,
 xdm_a1=0.6512,
 xdm_a2=1.4633,
/
&electrons
 conv_thr = 1d-8,
/
&ions
/
&cell
/
ATOMIC_SPECIES
h      1.007940 h.UPF
c     12.010700 c.UPF
n     14.006700 n.UPF
o     15.999400 o.UPF

ATOMIC_POSITIONS crystal
c        0.248997497   0.407625977   0.164246713
c        0.251004510   0.907624995   0.835756957
c        0.751002503   0.592374023   0.835753287
c        0.748995490   0.092375005   0.164243043
c        0.254868095   0.280985371   0.379712102
c        0.245132213   0.780986459   0.620287146
c        0.745131905   0.719014629   0.620287898
c        0.754867787   0.219013541   0.379712854
c        0.388447155   0.210334540   0.473150597
c        0.111553307   0.710337148   0.526848920
c        0.611552845   0.789665460   0.526849403
c        0.888446693   0.289662852   0.473151080
n        0.150481942   0.172253483   0.251617625
n        0.349518504   0.672253775   0.748381654
n        0.849518058   0.827746517   0.748382375
n        0.650481496   0.327746225   0.251618346
o        0.160491594   0.404566961   0.925032173
o        0.339507719   0.904565940   0.074966740
o        0.839508406   0.595433039   0.074967827
o        0.660492281   0.095434060   0.925033260
o        0.333307530   0.508636911   0.244668670
o        0.166691091   0.008638908   0.755330624
o        0.666692470   0.491363089   0.755331330
o        0.833308909   0.991361092   0.244669376
o        0.432164508   0.168159759   0.228466042
o        0.067836467   0.668162217   0.771534584
o        0.567835492   0.831840241   0.771533958
o        0.932163533   0.331837783   0.228465416
h        0.233125507   0.326116466   0.575063201
h        0.266875026   0.826117909   0.424936044
h        0.766874493   0.673883534   0.424936799
h        0.733124974   0.173882091   0.575063956
h        0.388899007   0.115953075   0.616843205
h        0.111100866   0.615956330   0.383156075
h        0.611100993   0.884046925   0.383156795
h        0.888899134   0.384043670   0.616843925
h        0.456464272   0.291341771   0.600387277
h        0.043535869   0.791345763   0.399613203
h        0.543535728   0.708658229   0.399612723
h        0.956464131   0.208654237   0.600386797
h        0.163085158   0.119019419   0.065262097
h        0.336914919   0.619019075   0.934737505
h        0.836914842   0.880980581   0.934737903
h        0.663085081   0.380980925   0.065262495
h        0.147338001   0.095045370   0.412723919
h        0.352662511   0.595045506   0.587275645
h        0.852661999   0.904954630   0.587276081
h        0.647337489   0.404954494   0.412724355
h        0.062420641   0.229587410   0.195326295
h        0.437579367   0.729586794   0.804673940
h        0.937579359   0.770412590   0.804673705
h        0.562420633   0.270413206   0.195326060
h        0.399968792   0.065898172   0.168724890
h        0.100031491   0.565900192   0.831274249
h        0.600031208   0.934101828   0.831275110
h        0.899968509   0.434099808   0.168725751

K_POINTS automatic
4 4 4 1 1 1

CELL_PARAMETERS cubic
  20.366740904   0.000020854   0.089861683
   0.000017835  17.205212465   0.000023353
  -2.556680343   0.000008733   8.632015560
