&control
 title='crystal',
 prefix='crystal',
 pseudo_dir='.',
 calculation='vc-relax',
/
&system
 ibrav=0,
 celldm(1)=1.0,
 nat=    56,
 ntyp=  4,
 ecutwfc=60.0,
 ecutrho=600.0,
 xdm=.true.,
 xdm_a1=0.4073,
 xdm_a2=2.4150,
/
&electrons
 conv_thr = 1d-8,
/
&ions
/
&cell
/
ATOMIC_SPECIES
h      1.007940 h.UPF
c     12.010700 c.UPF
n     14.006700 n.UPF
o     15.999400 o.UPF

ATOMIC_POSITIONS crystal
c     0.24899749     0.40762599     0.16424671
c     0.75100248     0.59237402     0.83575325
c     0.25100448     0.90762500     0.83575694
c     0.74899548     0.09237500     0.16424302
c     0.25486808     0.28098537     0.37971208
c     0.74513188     0.71901464     0.62028787
c     0.24513219     0.78098647     0.62028713
c     0.75486777     0.21901354     0.37971282
c     0.38844714     0.21033454     0.47315056
c     0.61155282     0.78966547     0.52684939
c     0.11155329     0.71033716     0.52684891
c     0.88844667     0.28966285     0.47315104
n     0.15048194     0.17225348     0.25161761
n     0.84951803     0.82774652     0.74838234
n     0.34951848     0.67225378     0.74838163
n     0.65048149     0.32774622     0.25161832
o     0.16049157     0.40456695     0.92503214
o     0.83950839     0.59543305     0.07496782
o     0.33950771     0.90456596     0.07496676
o     0.66049225     0.09543405     0.92503320
o     0.33330752     0.50863692     0.24466866
o     0.66669245     0.49136309     0.75533129
o     0.16669107     0.00863889     0.75533057
o     0.83330889     0.99136111     0.24466938
o     0.43216450     0.16815976     0.22846602
o     0.56783547     0.83184025     0.77153393
o     0.06783645     0.66816223     0.77153457
o     0.93216352     0.33183778     0.22846539
h     0.23312549     0.32611647     0.57506318
h     0.76687448     0.67388354     0.42493677
h     0.26687501     0.82611792     0.42493605
h     0.73312495     0.17388208     0.57506390
h     0.38889899     0.11595307     0.61684317
h     0.61110097     0.88404694     0.38315679
h     0.11110085     0.61595634     0.38315608
h     0.88889911     0.38404367     0.61684388
h     0.45646425     0.29134176     0.60038725
h     0.54353571     0.70865824     0.39961271
h     0.04353586     0.79134578     0.39961322
h     0.95646411     0.20865423     0.60038674
h     0.16308516     0.11901942     0.06526209
h     0.83691481     0.88098058     0.93473786
h     0.33691489     0.61901907     0.93473747
h     0.66308507     0.38098093     0.06526248
h     0.14733799     0.09504537     0.41272390
h     0.85266197     0.90495464     0.58727605
h     0.35266249     0.59504551     0.58727562
h     0.64733747     0.40495450     0.41272433
h     0.06242063     0.22958741     0.19532629
h     0.93757933     0.77041259     0.80467366
h     0.43757934     0.72958680     0.80467391
h     0.56242062     0.27041321     0.19532604
h     0.39996878     0.06589817     0.16872487
h     0.60003118     0.93410184     0.83127508
h     0.10003147     0.56590019     0.83127423
h     0.89996850     0.43409981     0.16872572

K_POINTS automatic
2 2 2 1 1 1

CELL_PARAMETERS cubic
   20.366741000000     0.000021000000     0.089862000000
    0.000018000000    17.205212000000     0.000023000000
   -2.556680000000     0.000009000000     8.632016000000
