&control
 title='crystal',
 prefix='crystal',
 pseudo_dir='.',
 calculation='vc-relax',
/
&system
 ibrav=0,
 celldm(1)=1.0,
 nat=    80,
 ntyp=  3,
 ecutwfc=60.0,
 ecutrho=600.0,
 xdm=.true.,
 xdm_a1=0.4073,
 xdm_a2=2.4150,
/
&electrons
 conv_thr = 1d-8,
/
&ions
/
&cell
/
ATOMIC_SPECIES
h      1.007940 h.UPF
c     12.010700 c.UPF
o     15.999400 o.UPF

ATOMIC_POSITIONS crystal
c     0.94181183     0.06594690     0.62850607
c     0.05818817     0.93405311     0.37149395
c     0.94181173     0.43405269     0.12850598
c     0.05818827     0.56594732     0.87149403
c     0.83215215     0.13463473     0.71821513
c     0.16784785     0.86536528     0.28178488
c     0.83215205     0.36536486     0.21821505
c     0.16784796     0.63463514     0.78178497
c     0.58272587     0.19508308     0.67813212
c     0.41727412     0.80491693     0.32186790
c     0.58272578     0.30491651     0.17813204
c     0.41727423     0.69508350     0.82186798
c     0.58516092     0.33461763     0.59577770
c     0.41483908     0.66538238     0.40422231
c     0.58516082     0.16538196     0.09577762
c     0.41483918     0.83461805     0.90422240
c     0.70582598     0.26242777     0.51176490
c     0.29417402     0.73757223     0.48823511
c     0.70582588     0.23757181     0.01176482
c     0.29417412     0.76242819     0.98823520
h     0.12839736     0.03827645     0.65315335
h     0.87160264     0.96172356     0.34684666
h     0.12839726     0.46172314     0.15315327
h     0.87160274     0.53827686     0.84684675
h     0.90912317     0.86160267     0.54007244
h     0.09087683     0.13839734     0.45992758
h     0.90912307     0.63839692     0.04007235
h     0.09087693     0.36160309     0.95992766
h     0.93678143     0.24475833     0.75198606
h     0.06321857     0.75524168     0.24801395
h     0.93678133     0.25524126     0.25198598
h     0.06321867     0.74475875     0.74801404
h     0.73596179     0.91079799     0.77378493
h     0.26403820     0.08920202     0.22621509
h     0.73596170     0.58920160     0.27378484
h     0.26403831     0.41079841     0.72621517
h     0.48309254     0.08401827     0.64122224
h     0.51690746     0.91598174     0.35877777
h     0.48309244     0.41598132     0.14122216
h     0.51690757     0.58401869     0.85877786
h     0.42631783     0.16268580     0.79933703
h     0.57368217     0.83731420     0.20066298
h     0.42631773     0.33731378     0.29933695
h     0.57368227     0.66268622     0.70066307
h     0.40430341     0.36580913     0.56207646
h     0.59569658     0.63419088     0.43792355
h     0.40430332     0.13419046     0.06207638
h     0.59569669     0.86580955     0.93792364
h     0.86213065     0.48287428     0.65300046
h     0.13786935     0.51712573     0.34699956
h     0.86213055     0.01712531     0.15300038
h     0.13786945     0.98287470     0.84699964
h     0.60137478     0.15676899     0.47205116
h     0.39862522     0.84323101     0.52794886
h     0.60137468     0.34323059     0.97205107
h     0.39862532     0.65676941     0.02794894
h     0.73056427     0.36209563     0.45611609
h     0.26943573     0.63790438     0.54388392
h     0.73056417     0.13790396     0.95611601
h     0.26943583     0.86209605     0.04388401
o     0.81960852     0.91829019     0.58868695
o     0.18039148     0.08170981     0.41131307
o     0.81960842     0.58170939     0.08868687
o     0.18039159     0.41829061     0.91131315
o     0.84410117     0.00916103     0.79791333
o     0.15589883     0.99083898     0.20208668
o     0.84410107     0.49083856     0.29791325
o     0.15589893     0.50916145     0.70208677
o     0.47169630     0.26124232     0.75849449
o     0.52830369     0.73875769     0.24150552
o     0.47169621     0.23875727     0.25849441
o     0.52830380     0.76124274     0.74150561
o     0.68897721     0.49413147     0.63633087
o     0.31102279     0.50586854     0.36366914
o     0.68897711     0.00586812     0.13633079
o     0.31102290     0.99413189     0.86366923
o     0.93960214     0.20209376     0.55318360
o     0.06039786     0.79790625     0.44681642
o     0.93960204     0.29790583     0.05318351
o     0.06039796     0.70209418     0.94681650

K_POINTS automatic
2 2 2 1 1 1

CELL_PARAMETERS cubic
   10.988343000000     0.000002000000    -0.041452000000
    0.000003000000    14.599201000000     0.000004000000
   -4.157972000000     0.000006000000    24.717833000000
