## FHIaims input file generated by critic2.
lattice_vector 3.3449999951       0.0000000000       0.0000000000       
lattice_vector -1.6725000024      2.8968549743       0.0000000000       
lattice_vector 0.0000000000       0.0000000000       6.7480000000       
atom_frac  0.3333339100       0.6666669600       0.2303408400       Se
atom_frac  0.6666678200       0.3333339100       0.7696591600       Se
atom_frac  0.0000000000       0.0000000000       0.0000000000       V 
