## FHIaims input file generated by critic2.
lattice_vector 3.7599999929       0.0000000000       0.0000000000       
lattice_vector -1.8800000036      3.2562555162       0.0000000000       
lattice_vector 0.0000000000       0.0000000000       5.6800000000       
atom_frac  0.3333337900       0.6666669000       0.3000422500       Te
atom_frac  0.6666675900       0.3333337900       0.6999577500       Te
atom_frac  0.0000000000       0.0000000000       0.0000000000       Ti
