&control
 title='crystal',
 prefix='crystal',
 pseudo_dir='.',
 calculation='vc-relax',
/
&system
 ibrav=0,
 celldm(1)=1.0,
 nat=    40,
 ntyp=  4,
 ecutwfc=60.0,
 ecutrho=600.0,
 xdm=.true.,
 xdm_a1=0.4073,
 xdm_a2=2.4150,
/
&electrons
 conv_thr = 1d-8,
/
&ions
/
&cell
/
ATOMIC_SPECIES
h      1.007940 h.UPF
c     12.010700 c.UPF
n     14.006700 n.UPF
o     15.999400 o.UPF

ATOMIC_POSITIONS crystal
c     0.45642228     0.75125114     0.49370573
c     0.54357709     0.25125273     0.50629438
c     0.38842874     0.81050103     0.64082826
c     0.61157064     0.31050263     0.35917185
c     0.37965108     0.64242937     0.73876387
c     0.62034829     0.14243096     0.26123624
c     0.30697526     0.69101634     0.88247645
c     0.69302411     0.19101793     0.11752366
c     0.07383574     0.81083055     0.03525473
c     0.92616363     0.31083214     0.96474537
c     0.42812054     0.64579520     0.01593318
c     0.57187883     0.14579679     0.98406692
h     0.57414203     0.57783336     0.74985380
h     0.42585734     0.07783496     0.25014631
h     0.23935643     0.54214120     0.68593959
h     0.76064294     0.04214279     0.31406052
h     0.92457508     0.88533503     0.08345554
h     0.07542429     0.38533662     0.91654457
h     0.60373383     0.56699586     0.04934922
h     0.39626555     0.06699746     0.95065089
h     0.30384232     0.71397835     0.22265704
h     0.69615705     0.21397994     0.77734307
h     0.06469398     0.91177368     0.72765482
h     0.93530539     0.41177527     0.27234529
h     0.16054095     0.04395777     0.59089773
h     0.83945842     0.54395936     0.40910238
h     0.98621788     0.84302447     0.55912907
h     0.01378149     0.34302607     0.44087104
n     0.13211375     0.91060494     0.62724683
n     0.86788563     0.41060653     0.37275327
n     0.08384644     0.79491587     0.89611939
n     0.91615293     0.29491746     0.10388072
n     0.27721898     0.72252014     0.11134381
n     0.72278040     0.22252173     0.88865629
o     0.26732296     0.72084852     0.39812221
o     0.73267641     0.22085011     0.60187790
o     0.69948576     0.73125631     0.48193788
o     0.30051362     0.23125790     0.51806223
h     0.54009551     0.90563562     0.68799386
h     0.45990387     0.40563722     0.31200624

K_POINTS automatic
2 2 2 1 1 1

CELL_PARAMETERS cubic
    9.676872000000     0.000002000000     0.006732000000
    0.000002000000    13.789791000000    -0.000002000000
   -2.196077000000    -0.000003000000    17.768330000000
