&control
 title='crystal',
 prefix='crystal',
 pseudo_dir='..',
 calculation='vc-relax',
 etot_conv_thr=1.0D-5,
/
&system
 ibrav=0,
 celldm(1)=1.0,
 nat=    40,
 ntyp=  4,
 ecutwfc=80.0,
 ecutrho=800.0,
 xdm=.true.,
 xdm_a1=0.6512,
 xdm_a2=1.4633,
/
&electrons
 conv_thr = 1d-8,
/
&ions
/
&cell
/
ATOMIC_SPECIES
h      1.007940 h.UPF
c     12.010700 c.UPF
n     14.006700 n.UPF
o     15.999400 o.UPF

ATOMIC_POSITIONS crystal
c        0.456422246   0.751251153   0.493705732
c        0.543577063   0.251252749   0.506294384
c        0.388428701   0.810501045   0.640828263
c        0.611570999   0.310501989   0.359171767
c        0.379651049   0.642429390   0.738763867
c        0.620348955   0.142429971   0.261236251
c        0.306975235   0.691016359   0.882476448
c        0.693025364   0.191016464   0.117523701
c        0.073835723   0.810830541   0.035254742
c        0.926164888   0.310830743   0.964745502
c        0.428120525   0.645795208   0.015933196
c        0.571879856   0.145795708   0.984066894
h        0.574141990   0.577833387   0.749853805
h        0.425858227   0.077833631   0.250145692
h        0.239356404   0.542141210   0.685939588
h        0.760643393   0.042141441   0.314060313
h       -0.075424937   0.885335019   0.083455543
h        1.075425426   0.385335312   0.916544748
h        0.603733807   0.566995880   0.049349233
h        0.396266707   0.066996395   0.950650827
h        0.303842307   0.713978356   0.222657050
h        0.696158019   0.213978881   0.777343195
h        0.064693955   0.911773681   0.727654818
h        0.935305595   0.411773606   0.272344953
h        0.160540931   0.043957782   0.590897726
h        0.839458900   0.543958008   0.409102113
h       -0.013782142   0.843024471   0.559129072
h        1.013782023   0.343024568   0.440870689
n        0.132113716   0.910604947   0.627246835
n        0.867886044   0.410605178   0.372753032
n        0.083846409   0.794915874   0.896119384
n        0.916154231   0.294915854   0.103880852
n        0.277218961   0.722520141   0.111343822
n        0.722781528   0.222520565   0.888656378
o        0.267322938   0.720848532   0.398122215
o        0.732676146   0.220848841   0.601877791
o        0.699485723   0.731256329   0.481937886
o        0.300513582   0.231257130   0.518062063
h        0.540095468   0.905635645   0.687993871
h        0.459904047   0.405636016   0.312005757

K_POINTS automatic
4 4 4 1 1 1

CELL_PARAMETERS cubic
   9.676872214   0.000001525   0.006731692
   0.000002176  13.789791069  -0.000002143
  -2.196076830  -0.000003110  17.768330236
