&control
 title='crystal',
 prefix='crystal',
 pseudo_dir='.',
 calculation='vc-relax',
/
&system
 ibrav=0,
 celldm(1)=1.0,
 nat=    80,
 ntyp=  4,
 ecutwfc=60.0,
 ecutrho=600.0,
 xdm=.true.,
 xdm_a1=0.4073,
 xdm_a2=2.4150,
/
&electrons
 conv_thr = 1d-8,
/
&ions
/
&cell
/
ATOMIC_SPECIES
h      1.007940 h.UPF
c     12.010700 c.UPF
n     14.006700 n.UPF
o     15.999400 o.UPF

ATOMIC_POSITIONS crystal
c     0.49209251     0.59096685     0.74090350
c     0.99209136     0.90902788     0.25909498
c     0.50790864     0.09097207     0.75909496
c     0.00790749     0.40903313     0.24090353
c     0.40882898     0.67041219     0.64114261
c     0.90882782     0.82958253     0.35885586
c     0.59117218     0.17041742     0.85885584
c     0.09117103     0.32958778     0.14114265
c     0.34002816     0.53262205     0.62762435
c     0.84002700     0.96737268     0.37237412
c     0.65997300     0.03262728     0.87237410
c     0.15997185     0.46737792     0.12762438
c     0.36400783     0.37957602     0.45658640
c     0.86400668     0.12041871     0.54341207
c     0.63599332     0.87958125     0.04341205
c     0.13599217     0.62042395     0.95658643
c     0.30008572     0.23508493     0.46367081
c     0.80008456     0.26490979     0.53632766
c     0.69991543     0.73509016     0.03632764
c     0.19991428     0.76491504     0.96367084
h     0.45527607     0.67697631     0.24858240
h     0.95527492     0.82301841     0.75141608
h     0.54472508     0.17698154     0.25141606
h     0.04472393     0.32302366     0.74858243
h     0.32786189     0.48951764     0.82967868
h     0.82786073     0.01047709     0.17031979
h     0.67213926     0.98952286     0.67031977
h     0.17213811     0.51048234     0.32967871
h     0.28193120     0.59209107     0.55374268
h     0.78193004     0.90790365     0.44625579
h     0.71806996     0.09209630     0.94625577
h     0.21806881     0.40790890     0.05374271
h     0.27151851     0.01031518     0.26421170
h     0.77151735     0.48967955     0.73578678
h     0.72848265     0.51032040     0.23578675
h     0.22848150     0.98968480     0.76421173
h     0.35675949     0.12458896     0.13873596
h     0.85675833     0.37540576     0.86126251
h     0.64324167     0.62459419     0.36126249
h     0.14324051     0.87541101     0.63873599
h     0.37531591     0.41731540     0.25067031
h     0.87531475     0.08267932     0.74932816
h     0.62468524     0.91732063     0.24932814
h     0.12468409     0.58268457     0.75067034
h     0.36329575     0.77902629     0.29094574
h     0.86329459     0.72096843     0.70905273
h     0.63670540     0.27903152     0.20905271
h     0.13670425     0.22097368     0.79094577
h     0.42381323     0.32359807     0.52491152
h     0.92381207     0.17639666     0.47508696
h     0.57618792     0.82360329     0.97508694
h     0.07618677     0.67640191     0.02491155
h     0.45329156     0.87323514     0.40924548
h     0.95329040     0.62675959     0.59075300
h     0.54670960     0.37324037     0.09075298
h     0.04670845     0.12676483     0.90924551
h     0.38922028     0.77172838     0.77847842
h     0.88921912     0.72826635     0.22152005
h     0.61078087     0.27173361     0.72152003
h     0.11077972     0.22827159     0.27847845
n     0.42121847     0.75547178     0.37898142
n     0.92121732     0.74452295     0.62101705
n     0.57878268     0.25547700     0.12101703
n     0.07878153     0.24452820     0.87898145
n     0.30751959     0.11933159     0.26992093
n     0.80751843     0.38066313     0.73007755
n     0.69248156     0.61933682     0.23007753
n     0.19248041     0.88066838     0.76992096
o     0.55226101     0.57010567     0.58329520
o     0.05225985     0.92988906     0.41670327
o     0.44774015     0.07011090     0.91670325
o     0.94773900     0.42989430     0.08329523
o     0.24497879     0.22528130     0.64165590
o     0.74497764     0.27471342     0.35834258
o     0.75502236     0.72528653     0.85834256
o     0.25502121     0.77471867     0.14165593
o     0.49034899     0.54468270     0.98360217
o     0.99034783     0.95531203     0.01639631
o     0.50965217     0.04468793     0.51639629
o     0.00965102     0.45531727     0.48360220

K_POINTS automatic
2 2 2 1 1 1

CELL_PARAMETERS cubic
   29.931199000000     0.000008000000     0.000000000000
    0.000002000000    14.727894000000     0.000000000000
    0.000000000000     0.000000000000     9.570172000000
