&control
 title='crystal',
 prefix='crystal',
 pseudo_dir='.',
 calculation='vc-relax',
/
&system
 ibrav=0,
 celldm(1)=1.0,
 nat=   124,
 ntyp=  3,
 ecutwfc=60.0,
 ecutrho=600.0,
 xdm=.true.,
 xdm_a1=0.4073,
 xdm_a2=2.4150,
/
&electrons
 conv_thr = 1d-8,
/
&ions
/
&cell
/
ATOMIC_SPECIES
h      1.007940 h.UPF
c     12.010700 c.UPF
o     15.999400 o.UPF

ATOMIC_POSITIONS crystal
o     0.88581567     0.86237232     0.78123807
o     0.11418429     0.13762769     0.21876192
o     0.38581569     0.63762770     0.28123808
o     0.61418427     0.36237232     0.71876191
o     0.00798657     0.81173272     0.06407544
o     0.99201340     0.18826729     0.93592455
o     0.50798658     0.68826730     0.56407545
o     0.49201338     0.31173271     0.43592454
c     0.79898026     0.92924884     0.80576444
c     0.20101970     0.07075117     0.19423554
c     0.29898028     0.57075118     0.30576445
c     0.70101968     0.42924883     0.69423553
c     0.77563515     0.91974495     0.94282920
c     0.22436482     0.08025506     0.05717079
c     0.27563516     0.58025507     0.44282921
c     0.72436480     0.41974495     0.55717078
c     0.61181440     0.91952242     0.91052759
c     0.38818556     0.08047759     0.08947240
c     0.11181442     0.58047760     0.41052760
c     0.88818554     0.41952242     0.58947238
c     0.53074054     0.02554571     0.81426391
c     0.46925943     0.97445430     0.18573608
c     0.03074056     0.47445431     0.31426391
c     0.96925941     0.52554571     0.68573607
c     0.55074084     0.02291068     0.67499526
c     0.44925912     0.97708933     0.32500473
c     0.05074086     0.47708934     0.17499526
c     0.94925910     0.52291067     0.82500472
c     0.71238899     0.02556317     0.70158797
c     0.28761098     0.97443684     0.29841201
c     0.21238900     0.47443685     0.20158798
c     0.78761096     0.52556317     0.79841200
c     0.85497849     0.80806892     0.03298729
c     0.14502148     0.19193109     0.96701270
c     0.35497850     0.69193109     0.53298730
c     0.64502146     0.30806892     0.46701269
c     0.83386922     0.79829444     0.16999249
c     0.16613074     0.20170557     0.83000750
c     0.33386924     0.70170558     0.66999250
c     0.66613072     0.29829443     0.33000749
c     0.90259024     0.87875166     0.28381241
c     0.09740972     0.12124835     0.71618757
c     0.40259026     0.62124836     0.78381242
c     0.59740970     0.37875166     0.21618756
c     0.87707651     0.86896773     0.40730631
c     0.12292345     0.13103228     0.59269368
c     0.37707653     0.63103229     0.90730631
c     0.62292343     0.36896773     0.09269367
c     0.78278512     0.77977926     0.41898579
c     0.21721485     0.22022075     0.58101420
c     0.28278513     0.72022076     0.91898580
c     0.71721483     0.27977925     0.08101419
c     0.71458909     0.69940977     0.30628106
c     0.28541088     0.30059024     0.69371893
c     0.21458910     0.80059025     0.80628107
c     0.78541086     0.19940977     0.19371892
c     0.74068918     0.70858450     0.18323059
c     0.25931078     0.29141551     0.81676940
c     0.24068920     0.79141552     0.68323060
c     0.75931076     0.20858449     0.31676939
h     0.82360396     0.00421010     0.00264662
h     0.17639600     0.99578991     0.99735336
h     0.32360398     0.49578992     0.50264663
h     0.67639598     0.50421010     0.49735335
h     0.56503396     0.83181559     0.85973293
h     0.43496600     0.16818442     0.14026706
h     0.06503398     0.66818443     0.35973293
h     0.93496598     0.33181558     0.64026705
h     0.59893187     0.92247054     0.01130529
h     0.40106809     0.07752947     0.98869470
h     0.09893189     0.57752948     0.51130530
h     0.90106807     0.42247054     0.48869469
h     0.56893546     0.11385049     0.86831023
h     0.43106451     0.88614952     0.13168976
h     0.06893547     0.38614953     0.36831023
h     0.93106449     0.61385049     0.63168975
h     0.41474050     0.01919850     0.79199414
h     0.58525946     0.98080151     0.20800585
h     0.91474052     0.48080152     0.29199414
h     0.08525944     0.51919850     0.70800584
h     0.50218783     0.93848852     0.61678306
h     0.49781214     0.06151149     0.38321693
h     0.00218784     0.56151150     0.11678306
h     0.99781212     0.43848851     0.88321692
h     0.49526768     0.10082676     0.60747980
h     0.50473228     0.89917325     0.39252019
h     0.99526770     0.39917326     0.10747980
h     0.00473226     0.60082676     0.89252018
h     0.75985256     0.11446687     0.74923096
h     0.24014741     0.88553314     0.25076903
h     0.25985257     0.38553315     0.24923096
h     0.74014739     0.61446687     0.75076902
h     0.72967100     0.01406252     0.60341878
h     0.27032896     0.98593749     0.39658121
h     0.22967102     0.48593750     0.10341878
h     0.77032894     0.51406251     0.89658120
h     0.80727672     0.72524194     0.96972569
h     0.19272325     0.27475807     0.03027430
h     0.30727673     0.77475808     0.46972570
h     0.69272323     0.22524193     0.53027428
h     0.97697998     0.94817717     0.27584115
h     0.02301998     0.05182284     0.72415883
h     0.47698000     0.55182285     0.77584116
h     0.52301996     0.44817716     0.22415882
h     0.93051628     0.93050119     0.49651182
h     0.06948368     0.06949882     0.50348816
h     0.43051630     0.56949883     0.99651183
h     0.56948366     0.43050118     0.00348815
h     0.76413497     0.77402723     0.51616485
h     0.23586499     0.22597278     0.48383514
h     0.26413499     0.72597279     0.01616486
h     0.73586497     0.27402723     0.98383512
h     0.63969133     0.63001081     0.31244118
h     0.36030864     0.36998920     0.68755881
h     0.13969134     0.86998921     0.81244119
h     0.86030862     0.13001080     0.18755879
h     0.68756183     0.64530318     0.09556708
h     0.31243813     0.35469683     0.90443291
h     0.18756185     0.85469684     0.59556708
h     0.81243811     0.14530318     0.40443290
h     0.00902563     0.81557295     0.96884816
h     0.99097433     0.18442706     0.03115182
h     0.50902565     0.68442707     0.46884817
h     0.49097431     0.31557294     0.53115181

K_POINTS automatic
2 2 2 1 1 1

CELL_PARAMETERS cubic
   19.006994000000     0.000000000000    -0.171918000000
    0.000000000000    20.572469000000     0.000000000000
   -7.608168000000     0.000000000000    17.861112000000
