&control
 title='crystal',
 prefix='crystal',
 pseudo_dir='../..',
 forc_conv_thr=1.0D-4,
 etot_conv_thr=1.0D-5,
/
&system
 ibrav=0,
 nat=    28,
 ntyp=  2,
 ecutwfc=80.0,
 ecutrho=800.0,
 vdw_corr='xdm',
 nosym=.true.,
/
&electrons
 conv_thr = 1d-10,
/
&ions
/
&cell
 press_conv_thr=0.01,
/
ATOMIC_SPECIES
C    12.010700 c.UPF
H     1.007940 h.UPF

ATOMIC_POSITIONS crystal
C             0.4509353123        0.0427318030        0.5733983694
C             0.0490642556        0.5427317621        0.9266032107
C             0.4994009765        0.1508148298        0.7227575550
C             1.0005988642        0.6508155729        0.7772429699
C             0.2155401304        0.0978607503        0.7008384266
C             0.2844603827        0.5978614355        0.7991620830
C             0.5490452098        0.9572777471        0.4266048486
C             0.9509561590        0.4572793856        0.0733950141
C             0.5005804890        0.8491933813        0.2772525671
C            -0.0005799270        0.3491939390        0.2227484550
C             0.7844418840        0.9021483187        0.2991679614
C             0.7155578956        0.4021490949        0.2008334240
H             0.6084127022        0.1563071556        0.9726570241
H             0.8915879572        0.6563079915        0.5273436870
H             0.5322255995        0.2193271663        0.5555656312
H             0.9677742687        0.7193277963        0.9444357174
H             0.0587928809        0.1308732997        0.5198708245
H             0.4412074749        0.6308739571        0.9801297473
H             0.1400855939        0.0689216902        0.9364369461
H             0.3599143856        0.5689228111        0.5635631766
H             0.3915677676        0.8437019261        0.0273552234
H             0.1084321214        0.3437027809        0.4726455523
H             0.4677518460        0.7806839007        0.4444555223
H             0.0322490779        0.2806849674        0.0555453542
H             0.9411830576        0.8691383123        0.4801467318
H             0.5588175386        0.3691393318        0.0198538734
H             0.8599001619        0.9310883947        0.0635723064
H             0.6401003636        0.4310890181        0.4364284569

K_POINTS automatic
5 2 7  1 1 1

CELL_PARAMETERS bohr
   9.304668399  -0.000000489   0.028734814
  -0.000001401  23.243512873  -0.000001006
  -0.603678345  -0.000000440   7.451338281
