&control
 title='crystal',
 prefix='crystal',
 pseudo_dir='.',
 calculation='vc-relax',
/
&system
 ibrav=0,
 celldm(1)=1.0,
 nat=   104,
 ntyp=  4,
 ecutwfc=60.0,
 ecutrho=600.0,
 xdm=.true.,
 xdm_a1=0.4073,
 xdm_a2=2.4150,
/
&electrons
 conv_thr = 1d-8,
/
&ions
/
&cell
/
ATOMIC_SPECIES
h      1.007940 h.UPF
c     12.010700 c.UPF
n     14.006700 n.UPF
o     15.999400 o.UPF

ATOMIC_POSITIONS crystal
c     0.79404935     0.05326716     0.38568273
c     0.20595066     0.94673281     0.61431728
c     0.79404935     0.44673282     0.88568275
c     0.20595065     0.55326716     0.11431727
h     0.88033462     0.97199099     0.43746340
h     0.11966539     0.02800898     0.56253662
h     0.88033462     0.52800899     0.93746342
h     0.11966539     0.47199098     0.06253660
h     0.84613172     0.15531904     0.34331035
h     0.15386828     0.84468093     0.65668967
h     0.84613173     0.34468095     0.84331037
h     0.15386828     0.65531903     0.15668965
c     0.68233991     0.94729835     0.29700924
c     0.31766010     0.05270162     0.70299078
c     0.68233991     0.55270164     0.79700925
c     0.31766009     0.44729834     0.20299077
h     0.70867868     0.94119229     0.21019873
h     0.29132132     0.05880769     0.78980129
h     0.70867868     0.55880770     0.71019874
h     0.29132132     0.44119228     0.28980128
h     0.68031552     0.81445886     0.32962901
h     0.31968449     0.18554112     0.67037101
h     0.68031552     0.68554113     0.82962902
h     0.31968449     0.31445885     0.17037100
c     0.53682252     0.03640219     0.29615037
c     0.46317749     0.96359778     0.70384965
c     0.53682252     0.46359780     0.79615039
c     0.46317748     0.53640218     0.20384963
h     0.50766555     0.13309681     0.22532904
h     0.49233445     0.86690317     0.77467098
h     0.50766556     0.36690318     0.72532905
h     0.49233445     0.63309680     0.27467097
h     0.44446340     0.94751414     0.28638083
h     0.55553660     0.05248583     0.71361919
h     0.44446341     0.55248585     0.78638084
h     0.55553660     0.44751413     0.21361917
c     0.56074962     0.12873084     0.41423094
c     0.43925039     0.87126913     0.58576908
c     0.56074962     0.37126915     0.91423095
c     0.43925039     0.62873083     0.08576907
c     0.77176140     0.21787597     0.57167653
c     0.22823861     0.78212400     0.42832349
c     0.77176140     0.28212401     0.07167654
c     0.22823860     0.71787596     0.92832348
h     0.67945753     0.25711795     0.61004559
h     0.32054247     0.74288202     0.38995443
h     0.67945753     0.24288204     0.11004560
h     0.32054247     0.75711794     0.88995442
c     0.86892670     0.09393090     0.65985271
c     0.13107331     0.90606907     0.34014731
c     0.86892670     0.40606908     0.15985273
c     0.13107330     0.59393090     0.84014729
c     0.85562965     0.37995270     0.54925303
c     0.14437036     0.62004727     0.45074698
c     0.85562965     0.12004728     0.04925305
c     0.14437035     0.87995270     0.95074697
h     0.90156592     0.44239817     0.63400408
h     0.09843409     0.55760180     0.36599594
h     0.90156592     0.05760182     0.13400409
h     0.09843409     0.94239816     0.86599593
h     0.94900552     0.34036280     0.51302206
h     0.05099449     0.65963717     0.48697796
h     0.94900552     0.15963719     0.01302207
h     0.05099448     0.84036279     0.98697795
c     0.76013940     0.50685464     0.46588057
c     0.23986060     0.49314534     0.53411945
c     0.76013940     0.99314535     0.96588058
c     0.23986060     0.00685463     0.03411944
h     0.72531046     0.45256234     0.37695112
h     0.27468955     0.54743763     0.62304890
h     0.72531046     0.04743764     0.87695113
h     0.27468955     0.95256234     0.12304889
h     0.82044393     0.62607428     0.45783974
h     0.17955608     0.37392570     0.54216028
h     0.82044393     0.87392571     0.95783976
h     0.17955607     0.12607427     0.04216026
h     0.66219593     0.54313357     0.49678741
h     0.33780407     0.45686641     0.50321261
h     0.66219594     0.95686642     0.99678743
h     0.33780407     0.04313356     0.00321259
n     0.70602385     0.12925227     0.46244600
n     0.29397615     0.87074770     0.53755402
n     0.70602386     0.37074772     0.96244601
n     0.29397615     0.62925226     0.03755401
n     0.82674726     0.92759853     0.65781215
n     0.17325274     0.07240144     0.34218787
n     0.82674726     0.57240146     0.15781216
n     0.17325274     0.42759852     0.84218786
o     0.46554585     0.19470304     0.45970106
o     0.53445415     0.80529694     0.54029896
o     0.46554586     0.30529695     0.95970107
o     0.53445415     0.69470303     0.04029895
o     0.98074258     0.14937188     0.72872571
o     0.01925743     0.85062809     0.27127431
o     0.98074258     0.35062811     0.22872572
o     0.01925743     0.64937187     0.77127429
h     0.72915601     0.88575176     0.60660957
h     0.27084400     0.11424822     0.39339045
h     0.72915601     0.61424823     0.10660958
h     0.27084399     0.38575175     0.89339044
h     0.89218967     0.84027820     0.71158251
h     0.10781033     0.15972177     0.28841751
h     0.89218968     0.65972179     0.21158253
h     0.10781033     0.34027819     0.78841749

K_POINTS automatic
2 2 2 1 1 1

CELL_PARAMETERS cubic
   17.788156000000     0.000000000000     0.188446000000
    0.000000000000    14.583733000000     0.000000000000
   -5.074960000000     0.000000000000    21.354309000000
