%nprocs=4
%mem=4GB
#p pbepbe aug-cc-pvtz output=wfx scf=(conver=6) int=(grid=ultrafine)

title

0 1
c 0.682859948615681 2.933640778695567 -0.299854877296281
c 0.682859948615681 1.413420893387007 -0.397683869965023
c -0.030293997634770 0.762384942414925 0.781690041003096
c 0.030293997634770 -0.762384942414925 0.781690041003096
c -0.682859948615681 -1.413420893387007 -0.397683869965023
c -0.682859948615681 -2.933640778695567 -0.299854877296281
h 1.184776910811492 3.263158753900327 0.609744054044750
h -0.336591974853370 3.318398749888845 -0.272166879501541
h 1.189960910137914 3.392234744201384 -1.147315813635522
h 1.711325870834905 1.045691920967673 -0.438687867132421
h 0.208311984551373 1.111197916172900 -1.332102799391373
h -1.076626918892866 1.082140918418336 0.789224040640524
h 0.412481968913519 1.139527913873810 1.707153971233791
h -0.412481968913519 -1.139527913873810 1.707153971233791
h 1.076626918892866 -1.082140918418336 0.789224040640524
h -0.208311984551373 -1.111197916172900 -1.332102799391373
h -1.711325870834905 -1.045691920967673 -0.438687867132421
h -1.189960910137914 -3.392234744201384 -1.147315813635522
h -1.184776910811492 -3.263158753900327 0.609744054044750
h 0.336591974853370 -3.318398749888845 -0.272166879501541

H_tgt.wfx

