%nprocs=4
%mem=2GB
#p pbepbe aug-cc-pvtz output=wfx scf=(conver=6) int=(grid=ultrafine)
 
title
 
0 1
     1     -2.174968     0.000000     0.869232
     6     -1.497879     0.000000     0.000000
     6      0.665245     1.252812     0.000000
     6      0.665245    -1.252812     0.000000
     6      1.497879     0.000000     0.000000
     6     -0.665245    -1.252812     0.000000
     6     -0.665245     1.252812     0.000000
     1      1.205189     2.196595     0.000000
     1     -1.205189     2.196595     0.000000
     1      2.174968     0.000000     0.869232
     1     -1.205189    -2.196595     0.000000
     1      1.205189    -2.196595     0.000000
     1     -2.174968     0.000000    -0.869232
     1      2.174968     0.000000    -0.869232
 
1-4-cyclohexadiene.wfx

