%nprocs=4
%mem=2GB
#p pbepbe aug-cc-pvtz output=wfx scf=(conver=6) int=(grid=ultrafine)
 
title
 
0 1
C	0.000000 0.000000 1.372056
C	0.000000 1.212582 0.696145
C	0.000000 1.212582 -0.696145
C	0.000000 0.000000 -1.372056
C	0.000000 -1.212582 -0.696145
C	0.000000 -1.212582 0.696145
F	0.000000 0.000000 2.710296
F	0.000000 0.000000 -2.710296
H	0.000000 2.138076 1.259196
H	0.000000 2.138076 -1.259196
H	0.000000 -2.138076 -1.259196
H	0.000000 -2.138076 1.259196

1-4-difluorobenzene.wfx

