%nprocs=4
%mem=2GB
#p pbepbe aug-cc-pvtz output=wfx scf=(conver=6) int=(grid=ultrafine)
 
title
 
0 1
S	0.000000 0.000000 1.252214
C	0.000000 1.352248 -0.002879
C	0.000000 -1.352248 -0.002879
C	0.000000 0.664110 -1.337439
C	0.000000 -0.664110 -1.337439
H	-0.883613 1.985035 0.134173
H	0.883613 -1.985035 0.134173
H	0.883613 1.985035 0.134173
H	-0.883613 -1.985035 0.134173
H	0.000000 1.261465 -2.244154
H	0.000000 -1.261465 -2.244154

2-5-dihydrothiophene.wfx

