%nprocs=4
%mem=2GB
#p pbepbe aug-cc-pvtz output=wfx scf=(conver=6) int=(grid=ultrafine)
 
title
 
0 1
     1      1.274064     1.368422    -1.159094
     6      0.960251     1.608745    -0.140307
     6      0.046195     0.525990     0.418728
     1     -0.354930     0.830486     1.397699
     1      1.844471     1.716607     0.492955
     1      0.424526     2.560536    -0.168649
     8      0.697874    -0.693408     0.707689
     8     -1.007135     0.361261    -0.497853
     6      1.368158    -1.304542    -0.382918
     6     -2.080923    -0.416151     0.000224
     1      1.613990    -2.321176    -0.067096
     1     -2.826809    -0.478492    -0.795261
     1      2.301045    -0.783849    -0.637873
     1      0.732444    -1.349498    -1.274868
     1     -2.538917     0.056485     0.882395
     1     -1.757880    -1.426594     0.276738
 
acetaldehyde-dimethyl-acetal.wfx

