%nprocs=4
%mem=2GB
#p pbepbe aug-cc-pvtz output=wfx scf=(conver=6) int=(grid=ultrafine)
 
title
 
0 1
O	0.000000 0.000000 0.596246
C	0.000000 1.211006 -0.090837
O	0.477660 1.351079 -1.173995
C	-0.627240 2.276648 0.767244
C	0.000000 -1.211006 -0.090837
O	-0.477660 -1.351079 -1.173995
C	0.627240 -2.276648 0.767244
H	0.498137 -3.249189 0.293957
H	0.178095 -2.274154 1.763881
H	1.693602 -2.062474 0.890691
H	-0.498137 3.249189 0.293957
H	-0.178095 2.274154 1.763881
H	-1.693602 2.062474 0.890691

acetic-anhydride.wfx

