%nprocs=4
%mem=2GB
#p pbepbe aug-cc-pvtz output=wfx scf=(conver=6) int=(grid=ultrafine)
 
title
 
0 1
     8      0.000000     0.000000     0.596246
     6      0.000000     1.211006    -0.090837
     8      0.477660     1.351079    -1.173995
     6     -0.627240     2.276648     0.767244
     6      0.000000    -1.211006    -0.090837
     8     -0.477660    -1.351079    -1.173995
     6      0.627240    -2.276648     0.767244
     1      0.498137    -3.249189     0.293957
     1      0.178095    -2.274154     1.763881
     1      1.693602    -2.062474     0.890691
     1     -0.498137     3.249189     0.293957
     1     -0.178095     2.274154     1.763881
     1     -1.693602     2.062474     0.890691
 
acetic-anhydride.wfx

