%nprocs=4
%mem=2GB
#p pbepbe aug-cc-pvtz output=wfx scf=(conver=6) int=(grid=ultrafine)
 
title
 
0 1
     6      0.000000     0.000000     0.000000
     6      0.000000     0.000000     1.301421
     6      0.000000     0.000000    -1.301421
     1      0.000000     0.925916     1.869276
     1      0.000000    -0.925916     1.869276
     1      0.925916     0.000000    -1.869276
     1     -0.925916     0.000000    -1.869276
 
allene.wfx

