%nprocs=4
%mem=2GB
#p pbepbe aug-cc-pvtz output=wfx scf=(conver=6) int=(grid=ultrafine)
 
title
 
0 1
     6      0.000000     0.000000     1.445056
     6      0.000000     0.000000    -1.445056
     8      0.000000     0.000000     2.662996
     8      0.000000     0.000000    -2.662996
     6      0.000000     1.266751     0.669452
     6      0.000000    -1.266751     0.669452
     6      0.000000    -1.266751    -0.669452
     6      0.000000     1.266751    -0.669452
     1      0.000000     2.178129     1.258744
     1      0.000000    -2.178129     1.258744
     1      0.000000    -2.178129    -1.258744
     1      0.000000     2.178129    -1.258744
 
benzoquinone.wfx

