%nprocs=4
%mem=2GB
#p pbepbe aug-cc-pvtz output=wfx scf=(conver=6) int=(grid=ultrafine)
 
title
 
0 1
C	0.000000 0.000000 0.671770
C	0.000000 0.000000 -0.671770
Cl	0.000000 1.454412 1.596936
Cl	0.000000 -1.454412 1.596936
Cl	0.000000 -1.454412 -1.596936
Cl	0.000000 1.454412 -1.596936

c2cl4.wfx

