%nprocs=4
%mem=2GB
#p pbepbe aug-cc-pvtz output=wfx scf=(conver=6) int=(grid=ultrafine)
 
title
 
0 1
     6      0.000000     0.000000     0.661734
     6      0.000000     0.000000    -0.661734
     9      0.000000     1.098604     1.383197
     9      0.000000    -1.098604     1.383197
     9      0.000000     1.098604    -1.383197
     9      0.000000    -1.098604    -1.383197
 
c2f4.wfx

