%nprocs=4
%mem=2GB
#p pbepbe aug-cc-pvtz output=wfx scf=(conver=6) int=(grid=ultrafine)
 
title
 
0 1
C	0.000000 0.000000 0.599455
C	0.000000 0.000000 -0.599455
H	0.000000 0.000000 -1.661636
H	0.000000 0.000000 1.661636

c2h2.wfx

