%nprocs=4
%mem=2GB
#p pbepbe aug-cc-pvtz output=wfx scf=(conver=6) int=(grid=ultrafine)
 
title
 
0 1
C	0.000000 0.000000 0.663625
C	0.000000 0.000000 -0.663625
H	0.000000 0.921419 1.237947
H	0.000000 -0.921419 1.237947
H	0.000000 0.921419 -1.237947
H	0.000000 -0.921419 -1.237947

c2h4.wfx

