%nprocs=4
%mem=2GB
#p pbepbe aug-cc-pvtz output=wfx scf=(conver=6) int=(grid=ultrafine)
 
title
 
0 2
     6      0.013467    -0.731907     0.000000
     6      0.013467     0.477370     0.000000
     1     -0.161608     1.527222     0.000000
 
cch.wfx

