%nprocs=4
%mem=2GB
#p pbepbe aug-cc-pvtz output=wfx scf=(conver=6) int=(grid=ultrafine)
 
title
 
0 1
C	0.000000 0.000000 0.000000
Cl	1.030252 1.030252 1.030252
Cl	-1.030252 -1.030252 1.030252
Cl	-1.030252 1.030252 -1.030252
Cl	1.030252 -1.030252 -1.030252

ccl4.wfx

