%nprocs=4
%mem=2GB
#p pbepbe aug-cc-pvtz output=wfx scf=(conver=6) int=(grid=ultrafine)
 
title
 
0 1
C	0.000000 0.000000 -0.327611
C	0.000000 0.000000 1.158088
F	0.000000 1.248584 -0.783553
F	1.081306 -0.624292 -0.783553
F	-1.081306 -0.624292 -0.783553
N	0.000000 0.000000 2.310437

cf3cn.wfx

