%nprocs=4
%mem=2GB
#p pbepbe aug-cc-pvtz output=wfx scf=(conver=6) int=(grid=ultrafine)
 
title
 
0 2
C	0.000000 0.000000 0.161547
H	0.000000 0.000000 -0.969283

ch.wfx

