%nprocs=4
%mem=2GB
#p pbepbe aug-cc-pvtz output=wfx scf=(conver=6) int=(grid=ultrafine)
 
title
 
0 1
     6      0.000000     0.000000     0.769086
    17      0.000000     1.488757    -0.216708
    17      0.000000    -1.488757    -0.216708
     1     -0.900392     0.000000     1.376772
     1      0.900392     0.000000     1.376772
 
ch2cl2.wfx

