%nprocs=4
%mem=2GB
#p pbepbe aug-cc-pvtz output=wfx scf=(conver=6) int=(grid=ultrafine)
 
title
 
0 1
     6      0.000000     0.000000     0.496181
     9      0.000000     1.099757    -0.288845
     9      0.000000    -1.099757    -0.288845
     1     -0.909155     0.000000     1.111059
     1      0.909155     0.000000     1.111059
 
ch2f2.wfx

