%nprocs=4
%mem=2GB
#p pbepbe aug-cc-pvtz output=wfx scf=(conver=6) int=(grid=ultrafine)
 
title
 
0 1
     6      0.000000     0.000000     0.179998
     1      0.000000     0.854872    -0.539995
     1      0.000000    -0.854872    -0.539995
 
ch2sing.wfx

