%nprocs=4
%mem=2GB
#p pbepbe aug-cc-pvtz output=wfx scf=(conver=6) int=(grid=ultrafine)
 
title
 
0 3
C	0.000000 0.000000 0.105935
H	0.000000 0.994489 -0.317804
H	0.000000 -0.994489 -0.317804

ch2trip.wfx

