%nprocs=4
%mem=2GB
#p pbepbe aug-cc-pvtz output=wfx scf=(conver=6) int=(grid=ultrafine)
 
title
 
0 2
     6      0.011464     0.533613     0.000000
     6      0.011464    -0.196938     1.299298
     6      0.011464    -0.196938    -1.299298
     1     -0.236191     1.591063     0.000000
     1      0.262576     0.458771     2.138978
     1      0.262576     0.458771    -2.138978
     1     -0.973254    -0.642461     1.528548
     1      0.725596    -1.031050     1.293345
     1     -0.973254    -0.642461    -1.528548
     1      0.725596    -1.031050    -1.293345
 
ch3chch3.wfx

