%nprocs=4
%mem=2GB
#p pbepbe aug-cc-pvtz output=wfx scf=(conver=6) int=(grid=ultrafine)
 
title
 
0 2
C	-0.966284 -0.666595 0.000000
C	0.000000 0.501222 0.000000
H	-0.436882 -1.625629 0.000000
H	-1.610854 -0.586971 0.880027
H	-1.610854 -0.586971 -0.880027
O	1.182037 0.473976 0.000000

ch3co.wfx

