%nprocs=4
%mem=2GB
#p pbepbe aug-cc-pvtz output=wfx scf=(conver=6) int=(grid=ultrafine)
 
title
 
0 1
C	0.000000 0.000000 -1.136781
Cl	0.000000 0.000000 0.662178
H	0.000000 1.033705 -1.478781
H	0.895215 -0.516852 -1.478781
H	-0.895215 -0.516852 -1.478781

ch3cl.wfx

