%nprocs=4
%mem=2GB
#p pbepbe aug-cc-pvtz output=wfx scf=(conver=6) int=(grid=ultrafine)
 
title
 
0 2
C	-0.011148 -0.571469 0.000000
O	-0.011148 0.790976 0.000000
H	1.059118 -0.867734 0.000000
H	-0.451525 -1.015630 0.908538
H	-0.451525 -1.015630 -0.908538

ch3o.wfx

