%nprocs=4
%mem=2GB
#p pbepbe aug-cc-pvtz output=wfx scf=(conver=6) int=(grid=ultrafine)
 
title
 
0 1
     6      0.000000     0.000000     0.336108
     1      0.000000     0.000000     1.431598
     9      0.000000     1.250273    -0.127713
     9      1.082768    -0.625136    -0.127713
     9     -1.082768    -0.625136    -0.127713
 
chf3.wfx

