%nprocs=4
%mem=2GB
#p pbepbe aug-cc-pvtz output=wfx scf=(conver=6) int=(grid=ultrafine)
 
title
 
0 1
C	0.000000 0.000000 0.502792
C	0.000000 0.000000 -2.268362
Cl	0.000000 0.000000 2.256566
C	0.000000 1.213848 -0.176742
C	0.000000 -1.213848 -0.176742
H	0.000000 0.000000 -3.352738
C	0.000000 -1.205079 -1.569614
C	0.000000 1.205079 -1.569614
H	0.000000 2.144597 0.377150
H	0.000000 -2.144597 0.377150
H	0.000000 -2.147618 -2.106752
H	0.000000 2.147618 -2.106752

chlorobenzene.wfx

