%nprocs=4
%mem=2GB
#p pbepbe aug-cc-pvtz output=wfx scf=(conver=6) int=(grid=ultrafine)
 
title
 
0 1
    16      0.000000     0.000000     0.518472
     8      0.000000     1.256751     1.192687
     8      0.000000    -1.256751     1.192687
    17      1.579569     0.000000    -0.805251
    17     -1.579569     0.000000    -0.805251
 
cl2o2s.wfx

