%nprocs=4
%mem=2GB
#p pbepbe aug-cc-pvtz output=wfx scf=(conver=6) int=(grid=ultrafine)
 
title
 
0 1
    17      0.000000     0.000000     0.364789
     9      0.000000     0.000000    -1.261248
     9      0.000000     1.712713     0.286101
     9      0.000000    -1.712713     0.286101
 
clf3.wfx

