%nprocs=4
%mem=2GB
#p pbepbe aug-cc-pvtz output=wfx scf=(conver=6) int=(grid=ultrafine)
 
title
 
0 1
    17     -0.527895    -0.941643     0.000000
     7      0.000000     0.977183     0.000000
     8      1.121776     1.145957     0.000000
 
clno.wfx

