%nprocs=4
%mem=2GB
#p pbepbe aug-cc-pvtz output=wfx scf=(conver=6) int=(grid=ultrafine)
 
title
 
0 2
    17      0.000000     0.000000     0.509606
     8      0.000000     0.000000    -1.082912
 
clo.wfx

