%nprocs=4
%mem=2GB
#p pbepbe aug-cc-pvtz output=wfx scf=(conver=6) int=(grid=ultrafine)
 
title
 
0 1
C	0.000000 0.000000 0.000000
O	0.000000 0.000000 1.162888
O	0.000000 0.000000 -1.162888

co2.wfx

