%nprocs=4
%mem=2GB
#p pbepbe aug-cc-pvtz output=wfx scf=(conver=6) int=(grid=ultrafine)
 
title
 
0 1
     6      0.000000     0.000000     0.000000
     8      0.000000     0.000000     1.162888
     8      0.000000     0.000000    -1.162888
 
co2.wfx

