%nprocs=4
%mem=2GB
#p pbepbe aug-cc-pvtz output=wfx scf=(conver=6) int=(grid=ultrafine)
 
title
 
0 1
H	2.822137 -0.986987 0.877710
C	2.381518 -0.498063 0.000000
H	2.682249 0.552401 0.000000
C	0.896444 -0.653803 0.000000
H	2.822137 -0.986987 -0.877710
C	0.000000 0.339360 0.000000
H	0.521694 -1.678501 0.000000
H	0.295494 1.385466 0.000000
C	-1.441732 0.061393 0.000000
O	-2.308238 0.905748 0.000000
H	-1.695187 -1.024705 0.000000

crotonaldehyde.wfx

