%nprocs=4
%mem=2GB
#p pbepbe aug-cc-pvtz output=wfx scf=(conver=6) int=(grid=ultrafine)
 
title
 
0 1
N	0.000000 0.000000 1.845904
C	0.000000 0.000000 0.687841
C	0.000000 0.000000 -0.687841
N	0.000000 0.000000 -1.845904

cyanogen.wfx

