%nprocs=4
%mem=2GB
#p pbepbe aug-cc-pvtz output=wfx scf=(conver=6) int=(grid=ultrafine)
 
title
 
0 1
     6      1.568570     0.668923    -0.368893
     6      1.568570    -0.668923    -0.368893
     6     -1.568570    -0.668923    -0.368893
     6     -1.568570     0.668923    -0.368893
     6      0.668919    -1.568477     0.368868
     6     -0.668919    -1.568477     0.368868
     6     -0.668919     1.568477     0.368868
     6      0.668919     1.568477     0.368868
     1      2.366014     1.170724    -0.916956
     1      2.366014    -1.170724    -0.916956
     1     -2.366014    -1.170724    -0.916956
     1     -2.366014     1.170724    -0.916956
     1      1.170686    -2.365831     0.917106
     1     -1.170686    -2.365831     0.917106
     1     -1.170686     2.365831     0.917106
     1      1.170686     2.365831     0.917106
 
cyclooctatetraene.wfx

