%nprocs=4
%mem=2GB
#p pbepbe aug-cc-pvtz output=wfx scf=(conver=6) int=(grid=ultrafine)
 
title
 
0 1
     6      0.000000     0.000000     0.860518
     6      0.000000     0.645314    -0.500672
     6      0.000000    -0.645314    -0.500672
     1     -0.911822     0.000000     1.462376
     1      0.911822     0.000000     1.462376
     1      0.000000     1.576073    -1.039899
     1      0.000000    -1.576073    -1.039899
 
cyclopropene.wfx

