%nprocs=4
%mem=2GB
#p pbepbe aug-cc-pvtz output=wfx scf=(conver=6) int=(grid=ultrafine)
 
title
 
0 1
C	0.000000 0.668872 0.814519
C	0.000000 -0.668872 0.814519
C	0.000000 0.785926 -0.699269
C	0.000000 -0.785926 -0.699269
H	0.000000 1.417767 1.598540
H	0.000000 -1.417767 1.598540
H	0.888243 1.246494 -1.145019
H	-0.888243 1.246494 -1.145019
H	-0.888243 -1.246494 -1.145019
H	0.888243 -1.246494 -1.145019

cyclobutene.wfx

