%nprocs=4
%mem=2GB
#p pbepbe aug-cc-pvtz output=wfx scf=(conver=6) int=(grid=ultrafine)
 
title
 
0 1
H	0.000000 3.309415 -0.156974
C	0.000000 2.376773 0.415186
H	0.885905 2.362050 1.056429
C	0.000000 1.179113 -0.519807
H	-0.885905 2.362050 1.056429
H	0.885951 1.202051 -1.177819
H	-0.885951 1.202051 -1.177819
O	0.000000 0.000000 0.256870
C	0.000000 -1.179113 -0.519807
C	0.000000 -2.376773 0.415186
H	0.885951 -1.202051 -1.177819
H	-0.885951 -1.202051 -1.177819
H	0.000000 -3.309415 -0.156974
H	-0.885905 -2.362050 1.056429
H	0.885905 -2.362050 1.056429

diethyl-ether.wfx

