%nprocs=4
%mem=2GB
#p pbepbe aug-cc-pvtz output=wfx scf=(conver=6) int=(grid=ultrafine)
 
title
 
0 1
     6     -0.026899    -0.221299     1.212998
     7     -0.026899     0.582750     0.000000
     6     -0.026899    -0.221299    -1.212998
     1      0.797964    -0.955799     1.272568
     1      0.032090     0.430599     2.089811
     1     -0.967068    -0.781746     1.278027
     1      0.785113     1.190228     0.000000
     1      0.797964    -0.955799    -1.272568
     1      0.032090     0.430599    -2.089811
     1     -0.967068    -0.781746    -1.278027
 
dimethylamine.wfx

