%nprocs=4
%mem=2GB
#p pbepbe aug-cc-pvtz output=wfx scf=(conver=6) int=(grid=ultrafine)
 
title
 
0 1
C	0.000000 1.168863 -0.193964
O	0.000000 0.000000 0.588125
C	0.000000 -1.168863 -0.193964
H	0.000000 2.021449 0.489652
H	0.891508 1.230570 -0.839183
H	-0.891508 1.230570 -0.839183
H	0.000000 -2.021449 0.489652
H	-0.891508 -1.230570 -0.839183
H	0.891508 -1.230570 -0.839183

dimethyl-ether.wfx

