%nprocs=4
%mem=2GB
#p pbepbe aug-cc-pvtz output=wfx scf=(conver=6) int=(grid=ultrafine)
 
title
 
0 1
    16      0.000000     0.000000     0.195837
     8     -1.256976     0.000000     0.912411
     8      1.256976     0.000000     0.912411
     6      0.000000     1.410002    -0.920015
     6      0.000000    -1.410002    -0.920015
     1      0.000000     2.293728    -0.279323
     1      0.000000    -2.293728    -0.279323
     1      0.901890     1.391116    -1.533286
     1     -0.901890     1.391116    -1.533286
     1      0.901890    -1.391116    -1.533286
     1     -0.901890    -1.391116    -1.533286
 
dimethyl-sulfone.wfx

