%nprocs=4
%mem=2GB
#p pbepbe aug-cc-pvtz output=wfx scf=(conver=6) int=(grid=ultrafine)
 
title
 
0 1
C	0.000000 1.390269 -0.513033
S	0.000000 0.000000 0.660214
C	0.000000 -1.390269 -0.513033
H	0.000000 2.307367 0.079562
H	0.894282 1.375034 -1.141541
H	-0.894282 1.375034 -1.141541
H	0.000000 -2.307367 0.079562
H	-0.894282 -1.375034 -1.141541
H	0.894282 -1.375034 -1.141541

dimethyl-sulfide.wfx

