%nprocs=4
%mem=2GB
#p pbepbe aug-cc-pvtz output=wfx scf=(conver=6) int=(grid=ultrafine)
 
title
 
0 1
     6      1.520861     0.701347     0.000000
     6      0.000000     0.833751     0.000000
    16     -0.757946    -0.845429     0.000000
     1     -2.044278    -0.448736     0.000000
     1     -0.340309     1.372383     0.887260
     1     -0.340309     1.372383    -0.887260
     1      1.983610     1.693263     0.000000
     1      1.871629     0.163491     0.885759
     1      1.871629     0.163491    -0.885759
 
ethanethiol.wfx

