%nprocs=4
%mem=2GB
#p pbepbe aug-cc-pvtz output=wfx scf=(conver=6) int=(grid=ultrafine)
 
title
 
0 1
     6      0.000000     0.819875     0.000000
     6      1.510484     0.673903     0.000000
    17     -0.824443    -0.798765     0.000000
     1     -0.363202     1.338585     0.887779
     1     -0.363202     1.338585    -0.887779
     1      1.971021     1.668666     0.000000
     1      1.854007     0.135253     0.886551
     1      1.854007     0.135253    -0.886551
 
ethyl-chloride.wfx

