%nprocs=4
%mem=2GB
#p pbepbe aug-cc-pvtz output=wfx scf=(conver=6) int=(grid=ultrafine)
 
title
 
0 1
O	-1.029440 -0.444714 0.000000
C	0.000000 0.419902 0.000000
O	1.159172 0.115863 0.000000
H	-0.646253 -1.336697 0.000000
H	-0.391599 1.448093 0.000000

formic-acid.wfx

