%nprocs=4
%mem=2GB
#p pbepbe aug-cc-pvtz output=wfx scf=(conver=6) int=(grid=ultrafine)
 
title
 
0 1
     8      0.000000     0.000000     1.157167
     6      0.000000     1.091856     0.347277
     6      0.000000    -1.091856     0.347277
     6      0.000000     0.717265    -0.957925
     6      0.000000    -0.717265    -0.957925
     1      0.000000     2.044972     0.849510
     1      0.000000    -2.044972     0.849510
     1      0.000000     1.372975    -1.814290
     1      0.000000    -1.372975    -1.814290
 
furan.wfx

