%nprocs=4
%mem=2GB
#p pbepbe aug-cc-pvtz output=wfx scf=(conver=6) int=(grid=ultrafine)
 
title
 
0 1
C	0.000000 0.762874 0.000000
C	0.000000 -0.762874 0.000000
O	1.022172 1.396122 0.000000
H	-1.012900 1.216509 0.000000
O	-1.022172 -1.396122 0.000000
H	1.012900 -1.216509 0.000000

glyoxal.wfx

