%nprocs=4
%mem=2GB
#p pbepbe aug-cc-pvtz output=wfx scf=(conver=6) int=(grid=ultrafine)
 
title
 
0 1
     1      0.000000     0.000000     0.371322
     1      0.000000     0.000000    -0.371322
 
h2.wfx

