%nprocs=4
%mem=2GB
#p pbepbe aug-cc-pvtz output=wfx scf=(conver=6) int=(grid=ultrafine)
 
title
 
0 2
C	0.683163 0.028205 -0.073182
O	-0.669726 -0.125324 0.024983
H	-1.091045 0.734501 -0.069278
H	1.120598 0.986715 0.193231
H	1.229274 -0.887851 0.115274

h2coh.wfx

