%nprocs=4
%mem=2GB
#p pbepbe aug-cc-pvtz output=wfx scf=(conver=6) int=(grid=ultrafine)
 
title
 
0 1
O	0.000000 0.000000 0.674542
C	0.000000 0.000000 -0.525538
H	0.000000 0.937257 -1.121552
H	0.000000 -0.937257 -1.121552

h2co.wfx

