%nprocs=4
%mem=2GB
#p pbepbe aug-cc-pvtz output=wfx scf=(conver=6) int=(grid=ultrafine)
 
title
 
0 1
N	0.000000 0.718650 -0.079021
N	0.000000 -0.718650 -0.079021
H	0.226817 1.094574 0.840485
H	-0.949143 1.011985 -0.287340
H	-0.226817 -1.094574 0.840485
H	0.949143 -1.011985 -0.287340

h2nnh2.wfx

