%nprocs=4
%mem=2GB
#p pbepbe aug-cc-pvtz output=wfx scf=(conver=6) int=(grid=ultrafine)
 
title
 
0 1
     8      0.000000     0.000000     0.118882
     1      0.000000     0.756653    -0.475529
     1      0.000000    -0.756653    -0.475529
 
h2o.wfx

