%nprocs=4
%mem=2GB
#p pbepbe aug-cc-pvtz output=wfx scf=(conver=6) int=(grid=ultrafine)
 
title
 
0 2
     6      0.062328     0.585199     0.000000
     8      0.062328    -0.591039     0.000000
     1     -0.872596     1.217120     0.000000
 
hco.wfx

