%nprocs=4
%mem=2GB
#p pbepbe aug-cc-pvtz output=wfx scf=(conver=6) int=(grid=ultrafine)
 
title
 
0 2
C	0.062328 0.585199 0.000000
O	0.062328 -0.591039 0.000000
H	-0.872596 1.217120 0.000000

hco.wfx

