%nprocs=4
%mem=2GB
#p pbepbe aug-cc-pvtz output=wfx scf=(conver=6) int=(grid=ultrafine)
 
title
 
0 1
     9      0.000000     0.000000     0.091945
     1      0.000000     0.000000    -0.827508
 
hf.wfx

