%nprocs=4
%mem=2GB
#p pbepbe aug-cc-pvtz output=wfx scf=(conver=6) int=(grid=ultrafine)
 
title
 
0 1
O	0.036356 1.108646 0.000000
H	-0.908905 1.317510 0.000000
Cl	0.036356 -0.599216 0.000000

hocl.wfx

