%nprocs=4
%mem=2GB
#p pbepbe aug-cc-pvtz output=wfx scf=(conver=6) int=(grid=ultrafine)
 
title
 
0 1
C	0.000000 0.000000 1.456806
C	0.000000 0.000000 0.124318
H	0.000000 0.923271 2.027597
H	0.000000 -0.923271 2.027597
C	0.000000 1.275184 -0.677861
H	0.000000 2.159511 -0.035788
H	0.878427 1.327722 -1.334009
H	-0.878427 1.327722 -1.334009
C	0.000000 -1.275184 -0.677861
H	0.000000 -2.159511 -0.035788
H	-0.878427 -1.327722 -1.334009
H	0.878427 -1.327722 -1.334009

isobutene.wfx

