%nprocs=4
%mem=2GB
#p pbepbe aug-cc-pvtz output=wfx scf=(conver=6) int=(grid=ultrafine)
 
title
 
0 1
C	-1.584953 -0.908325 0.000006
C	-0.515064 -0.101468 -0.000005
C	0.832191 -0.676578 -0.000010
C	1.981391 0.004861 0.000008
C	-0.659229 1.399279 -0.000007
H	-1.479290 -1.988566 0.000017
H	-2.596996 -0.518076 0.000009
H	0.867972 -1.764689 -0.000026
H	2.938236 -0.505029 0.000003
H	2.013755 1.088954 0.000028
H	-0.179340 1.843067 -0.879971
H	-1.710813 1.694694 -0.000105
H	-0.179545 1.843033 0.880089

isoprene.wfx

