%nprocs=4
%mem=2GB
#p pbepbe aug-cc-pvtz output=wfx scf=(conver=6) int=(grid=ultrafine)
 
title
 
0 1
     3      0.000000     0.000000     1.360602
     3      0.000000     0.000000    -1.360602
 
li2.wfx

