%nprocs=4
%mem=2GB
#p pbepbe aug-cc-pvtz output=wfx scf=(conver=6) int=(grid=ultrafine)
 
title
 
0 1
     6      0.051792     0.703794     0.000000
     7      0.051792    -0.761030     0.000000
     1     -0.942572     1.180157     0.000000
     1     -0.457729    -1.102386     0.809503
     1     -0.457729    -1.102386    -0.809503
     1      0.592366     1.064530     0.881128
     1      0.592366     1.064530    -0.881128
 
methylamine.wfx

