%nprocs=4
%mem=2GB
#p pbepbe aug-cc-pvtz output=wfx scf=(conver=6) int=(grid=ultrafine)
 
title
 
0 1
     6      0.000000     0.000000     0.317277
     6      0.000000     0.769212    -0.930613
     6      0.000000    -0.769212    -0.930613
     6      0.000000     0.000000     1.633710
     1      0.911154     1.277405    -1.235625
     1     -0.911154     1.277405    -1.235625
     1     -0.911154    -1.277405    -1.235625
     1      0.911154    -1.277405    -1.235625
     1      0.000000     0.925298     2.201961
     1      0.000000    -0.925298     2.201961
 
methylene-cyclopropane.wfx

