%nprocs=4
%mem=2GB
#p pbepbe aug-cc-pvtz output=wfx scf=(conver=6) int=(grid=ultrafine)
 
title
 
0 1
H	2.109582 0.620518 0.879610
C	2.018584 -0.021736 0.000034
H	2.109597 0.620662 -0.879434
C	0.681273 -0.757409 -0.000041
H	2.851396 -0.730511 -0.000015
C	-0.527169 0.171725 -0.000014
H	0.592663 -1.422591 0.870460
H	-2.676668 0.256909 -0.000130
H	-2.000263 -1.143553 0.879689
H	-2.000194 -1.143869 -0.879417
H	0.592700 -1.422462 -0.870646
O	-0.408753 1.375603 -0.000016
C	-1.890819 -0.499236 0.000023

methyl-ethyl-ketone.wfx

