%nprocs=4
%mem=2GB
#p pbepbe aug-cc-pvtz output=wfx scf=(conver=6) int=(grid=ultrafine)
 
title
 
0 1
O	0.015733 -0.708761 0.000000
C	0.000000 0.703522 0.000000
C	1.317319 -1.240152 0.000000
C	-1.445072 1.172304 0.000000
H	0.533057 1.089970 0.886090
H	0.533057 1.089970 -0.886090
H	1.228777 -2.329450 0.000000
H	1.887269 -0.930844 -0.891233
H	1.887269 -0.930844 0.891233
H	-1.967806 0.800961 -0.885962
H	-1.967806 0.800961 0.885962
H	-1.493167 2.265321 0.000000

methyl-ethyl-ether.wfx

