%nprocs=4
%mem=2GB
#p pbepbe aug-cc-pvtz output=wfx scf=(conver=6) int=(grid=ultrafine)
 
title
 
0 1
     1     -0.618380     3.119145     0.883825
     6     -1.171540     2.783536     0.000000
     1     -2.140705     3.291408     0.000000
     6     -1.343009     1.261834     0.000000
     1     -0.618380     3.119145    -0.883825
     1     -1.928898     0.958673     0.877550
     6      0.000000     0.517387     0.000000
     1     -1.928898     0.958673    -0.877550
     1      0.587435     0.806270     0.879057
     1      0.587435     0.806270    -0.879057
     6     -0.191393    -0.991442     0.000000
     1     -0.724727    -1.335383     0.887856
    17      1.396794    -1.871571     0.000000
     1     -0.724727    -1.335383    -0.887856
 
n-butyl-chloride.wfx

