%nprocs=4
%mem=2GB
#p pbepbe aug-cc-pvtz output=wfx scf=(conver=6) int=(grid=ultrafine)
 
title
 
0 1
H	-1.114879 2.408690 0.000000
N	0.024215 0.623920 0.000000
C	0.018071 -0.174118 1.117567
H	0.425210 2.470165 0.885571
H	0.425210 2.470165 -0.885571
C	0.018071 -0.174118 -1.117567
C	-0.072679 2.067659 0.000000
C	0.018071 -1.488606 0.710920
H	0.016065 0.265837 2.102605
C	0.018071 -1.488606 -0.710920
H	0.016065 0.265837 -2.102605
H	0.032595 -2.350704 1.360029
H	0.032595 -2.350704 -1.360029

n-methyl-pyrrole.wfx

