%nprocs=4
%mem=2GB
#p pbepbe aug-cc-pvtz output=wfx scf=(conver=6) int=(grid=ultrafine)
 
title
 
0 1
     7      0.000000     0.000000     0.549399
     7      0.000000     0.000000    -0.549399
 
n2.wfx

