%nprocs=4
%mem=2GB
#p pbepbe aug-cc-pvtz output=wfx scf=(conver=6) int=(grid=ultrafine)
 
title
 
0 1
     7      0.000000     0.000000    -1.200107
     7      0.000000     0.000000    -0.072441
     8      0.000000     0.000000     1.113479
 
n2o.wfx

