%nprocs=4
%mem=2GB
#p pbepbe aug-cc-pvtz output=wfx scf=(conver=6) int=(grid=ultrafine)
 
title
 
0 1
Bq	0.000000 0.426371 0.000000
Bq	1.185545 -0.157364 0.000000
Bq	-1.145752 -0.258726 0.000000
Bq	-0.169881 1.498918 0.000000
Bq	1.288194 -1.235386 0.000000
Bq	2.080184 0.450963 0.000000

new.wfx

