%nprocs=4
%mem=2GB
#p pbepbe aug-cc-pvtz output=wfx scf=(conver=6) int=(grid=ultrafine)
 
title
 
0 1
     7      0.000000     0.000000     0.481564
     9      0.000000     1.231751    -0.124850
     9      1.066728    -0.615876    -0.124850
     9     -1.066728    -0.615876    -0.124850
 
nf3.wfx

