%nprocs=4
%mem=2GB
#p pbepbe aug-cc-pvtz output=wfx scf=(conver=6) int=(grid=ultrafine)
 
title
 
0 1
     1      1.887054     1.483351    -0.049773
     6      1.347819     0.582322     0.264802
     6      2.189036    -0.661545    -0.032492
     6     -0.007997     0.607955    -0.447699
     1      1.170402     0.676954     1.341166
     1      0.110611     0.434753    -1.518779
     6     -0.811482     1.875908    -0.174726
     7     -0.823963    -0.591266     0.018395
     1     -0.253324     2.742135    -0.540455
     1     -0.984570     1.994178     0.897098
     1     -1.777754     1.852090    -0.686122
     1      3.152616    -0.603684     0.481289
     1      2.385467    -0.763823    -1.104828
     1      1.689529    -1.575139     0.304037
     8     -1.107428    -1.438016    -0.814595
     8     -1.132141    -0.628208     1.200633
 
nitro-s-butane.wfx

