%nprocs=4
%mem=2GB
#p pbepbe aug-cc-pvtz output=wfx scf=(conver=6) int=(grid=ultrafine)
 
title
 
0 2
     7      0.000000     0.000000     0.322643
     8      0.000000     1.102041    -0.141156
     8      0.000000    -1.102041    -0.141156
 
no2.wfx

