%nprocs=4
%mem=2GB
#p pbepbe aug-cc-pvtz output=wfx scf=(conver=6) int=(grid=ultrafine)
 
title
 
0 1
     8      0.000000     1.075558    -0.215709
     8      0.000000     0.000000     0.431417
     8      0.000000    -1.075558    -0.215709
 
o3.wfx

