%nprocs=4
%mem=2GB
#p pbepbe aug-cc-pvtz output=wfx scf=(conver=6) int=(grid=ultrafine)
 
title
 
0 1
     8      0.000000     0.000000    -1.684673
     6      0.000000     0.000000    -0.526989
    16      0.000000     0.000000     1.039957
 
ocs.wfx

