%nprocs=4
%mem=2GB
#p pbepbe aug-cc-pvtz output=wfx scf=(conver=6) int=(grid=ultrafine)
 
title
 
0 1
O	0.000000 0.000000 -1.684673
C	0.000000 0.000000 -0.526989
S	0.000000 0.000000 1.039957

ocs.wfx

