%nprocs=4
%mem=2GB
#p pbepbe aug-cc-pvtz output=wfx scf=(conver=6) int=(grid=ultrafine)
 
title
 
0 2
     8      0.000000     0.000000     0.108460
     1      0.000000     0.000000    -0.867678
 
oh.wfx

