%nprocs=4
%mem=2GB
#p pbepbe aug-cc-pvtz output=wfx scf=(conver=6) int=(grid=ultrafine)
 
title
 
0 1
P	0.000000 0.000000 0.947605
P	0.000000 0.000000 -0.947605

p2.wfx

