%nprocs=4
%mem=2GB
#p pbepbe aug-cc-pvtz output=wfx scf=(conver=6) int=(grid=ultrafine)
 
title
 
0 1
P	0.781746 0.781746 0.781746
P	-0.781746 -0.781746 0.781746
P	0.781746 -0.781746 -0.781746
P	-0.781746 0.781746 -0.781746

p4.wfx

