%nprocs=4
%mem=2GB
#p pbepbe aug-cc-pvtz output=wfx scf=(conver=6) int=(grid=ultrafine)
 
title
 
0 1
P	0.000000 0.000000 0.733905
Cl	0.000000 1.847794 -0.215854
Cl	1.600237 -0.923897 -0.215854
Cl	-1.600237 -0.923897 -0.215854

pcl3.wfx

