%nprocs=4
%mem=2GB
#p pbepbe aug-cc-pvtz output=wfx scf=(conver=6) int=(grid=ultrafine)
 
title
 
0 1
    15      0.000000     0.000000     0.000000
     9      0.000000     0.000000     1.578218
     9      0.000000     1.549895     0.000000
     9      0.000000     0.000000    -1.578218
     9      1.342249    -0.774948     0.000000
     9     -1.342249    -0.774948     0.000000
 
pf5.wfx

