%nprocs=4
%mem=2GB
#p pbepbe aug-cc-pvtz output=wfx scf=(conver=6) int=(grid=ultrafine)
 
title
 
0 2
    15      0.000000     0.000000     0.115657
     1      0.000000     1.020130    -0.867427
     1      0.000000    -1.020130    -0.867427
 
ph2.wfx

