%nprocs=4
%mem=2GB
#p pbepbe aug-cc-pvtz output=wfx scf=(conver=6) int=(grid=ultrafine)
 
title
 
0 1
     6      0.000000     0.940284     0.000000
     6     -1.202594     0.231655     0.000000
     6     -1.185888    -1.160981     0.000000
     6      0.021562    -1.853512     0.000000
     6      1.218283    -1.137115     0.000000
     6      1.215209     0.252751     0.000000
     8      0.048567     2.303393     0.000000
     1     -0.850073     2.648779     0.000000
     1     -2.147441     0.769348     0.000000
     1     -2.125878    -1.703199     0.000000
     1      0.031478    -2.937515     0.000000
     1      2.166374    -1.665178     0.000000
     1      2.137567     0.822128     0.000000
 
phenol.wfx

