%nprocs=4
%mem=2GB
#p pbepbe aug-cc-pvtz output=wfx scf=(conver=6) int=(grid=ultrafine)
 
title
 
0 1
P	0.000000 0.000000 0.435409
O	0.000000 0.000000 1.892122
Cl	0.000000 1.835271 -0.424865
Cl	1.589391 -0.917635 -0.424865
Cl	-1.589391 -0.917635 -0.424865

pocl3.wfx

