%nprocs=4
%mem=2GB
#p pbepbe aug-cc-pvtz output=wfx scf=(conver=6) int=(grid=ultrafine)
 
title
 
0 1
S	0.000000 0.000000 0.855535
Cl	0.000000 1.611693 -0.402605
Cl	0.000000 -1.611693 -0.402605

scl2.wfx

