%nprocs=4
%mem=2GB
#p pbepbe aug-cc-pvtz output=wfx scf=(conver=6) int=(grid=ultrafine)
 
title
 
0 2
S	0.000000 0.000000 0.079412
H	0.000000 0.000000 -1.270597

sh.wfx

