%nprocs=4
%mem=2GB
#p pbepbe aug-cc-pvtz output=wfx scf=(conver=6) int=(grid=ultrafine)
 
title
 
0 1
    16      0.000000     0.000000     0.103450
     1      0.000000     0.971202    -0.827601
     1      0.000000    -0.971202    -0.827601
 
sh2.wfx

