%nprocs=4
%mem=2GB
#p pbepbe aug-cc-pvtz output=wfx scf=(conver=6) int=(grid=ultrafine)
 
title
 
0 3
    14      0.000000     0.000000     1.080933
    14      0.000000     0.000000    -1.080933
 
si2.wfx

