%nprocs=4
%mem=2GB
#p pbepbe aug-cc-pvtz output=wfx scf=(conver=6) int=(grid=ultrafine)
 
title
 
0 1
Si	0.000000 0.000000 0.000000
Cl	1.178376 1.178376 1.178376
Cl	-1.178376 -1.178376 1.178376
Cl	1.178376 -1.178376 -1.178376
Cl	-1.178376 1.178376 -1.178376

sicl4.wfx

