%nprocs=4
%mem=2GB
#p pbepbe aug-cc-pvtz output=wfx scf=(conver=6) int=(grid=ultrafine)
 
title
 
0 1
Si	0.000000 0.000000 0.937513
Cl	0.000000 1.631024 -0.386035
Cl	0.000000 -1.631024 -0.386035

sicl2.wfx

