%nprocs=4
%mem=2GB
#p pbepbe aug-cc-pvtz output=wfx scf=(conver=6) int=(grid=ultrafine)
 
title
 
0 1
    14      0.000000     0.000000     0.133313
     1      0.000000     1.091072    -0.933191
     1      0.000000    -1.091072    -0.933191
 
sih2sing.wfx

