%nprocs=4
%mem=2GB
#p pbepbe aug-cc-pvtz output=wfx scf=(conver=6) int=(grid=ultrafine)
 
title
 
0 3
    14      0.000000     0.000000     0.095224
     1      0.000000     1.276782    -0.666570
     1      0.000000    -1.276782    -0.666570
 
sih2trip.wfx

