%nprocs=4
%mem=2GB
#p pbepbe aug-cc-pvtz output=wfx scf=(conver=6) int=(grid=ultrafine)
 
title
 
0 1
Si	0.000000 0.000000 0.133313
H	0.000000 1.091072 -0.933191
H	0.000000 -1.091072 -0.933191

sih2sing.wfx

