%nprocs=4
%mem=2GB
#p pbepbe aug-cc-pvtz output=wfx scf=(conver=6) int=(grid=ultrafine)
 
title
 
0 1
Si	0.000000 0.000000 0.550124
O	0.000000 0.000000 -0.962718

sio.wfx

