%nprocs=4
%mem=2GB
#p pbepbe aug-cc-pvtz output=wfx scf=(conver=6) int=(grid=ultrafine)
 
title
 
0 3
O	0.000000 0.000000 -0.997835
S	0.000000 0.000000 0.498918

so.wfx

