%nprocs=4
%mem=2GB
#p pbepbe aug-cc-pvtz output=wfx scf=(conver=6) int=(grid=ultrafine)
 
title
 
0 1
S	0.000000 0.000000 0.364797
O	0.000000 1.244452 -0.364797
O	0.000000 -1.244452 -0.364797

so2.wfx

