%nprocs=4
%mem=2GB
#p pbepbe aug-cc-pvtz output=wfx scf=(conver=6) int=(grid=ultrafine)
 
title
 
0 1
C	0.000000 0.000000 0.000000
C	0.000000 0.763949 1.269433
C	0.000000 -0.763949 1.269433
C	0.763949 0.000000 -1.269433
C	-0.763949 0.000000 -1.269433
H	-0.912080 1.268773 1.573558
H	0.912080 1.268773 1.573558
H	-0.912080 -1.268773 1.573558
H	0.912080 -1.268773 1.573558
H	1.268773 -0.912080 -1.573558
H	1.268773 0.912080 -1.573558
H	-1.268773 -0.912080 -1.573558
H	-1.268773 0.912080 -1.573558

spiropentane.wfx

