%nprocs=4
%mem=2GB
#p pbepbe aug-cc-pvtz output=wfx scf=(conver=6) int=(grid=ultrafine)
 
title
 
0 1
     1     -0.595296     2.492692     0.000000
     1     -1.697206     1.415381     0.885317
     1     -1.697206     1.415381    -0.885317
     1      0.250250     0.361654     2.159395
     1      1.663377    -0.251907     1.278182
     1      1.342627     1.481329     1.322781
     8     -0.778814    -0.809533     0.000000
     6      0.000000     0.397648     0.000000
     6      0.866674     0.497588     1.265652
     6     -1.061225     1.502906     0.000000
     6      0.866674     0.497588    -1.265652
     1      1.663377    -0.251907    -1.278182
     1      1.342627     1.481329    -1.322781
     1      0.250250     0.361654    -2.159395
     6     -0.090914    -2.038418     0.000000
     1     -0.856227    -2.819463     0.000000
     1      0.538344    -2.176876     0.890815
     1      0.538344    -2.176876    -0.890815
 
t-butyl-methyl-ether.wfx

