%nprocs=4
%mem=2GB
#p pbepbe aug-cc-pvtz output=wfx scf=(conver=6) int=(grid=ultrafine)
 
title
 
0 1
    17      0.000000     0.000000     1.487902
     6      0.000000     0.000000    -0.367979
     6      0.000000     1.460314    -0.814436
     6      1.264669    -0.730157    -0.814436
     6     -1.264669    -0.730157    -0.814436
     1      0.000000     1.504969    -1.910018
     1      1.303342    -0.752485    -1.910018
     1     -1.303342    -0.752485    -1.910018
     1      0.886761     1.983905    -0.449427
     1     -0.886761     1.983905    -0.449427
     1      1.274731    -1.759911    -0.449427
     1      2.161493    -0.223995    -0.449427
     1     -2.161493    -0.223995    -0.449427
     1     -1.274731    -1.759911    -0.449427
 
t-butyl-chloride.wfx

