%nprocs=4
%mem=2GB
#p pbepbe aug-cc-pvtz output=wfx scf=(conver=6) int=(grid=ultrafine)
 
title
 
0 1
     6      0.000000     0.353189     0.000000
    16     -0.048716    -1.510541     0.000000
     6     -1.472230     0.791173     0.000000
     6      0.709361     0.859270     1.262152
     6      0.709361     0.859270    -1.262152
     1      1.283264    -1.711538     0.000000
     1     -1.530496     1.885137     0.000000
     1     -1.997443     0.424488     0.886897
     1     -1.997443     0.424488    -0.886897
     1      0.702158     1.956350     1.282266
     1      1.753683     0.533119     1.290082
     1      0.215470     0.494867     2.166329
     1      0.702158     1.956350    -1.282266
     1      1.753683     0.533119    -1.290082
     1      0.215470     0.494867    -2.166329
 
t-butanethiol.wfx

