%nprocs=4
%mem=2GB
#p pbepbe aug-cc-pvtz output=wfx scf=(conver=6) int=(grid=ultrafine)
 
title
 
0 1
H	0.468850 -0.678138 2.073152
H	0.393862 -2.109718 0.000000
C	-0.099937 -0.468686 -1.161742
C	-0.099937 1.025449 -0.778108
C	-0.099937 1.025449 0.778108
C	-0.099937 -0.468686 1.161742
N	0.524896 -1.103946 0.000000
H	-1.138386 -0.809574 -1.330503
H	0.468850 -0.678138 -2.073152
H	0.797512 1.518103 -1.160311
H	-0.962795 1.547701 -1.198474
H	-0.962795 1.547701 1.198474
H	0.797512 1.518103 1.160311
H	-1.138386 -0.809574 1.330503

tetrahydropyrrole.wfx

