%nprocs=4
%mem=2GB
#p pbepbe aug-cc-pvtz output=wfx scf=(conver=6) int=(grid=ultrafine)
 
title
 
0 1
Si	0.000000 0.000000 0.000000
C	1.089797 1.089797 1.089797
H	1.736724 1.736724 0.486804
H	1.736724 0.486804 1.736724
H	0.486804 1.736724 1.736724
C	-1.089797 -1.089797 1.089797
H	-1.736724 -0.486804 1.736724
H	-1.736724 -1.736724 0.486804
H	-0.486804 -1.736724 1.736724
C	1.089797 -1.089797 -1.089797
H	0.486804 -1.736724 -1.736724
H	1.736724 -0.486804 -1.736724
H	1.736724 -1.736724 -0.486804
C	-1.089797 1.089797 -1.089797
H	-1.736724 0.486804 -1.736724
H	-1.736724 1.736724 -0.486804
H	-0.486804 1.736724 -1.736724

tetramethylsilane.wfx

