%nprocs=4
%mem=2GB
#p pbepbe aug-cc-pvtz output=wfx scf=(conver=6) int=(grid=ultrafine)
 
title
 
0 1
     8      0.000000     1.425994     0.000000
     6      0.060165    -1.466654     0.000000
     6     -0.351066     0.716590     1.176787
     6     -0.351066     0.716590    -1.176787
     6      0.357923    -0.637560     1.258413
     6      0.357923    -0.637560    -1.258413
     1     -1.445225     0.566777     1.212225
     1     -0.075339     1.362774     2.015528
     1     -1.445225     0.566777    -1.212225
     1     -0.075339     1.362774    -2.015528
     1      1.438016    -0.464178     1.341523
     1      0.041826    -1.167568     2.164413
     1      1.438016    -0.464178    -1.341523
     1      0.041826    -1.167568    -2.164413
     1      0.638404    -2.396708     0.000000
     1     -1.000228    -1.755284     0.000000
 
tetrahydropyran.wfx

