%nprocs=4
%mem=2GB
#p pbepbe aug-cc-pvtz output=wfx scf=(conver=6) int=(grid=ultrafine)
 
title
 
0 1
     6      0.000000     0.740479    -0.802949
    16      0.000000     0.000000     0.871546
     6      0.000000    -0.740479    -0.802949
     1      0.914095     1.256623    -1.077338
     1     -0.914095     1.256623    -1.077338
     1     -0.914095    -1.256623    -1.077338
     1      0.914095    -1.256623    -1.077338
 
thiooxirane.wfx

