%nprocs=4
%mem=2GB
#p pbepbe aug-cc-pvtz output=wfx scf=(conver=6) int=(grid=ultrafine)
 
title
 
0 1
C	1.215032 -0.360322 0.000000
C	0.000000 0.574705 0.000000
N	-1.312105 -0.079907 0.000000
H	2.155098 0.203242 0.000000
H	1.212193 -1.007107 0.885127
H	1.212193 -1.007107 -0.885127
H	0.042654 1.233111 -0.876196
H	0.042654 1.233111 0.876196
H	-1.385125 -0.691098 0.809647
H	-1.385125 -0.691098 -0.809647

trans-ethylamine.wfx

