%nprocs=4
%mem=2GB
#p pbepbe aug-cc-pvtz output=wfx scf=(conver=6) int=(grid=ultrafine)
 
title
 
0 1
C	0.704177 1.833028 0.000000
C	0.704177 0.302188 0.000000
C	-0.704177 -0.302188 0.000000
C	-0.704177 -1.833028 0.000000
H	1.722279 2.235014 0.000000
H	-1.722279 -2.235014 0.000000
H	0.190261 2.228457 0.883399
H	0.190261 2.228457 -0.883399
H	-0.190261 -2.228457 0.883399
H	-0.190261 -2.228457 -0.883399
H	1.254182 -0.065403 -0.876688
H	1.254182 -0.065403 0.876688
H	-1.254182 0.065403 -0.876688
H	-1.254182 0.065403 0.876688

trans-butane.wfx

