&control
 title='crystal',
 prefix='crystal',
 pseudo_dir='..',
 calculation='vc-relax',
 etot_conv_thr=1.0D-5,
/
&system
 ibrav=0,
 celldm(1)=1.0,
 nat=80,
 ntyp=4,
 ecutwfc=80.0,
 ecutrho=800.0,
 xdm=.true.,
 xdm_a1=0.6512,
 xdm_a2=1.4633,
/
&electrons
 conv_thr = 1d-8,
/
&ions
/
&cell
/
ATOMIC_SPECIES
h      1.007940 h.UPF
c     12.010700 c.UPF
n     14.006700 n.UPF
o     15.999400 o.UPF

ATOMIC_POSITIONS crystal
c        0.966453166   0.361244458   0.241679056
c        0.033546721   0.861253894   0.258320314
c        0.033546834   0.638755542   0.758320944
c        0.966453279   0.138746106   0.741679686
c        0.130869159   0.329017541   0.217910986
c        0.869130661   0.829029194   0.282088595
c        0.869130841   0.670982459   0.782089014
c        0.130869339   0.170970806   0.717911405
c        0.237306675   0.452916208   0.306537985
c        0.762691906   0.952924849   0.193461536
c        0.762693325   0.547083792   0.693462015
c        0.237308094   0.047075151   0.806538464
c        0.390618340   0.384676146   0.352185668
c        0.609381672   0.884677048   0.147814325
c        0.609381660   0.615323854   0.647814332
c        0.390618328   0.115322952   0.852185675
c        0.560279431   0.228758838   0.472253294
c        0.439721453   0.728753272   0.027749617
c        0.439720569   0.771241162   0.527746706
c        0.560278547   0.271246728   0.972250383
c        0.526931423   0.430177133   0.311120508
c        0.473068343   0.930178087   0.188877240
c        0.473068577   0.569822867   0.688879492
c        0.526931657   0.069821913   0.811122760
h        0.158460225   0.200817169   0.254355294
h        0.841540967   0.700829068   0.245642570
h        0.841539775   0.799182831   0.745644706
h        0.158459033   0.299170932   0.754357430
h        0.129717571   0.455310110   0.018534857
h        0.870282482   0.955313260   0.481469601
h        0.870282429   0.544689890   0.981465143
h        0.129717518   0.044686740   0.518530399
h        0.070094533   0.260392944   0.000810393
h        0.929905011   0.760396148   0.499186052
h        0.929905467   0.739607056   0.999189607
h        0.070094989   0.239603852   0.500813948
h        0.259214289   0.301974679   0.038543926
h        0.740785751   0.801975843   0.461454303
h        0.740785711   0.698025321   0.961456074
h        0.259214249   0.198024157   0.538545697
h        0.244518067   0.569024315   0.245556009
h        0.755478226   0.069033330   0.254442606
h        0.755481933   0.430975685   0.754443991
h        0.244521774   0.930966670   0.745557394
h        0.184737226   0.487084379   0.402048856
h        0.815261118   0.987091239   0.097949983
h        0.815262774   0.512915621   0.597951144
h        0.184738882   0.012908761   0.902050017
h        0.619123978   0.140227542   0.546357120
h        0.380875881   0.640223547   0.953643830
h        0.380876022   0.859772458   0.453642880
h        0.619124119   0.359776453   0.046356170
h        0.748850441   0.333696961   0.382196627
h        0.251150204   0.833694940   0.117802878
h        0.251149559   0.666303039   0.617803373
h        0.748849796   0.166305060   0.882197122
h        0.556644866   0.524823217   0.237235658
h        0.443355127   0.024823496   0.262762664
h        0.443355134   0.475176783   0.762764342
h        0.556644873   0.975176504   0.737237336
n        0.149240891   0.336616235   0.062878511
n        0.850758947   0.836621169   0.437120968
n        0.850759109   0.663383765   0.937121489
n        0.149241053   0.163378831   0.562879032
n        0.412778561   0.257664364   0.453447794
n        0.587222463   0.757661116   0.046555411
n        0.587221439   0.742335636   0.546552206
n        0.412777537   0.242338884   0.953444589
n        0.632943012   0.330017921   0.387724671
n        0.367057525   0.830014857   0.112275330
n        0.367056988   0.669982079   0.612275329
n        0.632942475   0.169985143   0.887724670
o        0.873638048   0.410991849   0.138893574
o        0.126364244   0.910997492   0.361106892
o        0.126361952   0.589008151   0.861106426
o        0.873635756   0.089002508   0.638893108
o        0.937359054   0.334328936   0.369708125
o        0.062640295   0.834336368   0.130292185
o        0.062640946   0.665671064   0.630291875
o        0.937359705   0.165663632   0.869707815

K_POINTS automatic
4 4 4 1 1 1

CELL_PARAMETERS cubic
  16.941302400  -0.000048331   0.081961917
  -0.000042794  15.107709298  -0.000010118
  -2.279312553  -0.000005312  17.581613628
