&control
 title='crystal',
 prefix='crystal',
 pseudo_dir='.',
 calculation='vc-relax',
/
&system
 ibrav=0,
 celldm(1)=1.0,
 nat=    80,
 ntyp=  4,
 ecutwfc=60.0,
 ecutrho=600.0,
 xdm=.true.,
 xdm_a1=0.4073,
 xdm_a2=2.4150,
/
&electrons
 conv_thr = 1d-8,
/
&ions
/
&cell
/
ATOMIC_SPECIES
h      1.007940 h.UPF
c     12.010700 c.UPF
n     14.006700 n.UPF
o     15.999400 o.UPF

ATOMIC_POSITIONS crystal
c     0.96645320     0.36124444     0.24167904
c     0.03354686     0.63875554     0.75832092
c     0.03354674     0.86125391     0.25832030
c     0.96645332     0.13874607     0.74167966
c     0.13086917     0.32901754     0.21791098
c     0.86913089     0.67098244     0.78208899
c     0.86913070     0.82902919     0.28208858
c     0.13086936     0.17097079     0.71791139
c     0.23730669     0.45291620     0.30653797
c     0.76269337     0.54708378     0.69346199
c     0.76269194     0.95292485     0.19346152
c     0.23730812     0.04707513     0.80653845
c     0.39061836     0.38467614     0.35218566
c     0.60938170     0.61532384     0.64781431
c     0.60938170     0.88467705     0.14781431
c     0.39061836     0.11532293     0.85218565
c     0.56027946     0.22875882     0.47225328
c     0.43972060     0.77124116     0.52774669
c     0.43972147     0.72875328     0.02774961
c     0.56027859     0.27124670     0.97225036
c     0.52693145     0.43017713     0.31112049
c     0.47306861     0.56982285     0.68887947
c     0.47306837     0.93017809     0.18887723
c     0.52693169     0.06982189     0.81112274
h     0.15846024     0.20081716     0.25435529
h     0.84153982     0.79918282     0.74564468
h     0.84154100     0.70082906     0.24564256
h     0.15845906     0.29917093     0.75435741
h     0.12971758     0.45531011     0.01853485
h     0.87028248     0.54468987     0.98146511
h     0.87028252     0.95531325     0.48146958
h     0.12971754     0.04468673     0.51853038
h     0.07009454     0.26039295     0.00081039
h     0.92990552     0.73960703     0.99918957
h     0.92990505     0.76039613     0.49918603
h     0.07009501     0.23960385     0.50081393
h     0.25921430     0.30197468     0.03854392
h     0.74078576     0.69802530     0.96145604
h     0.74078579     0.80197583     0.46145429
h     0.25921427     0.19802415     0.53854568
h     0.24451809     0.56902431     0.24555600
h     0.75548197     0.43097567     0.75444397
h     0.75547825     0.06903331     0.25444259
h     0.24452181     0.93096667     0.74555737
h     0.18473725     0.48708437     0.40204884
h     0.81526281     0.51291561     0.59795112
h     0.81526115     0.98709124     0.09794997
h     0.18473891     0.01290874     0.90205000
h     0.61912401     0.14022752     0.54635711
h     0.38087605     0.85977246     0.45364286
h     0.38087592     0.64022353     0.95364380
h     0.61912414     0.35977645     0.04635616
h     0.74885047     0.33369695     0.38219661
h     0.25114959     0.66630303     0.61780335
h     0.25115022     0.83369495     0.11780287
h     0.74884984     0.16630503     0.88219710
h     0.55664489     0.52482321     0.23723564
h     0.44335517     0.47517677     0.76276432
h     0.44335514     0.02482348     0.26276266
h     0.55664492     0.97517650     0.73723731
n     0.14924090     0.33661624     0.06287850
n     0.85075916     0.66338374     0.93712146
n     0.85075899     0.83662116     0.43712095
n     0.14924107     0.16337882     0.56287902
n     0.41277859     0.25766435     0.45344778
n     0.58722147     0.74233563     0.54655219
n     0.58722249     0.75766112     0.04655540
n     0.41277757     0.24233886     0.95344456
n     0.63294304     0.33001791     0.38772466
n     0.36705702     0.66998207     0.61227531
n     0.36705754     0.83001486     0.11227532
n     0.63294252     0.16998512     0.88772465
o     0.87363808     0.41099183     0.13889356
o     0.12636198     0.58900815     0.86110640
o     0.12636426     0.91099750     0.36110688
o     0.87363580     0.08900248     0.63889309
o     0.93735909     0.33432891     0.36970811
o     0.06264097     0.66567107     0.63029185
o     0.06264031     0.83433638     0.13029217
o     0.93735975     0.16566360     0.86970779

K_POINTS automatic
2 2 2 1 1 1

CELL_PARAMETERS cubic
   16.941302000000    -0.000048000000     0.081962000000
   -0.000043000000    15.107709000000    -0.000010000000
   -2.279313000000    -0.000005000000    17.581614000000
