&control
 title='crystal',
 prefix='crystal',
 pseudo_dir='..',
 calculation='vc-relax',
 etot_conv_thr=1.0D-5,
/
&system
 ibrav=0,
 celldm(1)=1.0,
 nat=    88,
 ntyp=  4,
 ecutwfc=80.0,
 ecutrho=800.0,
 xdm=.true.,
 xdm_a1=0.6512,
 xdm_a2=1.4633,
/
&electrons
 conv_thr = 1d-8,
/
&ions
/
&cell
/
ATOMIC_SPECIES
h      1.007940 h.UPF
c     12.010700 c.UPF
n     14.006700 n.UPF
o     15.999400 o.UPF

ATOMIC_POSITIONS crystal
o        0.367063549   0.643404383   0.415050346
o        0.632936451   0.143404383   0.584949654
o        0.279084066   0.267909820   0.363803738
o        0.720915934   0.767909820   0.636196262
n        0.114384955   0.853144411   0.428551543
n        0.885615045   0.353144411   0.571448457
h        0.181225910   0.998985683   0.410311235
h        0.818774090   0.498985683   0.589688765
h        0.009674603   0.923036527   0.424810413
h        0.990325397   0.423036527   0.575189587
h        0.141322308   0.794382396   0.495897522
h        0.858677692   0.294382396   0.504102478
c        0.266867139   0.502044632   0.383639940
c        0.733132861   1.002044632   0.616360060
c        0.123599551   0.629758742   0.365039806
c        0.876400449   0.129758742   0.634960194
h        0.040154555   0.497104407   0.380505661
h        0.959845445  -0.002895593   0.619494339
c        0.100387493   0.727368936   0.265394365
c        0.899612507   0.227368936   0.734605635
h        0.001130157   0.833225212   0.260528950
h        0.998869843   0.333225212   0.739471050
h        0.183100714   0.866658349   0.253862052
h        0.816899286   0.366658349   0.746137948
c        0.094285987   0.524088164   0.189321660
c        0.905714013   0.024088164   0.810678340
h        0.190252140   0.408599263   0.197457626
h        0.809747860   0.908599263   0.802542374
c        0.968399689   0.346940862   0.194768458
c        0.031600311   0.846940862   0.805231542
h        0.969459595   0.197328227   0.141998551
h        0.030540405   0.697328227   0.858001449
h        0.870840066   0.455566735   0.182331414
h        0.129159934   0.955566735   0.817668586
h        0.965541768   0.254334178   0.262189160
h        0.034458232   0.754334178   0.737810840
c        0.087425958   0.654262384   0.094661802
c        0.912574042   0.154262384   0.905338198
h        0.175546243   0.784552043   0.087658326
h        0.824453757   0.284552043   0.912341674
h       -0.009525639   0.765551552   0.083706765
h        1.009525639   0.265551552   0.916293235
h        0.087746285   0.512725438   0.039086016
h        0.912253715   0.012725438   0.960913984
o        0.150559617   0.539485885   0.584105910
o        0.849440383   0.039485885   0.415894090
o        0.230396733   0.143927150   0.619285211
o        0.769603267   0.643927150   0.380714789
n        0.417513395   0.734513351   0.599089671
n        0.582486605   0.234513351   0.400910329
h        0.354603528   0.889723441   0.615576179
h        0.645396472   0.389723441   0.384423821
h        0.523143556   0.779788822   0.612767226
h        0.476856444   0.279788822   0.387232774
h        0.400939121   0.704716944   0.527530167
h        0.599060879   0.204716944   0.472469833
c        0.245441458   0.382174133   0.614113685
c        0.754558542   0.882174133   0.385886315
c        0.385969640   0.497193169   0.650724077
c        0.614030360   0.997193169   0.349275923
h        0.469679975   0.361797971   0.638704827
h        0.530320025   0.861797971   0.361295173
c        0.385321642   0.564726993   0.753529975
c        0.614678358   0.064726993   0.246470025
h        0.479123218   0.680128002   0.771955931
h        0.520876782   0.180128002   0.228044069
h        0.294651640   0.688132815   0.762424141
h        0.705348360   0.188132815   0.237575859
c        0.384734787   0.336290437   0.819531392
c        0.615265213   0.836290437   0.180468608
h        0.303113900   0.202471548   0.792728893
h        0.696886100   0.702471548   0.207271107
c        0.525492543   0.197497349   0.825023602
c        0.474507457   0.697497349   0.174976398
h        0.525230771   0.033510017   0.871959128
h        0.474769229   0.533510017   0.128040872
h        0.609106592   0.327290807   0.851439054
h        0.390893408   0.827290807   0.148560946
h        0.552845628   0.128504036   0.757432148
h        0.447154372   0.628504036   0.242567852
c        0.349057092   0.425951484   0.915372851
c        0.650942908   0.925951484   0.084627149
h        0.246735729   0.520132073   0.912714253
h        0.753264271   1.020132073   0.087285747
h        0.427027089   0.563732228   0.944206264
h        0.572972911   0.063732228   0.055793736
h        0.346939851   0.265339006   0.963822187
h        0.653060149   0.765339006   0.036177813

K_POINTS automatic
4 4 4 1 1 1

CELL_PARAMETERS cubic
  18.126722979   0.000000000   0.002612930
   0.000000000   9.905632977   0.000000000
  -2.016063181   0.000000000  27.379332905
