&control
 title='crystal',
 prefix='crystal',
 pseudo_dir='../..',
 forc_conv_thr=1.0D-4,
 etot_conv_thr=1.0D-5,
/
&system
 ibrav=0,
 nat=    12,
 ntyp=  3,
 ecutwfc=80.0,
 ecutrho=800.0,
 vdw_corr='xdm',
 nosym=.true.,
/
&electrons
 conv_thr = 1d-10,
/
&ions
/
&cell
 press_conv_thr=0.01,
/
ATOMIC_SPECIES
C    12.010700 c.UPF
O    15.999400 o.UPF
H     1.007940 h.UPF

ATOMIC_POSITIONS crystal
C             0.4015808934        0.3755753327        0.4012585647
C             0.4463286539        0.2132160328        0.4497141794
C             0.5984713921        0.6244533887        0.5986795200
C             0.5537178502        0.7868059597        0.5502176438
O             0.2575212701        0.9835969685        0.2557699103
O             0.6901502186        0.3251921546        0.7040538557
O             0.7425381813        0.0164380682        0.7441694402
O             0.3099003516        0.6748362185        0.2958884359
H             0.7045538981        0.1985303925        0.7153486019
H             0.1959694119        0.2784589748        0.1921188585
H             0.2954992992        0.8015002259        0.2845930451
H             0.8040836395        0.7215684031        0.8078178743

K_POINTS automatic
7 5 7  1 1 1

CELL_PARAMETERS bohr
  10.097075647   0.058039145   0.002967302
 -10.080745413  10.120506361   0.036240546
   0.714144728  -2.631923864   7.508380225
