&control
 title='crystal',
 prefix='crystal',
 pseudo_dir='.',
 calculation='vc-relax',
/
&system
 ibrav=0,
 celldm(1)=1.0,
 nat=   352,
 ntyp=  4,
 ecutwfc=60.0,
 ecutrho=600.0,
 xdm=.true.,
 xdm_a1=0.4073,
 xdm_a2=2.4150,
/
&electrons
 conv_thr = 1d-8,
/
&ions
/
&cell
/
ATOMIC_SPECIES
h      1.007940 h.UPF
c     12.010700 c.UPF
n     14.006700 n.UPF
o     15.999400 o.UPF

ATOMIC_POSITIONS crystal
o     0.48295616     0.62260188     0.00419509
o     0.51704385     0.37739811     0.99580492
o     0.98295616     0.62260188     0.99580492
o     0.01704385     0.37739812     0.00419509
o     0.01704526     0.62259222     0.50419621
o     0.98295475     0.37740778     0.49580381
o     0.51704527     0.62259221     0.49580381
o     0.48295475     0.37740779     0.50419621
h     0.46992368     0.68602884     0.02175768
h     0.53007633     0.31397115     0.97824233
h     0.96992368     0.68602884     0.97824233
h     0.03007633     0.31397116     0.02175768
h     0.03007520     0.68602083     0.52175027
h     0.96992481     0.31397916     0.47824974
h     0.53007520     0.68602082     0.47824974
h     0.46992481     0.31397917     0.52175027
o     0.59651265     0.70162098     0.91525578
o     0.40348736     0.29837901     0.08474424
o     0.09651265     0.70162097     0.08474424
o     0.90348736     0.29837902     0.91525578
o     0.90349370     0.70161803     0.41522336
o     0.09650631     0.29838196     0.58477666
o     0.40349370     0.70161803     0.58477666
o     0.59650631     0.29838197     0.41522336
o     0.60685373     0.46800923     0.88216696
o     0.39314628     0.53199076     0.11783306
o     0.10685373     0.46800923     0.11783306
o     0.89314628     0.53199077     0.88216696
o     0.89314568     0.46800854     0.38213319
o     0.10685433     0.53199145     0.61786682
o     0.39314568     0.46800853     0.61786682
o     0.60685433     0.53199146     0.38213319
h     0.57116815     0.43684184     0.92263731
h     0.42883186     0.56315815     0.07736270
h     0.07116815     0.43684184     0.07736270
h     0.92883186     0.56315816     0.92263731
h     0.92882930     0.43684344     0.42261881
h     0.07117071     0.56315655     0.57738121
h     0.42882930     0.43684343     0.57738121
h     0.57117071     0.56315656     0.42261881
o     0.69807017     0.57023463     0.78793340
o     0.30192984     0.42976536     0.21206661
o     0.19807017     0.57023462     0.21206661
o     0.80192984     0.42976537     0.78793340
o     0.80193227     0.57023665     0.28790406
o     0.19806774     0.42976334     0.71209595
o     0.30193228     0.57023665     0.71209595
o     0.69806774     0.42976335     0.28790406
n     0.69677349     0.71645616     0.82714225
n     0.30322652     0.28354384     0.17285776
n     0.19677350     0.71645615     0.17285776
n     0.80322652     0.28354385     0.82714225
n     0.80322978     0.71645538     0.32713272
n     0.19677023     0.28354462     0.67286730
n     0.30322979     0.71645537     0.67286730
n     0.69677022     0.28354463     0.32713272
n     0.78333774     0.63477503     0.87010246
n     0.21666227     0.36522497     0.12989755
n     0.28333774     0.63477502     0.12989755
n     0.71666227     0.36522498     0.87010246
n     0.71666875     0.63477502     0.37010830
n     0.28333126     0.36522497     0.62989171
n     0.21666875     0.63477501     0.62989171
n     0.78333126     0.36522499     0.37010830
h     0.80690079     0.68949969     0.89593905
h     0.19309923     0.31050030     0.10406096
h     0.30690079     0.68949968     0.10406096
h     0.69309922     0.31050031     0.89593905
h     0.69310471     0.68949605     0.39594662
h     0.30689530     0.31050395     0.60405340
h     0.19310471     0.68949604     0.60405340
h     0.80689530     0.31050396     0.39594662
h     0.80499524     0.57722119     0.85896860
h     0.19500477     0.42277880     0.14103141
h     0.30499524     0.57722118     0.14103141
h     0.69500477     0.42277881     0.85896860
h     0.69500954     0.57721932     0.35896405
h     0.30499047     0.42278068     0.64103596
h     0.19500955     0.57721931     0.64103596
h     0.80499047     0.42278069     0.35896405
c     0.53734741     0.61180580     0.08346653
c     0.46265260     0.38819419     0.91653348
c     0.03734742     0.61180580     0.91653348
c     0.96265259     0.38819420     0.08346653
c     0.96264975     0.61179817     0.58344969
c     0.03735027     0.38820182     0.41655032
c     0.46264975     0.61179816     0.41655032
c     0.53735026     0.38820183     0.58344969
h     0.53772647     0.54738385     0.13660276
h     0.46227354     0.45261614     0.86339725
h     0.03772648     0.54738385     0.86339725
h     0.96227353     0.45261615     0.13660276
h     0.96226742     0.54737540     0.63658355
h     0.03773259     0.45262459     0.36341646
h     0.46226742     0.54737539     0.36341646
h     0.53773259     0.45262460     0.63658355
h     0.54078426     0.66028764     0.17405146
h     0.45921576     0.33971235     0.82594855
h     0.04078426     0.66028763     0.82594855
h     0.95921575     0.33971236     0.17405146
h     0.95920945     0.66027894     0.67403538
h     0.04079056     0.33972105     0.32596463
h     0.45920945     0.66027893     0.32596463
h     0.54079056     0.33972106     0.67403538
c     0.59181028     0.61711968     0.98443864
c     0.40818973     0.38288032     0.01556137
c     0.09181028     0.61711967     0.01556137
c     0.90818973     0.38288033     0.98443864
c     0.90819181     0.61711650     0.48440203
c     0.09180820     0.38288350     0.51559799
c     0.40819181     0.61711649     0.51559799
c     0.59180820     0.38288351     0.48440203
h     0.63067870     0.60416726     0.05647122
h     0.36932131     0.39583274     0.94352879
h     0.13067870     0.60416725     0.94352879
h     0.86932131     0.39583275     0.05647122
h     0.86932047     0.60416507     0.55642656
h     0.13067954     0.39583492     0.44357345
h     0.36932048     0.60416506     0.44357345
h     0.63067954     0.39583493     0.55642656
c     0.59265467     0.55521016     0.84873310
c     0.40734534     0.44478983     0.15126691
c     0.09265467     0.55521016     0.15126691
c     0.90734534     0.44478984     0.84873310
c     0.90734745     0.55520841     0.34869541
c     0.09265256     0.44479159     0.65130461
c     0.40734745     0.55520840     0.65130461
c     0.59265256     0.44479160     0.34869541
h     0.54962317     0.56112606     0.79120632
h     0.45037684     0.43887393     0.20879370
h     0.04962317     0.56112605     0.20879370
h     0.95037684     0.43887394     0.79120632
h     0.95037921     0.56112141     0.29116889
h     0.04962080     0.43887858     0.70883112
h     0.45037922     0.56112141     0.70883112
h     0.54962080     0.43887859     0.29116889
c     0.63859566     0.59718497     0.74588781
c     0.36140436     0.40281502     0.25411220
c     0.13859566     0.59718497     0.25411220
c     0.86140435     0.40281503     0.74588781
c     0.86140622     0.59718754     0.24585237
c     0.13859379     0.40281246     0.75414764
c     0.36140622     0.59718753     0.75414764
c     0.63859379     0.40281247     0.24585237
h     0.63286825     0.58209359     0.62646312
h     0.36713176     0.41790640     0.37353690
h     0.13286825     0.58209359     0.37353690
h     0.86713176     0.41790641     0.62646312
h     0.86713150     0.58209748     0.12642694
h     0.13286851     0.41790251     0.87357307
h     0.36713150     0.58209747     0.87357307
h     0.63286851     0.41790252     0.12642694
c     0.63677685     0.69456645     0.78742380
c     0.36322316     0.30543354     0.21257621
c     0.13677686     0.69456644     0.21257621
c     0.86322316     0.30543355     0.78742380
c     0.86322628     0.69456906     0.28739765
c     0.13677373     0.30543093     0.71260236
c     0.36322628     0.69456906     0.71260236
c     0.63677373     0.30543094     0.28739765
h     0.61884180     0.73732991     0.70004630
h     0.38115821     0.26267009     0.29995371
h     0.11884180     0.73732990     0.29995371
h     0.88115821     0.26267010     0.70004630
h     0.88115853     0.73733544     0.20002281
h     0.11884148     0.26266456     0.79997720
h     0.38115854     0.73733543     0.79997720
h     0.61884148     0.26266457     0.20002281
c     0.72703876     0.64388851     0.83007900
c     0.27296126     0.35611148     0.16992102
c     0.22703876     0.64388850     0.16992102
c     0.77296125     0.35611149     0.83007900
c     0.77296606     0.64388993     0.33006799
c     0.22703395     0.35611006     0.66993202
c     0.27296606     0.64388993     0.66993202
c     0.72703395     0.35611007     0.33006799
o     0.22878712     0.87458263     0.08309946
o     0.77121289     0.12541736     0.91690055
o     0.72878713     0.87458263     0.91690055
o     0.27121289     0.12541737     0.08309946
o     0.27121383     0.87457513     0.58306848
o     0.72878618     0.12542487     0.41693153
o     0.77121383     0.87457512     0.41693153
o     0.22878618     0.12542488     0.58306848
h     0.21793832     0.81278014     0.11698218
h     0.78206169     0.18721986     0.88301784
h     0.71793832     0.81278013     0.88301784
h     0.28206169     0.18721987     0.11698218
h     0.28206532     0.81277611     0.61696550
h     0.71793469     0.18722388     0.38303451
h     0.78206533     0.81277611     0.38303451
h     0.21793469     0.18722389     0.61696550
o     0.34665026     0.79469280     0.07557299
o     0.65334976     0.20530720     0.92442702
o     0.84665026     0.79469279     0.92442702
o     0.15334975     0.20530721     0.07557299
o     0.15334847     0.79468413     0.57555013
o     0.84665154     0.20531586     0.42444988
o     0.65334847     0.79468413     0.42444988
o     0.34665154     0.20531587     0.57555013
o     0.36228640     0.02650842     0.03012112
o     0.63771361     0.97349157     0.96987889
o     0.86228640     0.02650842     0.96987889
o     0.13771361     0.97349158     0.03012112
o     0.13772233     0.02650007     0.53007719
o     0.86227768     0.97349992     0.46992282
o     0.63772233     0.02650007     0.46992282
o     0.36227768     0.97349993     0.53007719
h     0.32805100     0.06674658     0.05171370
h     0.67194901     0.93325342     0.94828631
h     0.82805100     0.06674657     0.94828631
h     0.17194901     0.93325343     0.05171370
h     0.17195574     0.06674081     0.55168223
h     0.82804427     0.93325919     0.44831778
h     0.67195575     0.06674080     0.44831778
h     0.32804427     0.93325920     0.55168223
o     0.45962377     0.93072771     0.08993970
o     0.54037624     0.06927229     0.91006031
o     0.95962378     0.93072770     0.91006031
o     0.04037624     0.06927230     0.08993970
o     0.04038052     0.93072839     0.58988281
o     0.95961949     0.06927160     0.41011721
o     0.54038053     0.93072839     0.41011721
o     0.45961948     0.06927161     0.58988281
n     0.45278491     0.78363977     0.07167282
n     0.54721510     0.21636022     0.92832719
n     0.95278491     0.78363976     0.92832719
n     0.04721510     0.21636023     0.07167282
n     0.04721071     0.78364215     0.57164725
n     0.95278931     0.21635784     0.42835276
n     0.54721071     0.78364215     0.42835276
n     0.45278930     0.21635785     0.57164725
n     0.53101087     0.85964528     0.95496790
n     0.46898914     0.14035471     0.04503211
n     0.03101087     0.85964528     0.04503211
n     0.96898914     0.14035472     0.95496790
n     0.96899949     0.85963841     0.45493905
n     0.03100052     0.14036158     0.54506096
n     0.46899949     0.85963840     0.54506096
n     0.53100052     0.14036160     0.45493905
h     0.55248765     0.80264828     0.93142057
h     0.44751236     0.19735172     0.06857944
h     0.05248766     0.80264827     0.06857944
h     0.94751236     0.19735173     0.93142057
h     0.94750926     0.80264270     0.43139255
h     0.05249075     0.19735730     0.56860746
h     0.44750926     0.80264269     0.56860746
h     0.55249075     0.19735731     0.43139255
h     0.55508731     0.91570931     0.95307730
h     0.44491270     0.08429068     0.04692272
h     0.05508732     0.91570930     0.04692272
h     0.94491270     0.08429069     0.95307730
h     0.94491241     0.91571158     0.45304182
h     0.05508760     0.08428842     0.54695819
h     0.44491241     0.91571157     0.54695819
h     0.55508760     0.08428843     0.45304182
c     0.26645511     0.87061652     0.95445854
c     0.73354491     0.12938348     0.04554147
c     0.76645511     0.87061651     0.04554147
c     0.23354490     0.12938349     0.95445854
c     0.23354750     0.87059771     0.45442480
c     0.76645251     0.12940229     0.54557521
c     0.73354750     0.87059770     0.54557521
c     0.26645251     0.12940230     0.45442480
h     0.25700509     0.92662663     0.88150417
h     0.74299492     0.07337336     0.11849584
h     0.75700509     0.92662662     0.11849584
h     0.24299492     0.07337337     0.88150417
h     0.24299781     0.92660135     0.38145623
h     0.75700220     0.07339865     0.61854378
h     0.74299781     0.92660134     0.61854378
h     0.25700220     0.07339866     0.38145623
h     0.25747067     0.81199097     0.88742346
h     0.74252934     0.18800903     0.11257655
h     0.75747067     0.81199096     0.11257655
h     0.24252934     0.18800904     0.88742346
h     0.24253215     0.81196585     0.38740621
h     0.75746787     0.18803414     0.61259380
h     0.74253215     0.81196584     0.61259380
h     0.25746786     0.18803415     0.38740621
c     0.33168783     0.87300912     0.99462454
c     0.66831218     0.12699088     0.00537548
c     0.83168783     0.87300911     0.00537548
c     0.16831218     0.12699089     0.99462454
c     0.16831429     0.87299451     0.49459032
c     0.83168572     0.12700549     0.50540969
c     0.66831430     0.87299450     0.50540969
c     0.33168571     0.12700550     0.49459032
h     0.35742870     0.87766073     0.88902520
h     0.64257131     0.12233926     0.11097482
h     0.85742871     0.87766073     0.11097482
h     0.14257131     0.12233927     0.88902520
h     0.14257328     0.87764271     0.38898996
h     0.85742673     0.12235728     0.61101006
h     0.64257328     0.87764270     0.61101006
h     0.35742673     0.12235729     0.38898996
c     0.35132719     0.94619487     0.10187290
c     0.64867282     0.05380512     0.89812711
c     0.85132719     0.94619486     0.89812711
c     0.14867282     0.05380513     0.10187290
c     0.14867656     0.94618707     0.60182792
c     0.85132346     0.05381292     0.39817209
c     0.64867656     0.94618706     0.39817209
c     0.35132345     0.05381293     0.60182792
h     0.31751067     0.95299512     0.19023852
h     0.68248934     0.04700488     0.80976149
h     0.81751067     0.95299511     0.80976149
h     0.18248934     0.04700489     0.19023852
h     0.18249268     0.95298230     0.69019822
h     0.81750733     0.04701769     0.30980179
h     0.68249268     0.95298229     0.30980179
h     0.31750733     0.04701770     0.69019822
c     0.40701273     0.90863623     0.17607532
c     0.59298728     0.09136376     0.82392470
c     0.90701274     0.90863622     0.82392470
c     0.09298728     0.09136377     0.17607532
c     0.09298871     0.90863635     0.67602955
c     0.90701130     0.09136365     0.32397046
c     0.59298871     0.90863634     0.32397046
c     0.40701130     0.09136366     0.67602955
h     0.41350290     0.93170805     0.29125479
h     0.58649712     0.06829194     0.70874522
h     0.91350290     0.93170805     0.70874522
h     0.08649711     0.06829195     0.29125479
h     0.08649537     0.93171466     0.79120280
h     0.91350465     0.06828533     0.20879721
h     0.58649537     0.93171466     0.20879721
h     0.41350464     0.06828534     0.79120280
c     0.40135248     0.80922635     0.15717874
c     0.59864753     0.19077364     0.84282128
c     0.90135249     0.80922634     0.84282128
c     0.09864753     0.19077365     0.15717874
c     0.09864663     0.80922292     0.65715904
c     0.90135338     0.19077707     0.34284098
c     0.59864663     0.80922292     0.34284098
c     0.40135338     0.19077708     0.65715904
h     0.39701808     0.77220609     0.26212688
h     0.60298193     0.22779390     0.73787313
h     0.89701808     0.77220609     0.73787313
h     0.10298193     0.22779391     0.26212688
h     0.10297892     0.77221304     0.76210771
h     0.89702109     0.22778695     0.23789230
h     0.60297892     0.77221304     0.23789230
h     0.39702109     0.22778696     0.76210771
c     0.48178373     0.85457801     0.03670661
c     0.51821628     0.14542198     0.96329340
c     0.98178374     0.85457800     0.96329340
c     0.01821628     0.14542199     0.03670661
c     0.01821127     0.85456917     0.53665531
c     0.98178874     0.14543082     0.46334470
c     0.51821127     0.85456916     0.46334470
c     0.48178874     0.14543083     0.53665531

K_POINTS automatic
2 2 2 1 1 1

CELL_PARAMETERS cubic
   42.775367000000     0.000077000000     0.000000000000
    0.000053000000    29.083945000000     0.000000000000
    0.000000000000     0.000000000000    16.776301000000
