## FHIaims input file generated by critic2.
lattice_vector 6.2584630000       0.0000000000       0.0010920000      
lattice_vector 0.0087560000       6.2700020000       -0.0065670000     
lattice_vector 0.0000000000       0.0000000000       5.8146080000      
atom_frac  0.2469380000       0.3651950000       0.3511890000       H 
atom_frac  0.2507480000       0.1200220000       0.3466180000       H 
atom_frac  0.2544860000       0.6738570000       0.6259200000       H 
atom_frac  0.6800220000       0.2512950000       0.8728700000       H 
atom_frac  0.3688750000       0.4565470000       0.7003470000       H 
atom_frac  0.3755430000       0.0399450000       0.7014680000       H 
atom_frac  0.1308850000       0.0334030000       0.7050020000       H 
atom_frac  0.0406450000       0.3614220000       0.7769500000       H 
atom_frac  0.4588680000       0.2479420000       0.0117830000       H 
atom_frac  0.0486020000       0.2443360000       0.0125810000       H 
atom_frac  0.5411320000       0.7520580000       0.9882170000       H 
atom_frac  0.9513980000       0.7556640000       0.9874190000       H 
atom_frac  0.7530620000       0.6348050000       0.6488110000       H 
atom_frac  0.7492520000       0.8799780000       0.6533820000       H 
atom_frac  0.7455140000       0.3261430000       0.3740800000       H 
atom_frac  0.3199780000       0.7487050000       0.1271300000       H 
atom_frac  0.6311250000       0.5434530000       0.2996540000       H 
atom_frac  0.6244570000       0.9600550000       0.2985320000       H 
atom_frac  0.8691150000       0.9665970000       0.2949980000       H 
atom_frac  0.9593550000       0.6385780000       0.2230500000       H 
atom_frac  0.2541040000       0.9654530000       0.6272630000       O 
atom_frac  0.9714750000       0.2444850000       0.8637490000       O 
atom_frac  0.2511690000       0.2438870000       0.2416610000       O 
atom_frac  0.2443130000       0.5163730000       0.6179820000       O 
atom_frac  0.5224680000       0.2503160000       0.8563990000       O 
atom_frac  0.7488310000       0.7561130000       0.7583390000       O 
atom_frac  0.7556870000       0.4836270000       0.3820190000       O 
atom_frac  0.4775320000       0.7496840000       0.1436010000       O 
atom_frac  0.0285250000       0.7555150000       0.1362520000       O 
atom_frac  0.7458960000       0.0345470000       0.3727380000       O 
