## FHIaims input file generated by critic2.
lattice_vector 4.8494653700       0.0000000000       0.0000000000      
lattice_vector 0.0000000000       4.8494653700       0.0000000000      
lattice_vector 0.0000000000       0.0000000000       7.0565137900      
atom_frac  0.3984050267       0.5595602655       0.9872608072       H 
atom_frac  0.8984049885       0.0595602274       0.4872608220       H 
atom_frac  0.2372497878       0.8984049885       0.2372608146       H 
atom_frac  0.0595602274       0.3984050267       0.7372608295       H 
atom_frac  0.8984049885       0.5595602655       0.1002782296       H 
atom_frac  0.8984049885       0.2372497878       0.1002782296       H 
atom_frac  0.0595602274       0.8984049885       0.8502782222       H 
atom_frac  0.2372497878       0.3984050267       0.3502782370       H 
atom_frac  0.7372497497       0.8984049885       0.8502782222       H 
atom_frac  0.7372497497       0.3984050267       0.7372608295       H 
atom_frac  0.3984050267       0.2372497878       0.9872608072       H 
atom_frac  0.5595602655       0.8984049885       0.2372608146       H 
atom_frac  0.5595602655       0.3984050267       0.3502782370       H 
atom_frac  0.8984049885       0.7372497497       0.4872608220       H 
atom_frac  0.3984050267       0.0595602274       0.6002782445       H 
atom_frac  0.3984050267       0.7372497497       0.6002782445       H 
atom_frac  0.3984050267       0.3984050267       0.9024288324       O 
atom_frac  0.3984050267       0.8984049885       0.1524288398       O 
atom_frac  0.8984049885       0.3984050267       0.6524288547       O 
atom_frac  0.8984049885       0.3984050267       0.1851102044       O 
atom_frac  0.8984049885       0.8984049885       0.9351101970       O 
atom_frac  0.3984050267       0.3984050267       0.4351102118       O 
atom_frac  0.8984049885       0.8984049885       0.4024288472       O 
atom_frac  0.3984050267       0.8984049885       0.6851102193       O 
