%nprocs=4
%mem=4GB
#p pbepbe aug-cc-pvtz output=wfx scf=(conver=6) int=(grid=ultrafine)

title

0 1
c -6.112897980213333 -3.570705463416160 0.000000000000000
c -5.348344692645900 -2.235173544997701 0.000000000000000
c -3.819402110581759 -2.412140570762924 0.000000000000000
c -3.055732802143475 -1.076030917017620 0.000000000000000
c -1.526552936678598 -1.250191987051553 0.000000000000000
c -0.764601654075256 0.086954060370982 0.000000000000000
c 0.764601654075256 -0.086954060370982 0.000000000000000
c 1.526552936678598 1.250191987051553 0.000000000000000
c 3.055732802143475 1.076030917017620 0.000000000000000
c 3.819402110581759 2.412140570762924 0.000000000000000
c 5.348344692645900 2.235173544997701 0.000000000000000
c 6.112897980213333 3.570705463416160 0.000000000000000
c 7.641977501108639 3.395079008996046 0.000000000000000
c 8.404716892427061 4.731776831840225 0.000000000000000
c 9.933836140679730 4.557861143442002 0.000000000000000
c 10.695745465977692 5.895827742404342 0.000000000000000
c 12.225033802178702 5.708597293060046 0.000000000000000
c -7.641977501108639 -3.395079008996046 0.000000000000000
c -8.404716892427061 -4.731776831840225 0.000000000000000
c -9.933836140679730 -4.557861143442002 0.000000000000000
c -10.695745465977692 -5.895827742404342 0.000000000000000
c -12.225033802178702 -5.708597293060046 0.000000000000000
h -5.814855096965396 -4.160027362526878 0.883588237603255
h -5.814855096965396 -4.160027362526878 -0.883588237603255
h -5.646025885756950 -1.645658885635505 -0.883608165253227
h -5.646025885756950 -1.645658885635505 0.883608165253227
h -3.521601476367284 -3.001559467079269 -0.883613874168965
h -3.521601476367284 -3.001559467079269 0.883613874168965
h -3.354465046502300 -0.487032705203249 -0.883560189470366
h -3.354465046502300 -0.487032705203249 0.883560189470366
h -1.227468403141536 -1.838954508444678 -0.883608241681260
h -1.227468403141536 -1.838954508444678 0.883608241681260
h -1.063537253438249 0.675826668678532 -0.883591085245057
h -1.063537253438249 0.675826668678532 0.883591085245057
h 1.063537253438249 -0.675826668678532 -0.883591085245057
h 1.063537253438249 -0.675826668678532 0.883591085245057
h 1.227468403141536 1.838954508444678 -0.883608241681260
h 1.227468403141536 1.838954508444678 0.883608241681260
h 3.354465046502300 0.487032705203249 -0.883560189470366
h 3.354465046502300 0.487032705203249 0.883560189470366
h 3.521601476367284 3.001559467079269 -0.883613874168965
h 3.521601476367284 3.001559467079269 0.883613874168965
h 5.646025885756950 1.645658885635505 -0.883608165253227
h 5.646025885756950 1.645658885635505 0.883608165253227
h 5.814855096965396 4.160027362526878 -0.883588237603255
h 5.814855096965396 4.160027362526878 0.883588237603255
h 7.940465471376595 2.806136018545858 -0.883641043020433
h 7.940465471376595 2.806136018545858 0.883641043020433
h 8.106033238604290 5.320643641068614 -0.883686726730119
h 8.106033238604290 5.320643641068614 0.883686726730119
h 10.233474474163256 3.969222264658483 -0.883742138311378
h 10.233474474163256 3.969222264658483 0.883742138311378
h 10.392960835557195 6.481354187885471 -0.883473985793994
h 10.392960835557195 6.481354187885471 0.883473985793994
h 12.547055240911186 5.144781701553884 -0.889199537092635
h 12.750441882257602 6.675067784107741 0.000000000000000
h 12.547055240911186 5.144781701553884 0.889199537092635
h -7.940465471376595 -2.806136018545858 -0.883641043020433
h -7.940465471376595 -2.806136018545858 0.883641043020433
h -8.106033238604290 -5.320643641068614 -0.883686726730119
h -8.106033238604290 -5.320643641068614 0.883686726730119
h -10.233474474163256 -3.969222264658483 -0.883742138311378
h -10.233474474163256 -3.969222264658483 0.883742138311378
h -10.392960835557195 -6.481354187885471 -0.883473985793994
h -10.392960835557195 -6.481354187885471 0.883473985793994
h -12.547055240911186 -5.144781701553884 -0.889199537092635
h -12.750441882257602 -6.675067784107741 0.000000000000000
h -12.547055240911186 -5.144781701553884 0.889199537092635

F22l.wfx

