%nprocs=4
%mem=4GB
#p pbepbe aug-cc-pvtz output=wfx scf=(conver=6) int=(grid=ultrafine)

title

0 1
c 0.000000000000000 1.421760618230207 0.006874566123289
c 0.000000000000000 0.696641730769903 -1.195452199020803
c 0.000000000000000 -0.696641730769903 -1.195452199020803
c 0.000000000000000 -1.421760618230207 0.006874566123289
c 0.000000000000000 -0.699210425314529 1.204564782871487
c 0.000000000000000 0.699210425314529 1.204564782871487
c 0.000000000000000 2.928395266139711 -0.000875716765235
c 0.000000000000000 -2.928395266139711 -0.000875716765235
h 0.000000000000000 1.236153782073612 -2.145392458051920
h 0.000000000000000 -1.236153782073612 -2.145392458051920
h 0.000000000000000 -1.240217393800643 2.153346564520918
h 0.000000000000000 1.240217393800643 2.153346564520918
h 0.000000000000000 3.329707482918528 1.021698003029663
h -0.885590304604648 3.323220473330001 -0.522381771353689
h 0.885590304604648 3.323220473330001 -0.522381771353689
h 0.000000000000000 -3.329707482918528 1.021698003029663
h -0.885590304604648 -3.323220473330001 -0.522381771353689
h 0.885590304604648 -3.323220473330001 -0.522381771353689

pxylene.wfx

