%nprocs=4
%mem=4GB
#p pbepbe aug-cc-pvtz output=wfx scf=(conver=6) int=(grid=ultrafine)

title

0 1
c 0.645551181267160 -0.407563114441445 1.946035546435893
c -0.645551181267160 0.407563114441445 1.946035546435893
c 1.905244534982005 0.455548127915367 1.946034546435614
c -1.905244534982005 -0.455548127915367 1.946034546435614
c 3.188871895417392 -0.370459104022844 1.946034546435614
c -3.188871895417392 0.370459104022844 1.946034546435614
h 0.658791184984881 -1.066678299517299 2.824830793196687
h 0.658791184984881 -1.066677299517020 1.067239299674825
h -0.658791184984881 1.066678299517299 2.824830793196687
h -0.658791184984881 1.066677299517020 1.067239299674825
h 1.890409530816422 1.113462312653990 1.068026299895809
h 1.890408530816143 1.113463312654269 2.824043792975698
h -1.890409530816422 -1.113462312653990 1.068026299895809
h -1.890408530816143 -1.113463312654269 2.824043792975698
h 4.076897144769914 0.268530075401745 1.946034546435614
h 3.237786909152450 -1.013830284677874 1.061986298199812
h 3.237786909152450 -1.013830284677874 2.830081794671138
h -4.076897144769914 -0.268530075401745 1.946034546435614
h -3.237786909152450 1.013830284677874 1.061986298199812
h -3.237786909152450 1.013830284677874 2.830081794671138
c 0.645551181267160 0.407563114441445 -1.946035546435893
c -0.645551181267160 -0.407563114441445 -1.946035546435893
c 1.905244534982005 -0.455548127915367 -1.946034546435614
c -1.905244534982005 0.455548127915367 -1.946034546435614
c 3.188871895417392 0.370459104022844 -1.946034546435614
c -3.188871895417392 -0.370459104022844 -1.946034546435614
h 0.658791184984881 1.066678299517299 -2.824830793196687
h 0.658791184984881 1.066677299517020 -1.067239299674825
h -0.658791184984881 -1.066678299517299 -2.824830793196687
h -0.658791184984881 -1.066677299517020 -1.067239299674825
h 1.890409530816422 -1.113462312653990 -1.068026299895809
h 1.890408530816143 -1.113463312654269 -2.824043792975698
h -1.890409530816422 1.113462312653990 -1.068026299895809
h -1.890408530816143 1.113463312654269 -2.824043792975698
h 4.076897144769914 -0.268530075401745 -1.946034546435614
h 3.237786909152450 1.013830284677874 -1.061986298199812
h 3.237786909152450 1.013830284677874 -2.830081794671138
h -4.076897144769914 0.268530075401745 -1.946034546435614
h -3.237786909152450 -1.013830284677874 -1.061986298199812
h -3.237786909152450 -1.013830284677874 -2.830081794671138

AD6.wfx

