&control
 title='crystal',
 prefix='crystal',
 pseudo_dir='../..',
 forc_conv_thr=1.0D-4,
 etot_conv_thr=1.0D-5,
/
&system
 ibrav=0,
 nat=    22,
 ntyp=  5,
 ecutwfc=80.0,
 ecutrho=800.0,
 vdw_corr='xdm',
 nosym=.true.,
/
&electrons
 conv_thr = 1d-10,
/
&ions
/
&cell
 press_conv_thr=0.01,
/
ATOMIC_SPECIES
S    32.065000 s.UPF
O    15.999400 o.UPF
N    14.006700 n.UPF
C    12.010700 c.UPF
H     1.007940 h.UPF

ATOMIC_POSITIONS crystal
S             0.1618764711        0.2415168813        0.6217954850
S             0.8381238936        0.7584835027        0.3782047977
O             0.0850242116        0.7722042601        0.9833246583
O             0.9149761490        0.2277957997        0.0166754980
N             0.6660512042        0.5016475086        0.8364390548
N             0.3339495215        0.4983526679        0.1635614219
N             0.3840484599        0.6568156186        0.6671845417
N             0.6159537083        0.3431852925        0.3328167552
C             0.4022534138        0.4712445080        0.7066913505
C             0.5977452331        0.5287546886        0.2933083398
C             0.6407345588        0.8212627933        0.7682648270
C             0.3592649320        0.1787370132        0.2317350931
C             0.8314172795        0.7038453584        0.8779139554
C             0.1685829378        0.2961550075        0.1220861664
H             0.7433216679        0.3844131999        0.8918247836
H             0.2566782999        0.6155869235        0.1081752335
H             0.2154520659        0.6778813108        0.5711236089
H             0.7845470571        0.3221188641        0.4288761425
H             0.8093891337        0.9012913423        0.7073928825
H             0.1906108334        0.0987089326        0.2926071720
H             0.5298416182        0.9391898760        0.8310201781
H             0.4701583196        0.0608103607        0.1689801140

K_POINTS automatic
7 4 3  1 1 1

CELL_PARAMETERS bohr
   7.692124742  -0.002109313   0.000050673
  -1.720031357  12.402028578  -0.001400763
  -3.559208854  -3.193327267  16.517126249
