%nprocs=4
%mem=4GB
#p pbepbe aug-cc-pvtz output=wfx scf=(conver=6) int=(grid=ultrafine)

title

0 1
be 0.000000000000000 0.000000000000000 0.000000000000000
cl 0.000000000000000 0.000000000000000 1.799839864523810
cl 0.000000000000000 0.000000000000000 -1.799839864523810

becl2.wfx

