%nprocs=4
%mem=4GB
#p pbepbe aug-cc-pvtz output=wfx scf=(conver=6) int=(grid=ultrafine)

title

0 1
b 0.000000000000000 0.000000000000000 -0.633750000347306
f 0.000000000000000 0.000000000000000 0.633750000347306

bf.wfx

