%nprocs=4
%mem=4GB
#p pbepbe aug-cc-pvtz output=wfx scf=(conver=6) int=(grid=ultrafine)

title

0 1
b 0.000000000000000 0.000000000000000 -0.641500000351553
n 0.000000000000000 0.000000000000000 0.641500000351553

bn_S.wfx

