%nprocs=4
%mem=4GB
#p pbepbe aug-cc-pvtz output=wfx scf=(conver=6) int=(grid=ultrafine)

title

0 1
c 0.000000000000000 0.000000000000000 0.527343573832476
f 1.027989715384620 0.000000000000000 -0.263671786916238
f -1.027989715384620 0.000000000000000 -0.263671786916238

cf2.wfx

