%nprocs=4
%mem=4GB
#p pbepbe aug-cc-pvtz output=wfx scf=(conver=6) int=(grid=ultrafine)

title

0 2
c -0.344009568646141 -0.148039589069703 0.000000000000000
h -0.706509407156579 0.401110534030594 0.878214813519468
h -0.785282848138044 -1.142800518860876 0.000000000000000
h -0.706509407156579 0.401110534030594 -0.878214813519468
n 1.097279843402658 -0.237158316947396 0.000000000000000
h 1.445031387694695 0.725777356816776 0.000000000000000

ch3nh.wfx

