%nprocs=4
%mem=4GB
#p pbepbe aug-cc-pvtz output=wfx scf=(conver=6) int=(grid=ultrafine)

title

0 1
c -0.564583699649315 0.099030041383348 0.000000000000000
n 0.898040937805101 0.185698102511289 0.000000000000000
h -0.967012383237838 -0.920072180090001 0.000000000000000
h -0.952200713169404 0.615876838918272 -0.877629816902343
h -0.952200713169404 0.615876838918272 0.877629816902343
h 1.268978285710433 -0.298204820820585 0.807593213345457
h 1.268978285710433 -0.298204820820585 -0.807593213345457

ch3nh2.wfx

