%nprocs=4
%mem=4GB
#p pbepbe aug-cc-pvtz output=wfx scf=(conver=6) int=(grid=ultrafine)

title

0 1
o 0.000000000000000 0.000000000000000 0.642414979922418
cl 1.401171365216143 0.000000000000000 -0.321207489961209
cl -1.401171365216143 0.000000000000000 -0.321207489961209

cl2o.wfx

