%nprocs=4
%mem=4GB
#p pbepbe aug-cc-pvtz output=wfx scf=(conver=6) int=(grid=ultrafine)

title

0 2
cl 0.000000000000000 0.000000000000000 0.000000000000000
o 0.000000000000000 0.000000000000000 1.574831372763840

clo.wfx

