%nprocs=4
%mem=4GB
#p pbepbe aug-cc-pvtz output=wfx scf=(conver=6) int=(grid=ultrafine)

title

0 1
c 0.000000000000000 0.000000000000000 0.000000000000000
o 0.000000000000000 0.000000000000000 1.162599912107450
o 0.000000000000000 0.000000000000000 -1.162599912107450

co2.wfx

