%nprocs=4
%mem=4GB
#p pbepbe aug-cc-pvtz output=wfx scf=(conver=6) int=(grid=ultrafine)

title

0 2
f 1.274010653415154 0.166303412011759 0.000000000000000
o -0.214604461783781 -0.503590357233483 0.000000000000000
o -1.059406191631378 0.337286945221729 0.000000000000000

fo2.wfx

