%nprocs=4
%mem=4GB
#p pbepbe aug-cc-pvtz output=wfx scf=(conver=6) int=(grid=ultrafine)

title

0 1
o 0.000000000000000 0.000000000000000 0.392634203869869
h 0.755452600594581 0.000000000000000 -0.196317101934934
h -0.755452600594581 0.000000000000000 -0.196317101934934

h2o.wfx

