%nprocs=4
%mem=4GB
#p pbepbe aug-cc-pvtz output=wfx scf=(conver=6) int=(grid=ultrafine)

title

0 2
o 1.024821605609804 -0.195035521242714 0.000000000000000
c -0.146359861632959 -0.326052200692414 0.000000000000000
h -0.878461743976839 0.521087721935134 0.000000000000000

hco.wfx

