%nprocs=4
%mem=4GB
#p pbepbe aug-cc-pvtz output=wfx scf=(conver=6) int=(grid=ultrafine)

title

0 2
o 0.983069588058885 -0.256324960305406 0.000000000000000
o -0.344917308205233 -0.334329912152531 0.000000000000000
h -0.638152279853653 0.590654872457937 0.000000000000000

hoo.wfx

