%nprocs=4
%mem=4GB
#p pbepbe aug-cc-pvtz output=wfx scf=(conver=6) int=(grid=ultrafine)

title

0 2
h 0.762302184038487 0.555896471126507 0.000000000000000
n 0.205720235629961 -0.334371900423715 0.000000000000000
n -0.968022419668454 -0.221524570702787 0.000000000000000

n2h.wfx

