%nprocs=4
%mem=4GB
#p pbepbe aug-cc-pvtz output=wfx scf=(conver=6) int=(grid=ultrafine)

title

0 1
n 0.716634351365877 -0.060355404231208 0.232750478107976
n -0.716634351365877 0.060355404231208 0.232750478107976
h 1.063436930966097 -0.306188553949730 -0.687417504650580
h 1.085089312780519 0.854024519813244 0.454667026542610
h -1.063436930966097 0.306188553949730 -0.687417504650580
h -1.085089312780519 -0.854024519813244 0.454667026542610

n2h4.wfx

