%nprocs=4
%mem=4GB
#p pbepbe aug-cc-pvtz output=wfx scf=(conver=6) int=(grid=ultrafine)

title

0 1
o 0.000000000000000 0.000000000000000 -1.294571568913533
c 0.000000000000000 0.000000000000000 -0.136139656529922
s 0.000000000000000 0.000000000000000 1.430711225443450

ocs.wfx

