%nprocs=4
%mem=4GB
#p pbepbe aug-cc-pvtz output=wfx scf=(conver=6) int=(grid=ultrafine)

title

0 1
p -0.777375201783526 -0.777375201783526 -0.777375201783526
p 0.777375201783526 0.777375201783526 -0.777375201783526
p -0.777375201783526 0.777375201783526 0.777375201783526
p 0.777375201783526 -0.777375201783526 0.777375201783526

p4.wfx

