%nprocs=4
%mem=4GB
#p pbepbe aug-cc-pvtz output=wfx scf=(conver=6) int=(grid=ultrafine)

title

0 2
h 0.000000000000000 0.000000000000000 -0.846927105652114
si 0.000000000000000 0.000000000000000 0.688173943075114

sih.wfx

