%nprocs=4
%mem=4GB
#p pbepbe aug-cc-pvtz output=wfx scf=(conver=6) int=(grid=ultrafine)

title

0 2
s -0.558922996981482 0.456279440352910 0.000000000000000
h -0.857854284520693 -0.860517924988169 0.000000000000000
s 1.416777281502170 0.404238484635253 0.000000000000000

ssh.wfx

