&control
 title='crystal',
 prefix='crystal',
 pseudo_dir='../..',
 forc_conv_thr=1.0D-4,
 etot_conv_thr=1.0D-5,
/
&system
 ibrav=0,
 nat=    44,
 ntyp=  4,
 ecutwfc=80.0,
 ecutrho=800.0,
 vdw_corr='xdm',
 nosym=.true.,
/
&electrons
 conv_thr = 1d-10,
/
&ions
/
&cell
 press_conv_thr=0.01,
/
ATOMIC_SPECIES
O    15.999400 o.UPF
N    14.006700 n.UPF
C    12.010700 c.UPF
H     1.007940 h.UPF

ATOMIC_POSITIONS crystal
O             0.7245074387        0.1395489380        0.4356562800
O             0.2754925278        0.6395506031        0.0643439077
O             0.1694080226        0.1736429853        0.0155639328
O             0.8305926962        0.6736437021        0.4844358993
O             0.0513108596        0.2298466268        0.2115810609
O             0.9486892259        0.7298489418        0.2884178693
O             0.2754866160        0.8604831555        0.5643505944
O             0.7245128681        0.3604830076        0.9356492098
O             0.8306249953        0.8264567444        0.9844494293
O             0.1693757367        0.3264564030        0.5155505085
O             0.9488130620        0.7702872001        0.7884436225
O             0.0511921953        0.2702871751        0.7115554282
N             0.3814200024        0.9705413697        0.3288301642
N             0.6185791244        0.4705421826        0.1711693471
N             0.6185681471        0.0295084326        0.6711598449
N             0.3814308454        0.5295088758        0.8288397211
C             0.5362033364        0.0348111257        0.4360234737
C             0.4637996120        0.5348104773        0.0639769219
C             0.4090712649        0.0239010619        0.1990831495
C             0.5909300905        0.5239011728        0.3009169269
C             0.1902001511        0.1531998878        0.1439501042
C             0.8097977315        0.6531997096        0.3560505640
C             0.4637764307        0.9652302465        0.5639757163
C             0.5362235122        0.4652303973        0.9360243726
C             0.5909665018        0.9761808988        0.8009204447
C             0.4090335466        0.4761810045        0.6990794087
C             0.8098621392        0.8469070752        0.8560650813
C             0.1901357932        0.3469046044        0.6439363378
H             0.2239145924        0.8878117128        0.3380649973
H             0.7760856628        0.3878111199        0.1619348443
H             0.0143370810        0.2544831920        0.9843464321
H             0.9856628813        0.7544838067        0.5156534149
H             0.3960762333        0.9133437577        0.1341111375
H             0.6039260794        0.4133438540        0.3658889291
H             0.6122550604        0.0822388702        0.2025820322
H             0.3877452063        0.5822383492        0.2974183965
H             0.7760389013        0.1122557526        0.6619039510
H             0.2239621652        0.6122562614        0.8380959004
H             0.9856822897        0.7456130257        0.0156709492
H             0.0143184459        0.2456120143        0.4843292399
H             0.6039913460        0.0867598609        0.8658729515
H             0.3960071464        0.5867597919        0.6341268036
H             0.3877901842        0.9178493137        0.7974554494
H             0.6122102313        0.4178498918        0.7025442294

K_POINTS automatic
5 3 3  1 1 1

CELL_PARAMETERS bohr
   9.335206312  -0.000000330   0.001790613
  -0.000000531  14.856124417   0.000000001
  -3.512835452   0.000000116  19.338971063
