## FHIaims input file generated by critic2.
lattice_vector 3.7479999971       0.0000000000       0.0000000000       
lattice_vector -1.8740000015      3.2458632125       0.0000000000       
lattice_vector 0.0000000000       0.0000000000       5.6590000000       
atom_frac  0.0000000000       0.0000000000       0.0000000000       Hf
atom_frac  0.3333319800       0.6666659900       0.2720887100       Se
atom_frac  0.6666670300       0.3333335200       0.7279112900       Se
