%nprocs=4
%mem=2GB
#p hf aug-cc-pvdz output=wfx scf=(conver=6) int=(grid=ultrafine)

title

0 1
  P    1.201269535  -0.204173999  -0.693599141
  H    0.007111355  -0.041005705   0.052498122
  H    1.148472001  -1.620791091  -0.659628284
  H    2.042957921  -0.122447272   0.444639236
  N   -4.641877709   0.975303491   2.426938422
  H   -5.394305560   1.178827086   1.781233091
  H   -4.916683998   0.161363483   2.962139115
  H   -4.581446495   1.752722223   3.072271128

1.01_2.00_phosphine--ammonia.wfx


