%nprocs=4
%mem=2GB
#p hf aug-cc-pvdz output=wfx scf=(conver=6) int=(grid=ultrafine)

title

0 1
  H    2.010280107  -0.324447455  -0.630241859
  H    2.200430424  -1.331650047   0.808828266
  H    1.838633582   0.387952798   0.992167894
  H   -0.571036159   0.195417835  -0.151614939
  C    1.655656150  -0.493093976   0.382990471
  S   -0.109226185  -0.948575969   0.396375193
  N   -1.947890537   4.080018043  -1.947128867
  H   -2.353296736   4.660825463  -1.224127156
  H   -1.257432609   4.637731202  -2.433474993
  H   -2.681976366   3.862518079  -2.609208935

1.05_2.00_methanethiol--ammonia.wfx


