%nprocs=4
%mem=2GB
#p hf aug-cc-pvdz output=wfx scf=(conver=6) int=(grid=ultrafine)

title

0 1
  N   -0.170734899  -2.295926155  -0.072451201
  H    0.350126806  -2.738156073   0.674254467
  H   -1.141161349  -2.563198306   0.034767524
  H    0.156552772  -2.687161678  -0.946664134

1.09_mon2_sulfane--ammonia.wfx


