%nprocs=4
%mem=2GB
#p hf aug-cc-pvdz output=wfx scf=(conver=6) int=(grid=ultrafine)

title

0 1
  H    0.008090959  -0.131663345  -0.010791431
  H    1.356736705   1.264750626  -0.257012778
  S    0.051756189   1.221663006   0.047664757
  N   -0.215441364  -2.836991858  -0.087866144
  H    0.305420342  -3.279221776   0.658839524
  H   -1.185867814  -3.104264008   0.019352582
  H    0.111846308  -3.228227380  -0.962079076

1.09_1.25_sulfane--ammonia.wfx


