%nprocs=4
%mem=2GB
#p hf aug-cc-pvdz output=wfx scf=(conver=6) int=(grid=ultrafine)

title

0 1
  H    0.008090959  -0.131663345  -0.010791431
  H    1.356736705   1.264750626  -0.257012778
  S    0.051756189   1.221663006   0.047664757
  N   -0.188617485  -2.512352436  -0.078617178
  H    0.332244220  -2.954582354   0.668088490
  H   -1.159043935  -2.779624587   0.028601547
  H    0.138670186  -2.903587959  -0.952830111

1.09_1.10_sulfane--ammonia.wfx


