%nprocs=4
%mem=2GB
#p hf aug-cc-pvdz output=wfx scf=(conver=6) int=(grid=ultrafine)

title

0 1
  H    0.415090735   0.448828599   0.000000000
  H    1.128098734   2.276704808   0.000000000
  S   -0.088230706   1.713031849   0.000000000
  N    0.736679353  -1.709801325   0.000000000
  H    1.229039867  -2.051252769   0.814448910
  H    1.229039867  -2.051252769  -0.814448910
  C   -0.659398567  -2.153317290   0.000000000
  H   -1.161556349  -1.748910549  -0.877537922
  H   -0.791794305  -3.239493126   0.000000000
  H   -1.161556349  -1.748910549   0.877537922

1.10_1.05_sulfane--methylamine.wfx


