%nprocs=4
%mem=2GB
#p hf aug-cc-pvdz output=wfx scf=(conver=6) int=(grid=ultrafine)

title

0 1
  H    1.217743030   0.788143311  -0.078965726
  H    1.906226285   2.113299383  -1.325472783
  S    1.841658755   1.977347311   0.007004422
  H   -2.327150607   0.100990993   1.162993784
  H   -2.577992119   0.207104489  -0.596774849
  H   -1.435186259   1.298753889   0.207675494
  C   -1.843160570   0.294021093   0.204709754
  N   -0.706393029  -0.616240991  -0.012534288
  N   -0.968180880  -1.813234124  -0.038912189
  N   -1.092521450  -2.934047103  -0.081707677

1.11_1.05_sulfane--methylazide.wfx


