%nprocs=4
%mem=2GB
#p hf aug-cc-pvdz output=wfx scf=(conver=6) int=(grid=ultrafine)

title

0 1
  H    1.217743030   0.788143311  -0.078965726
  H    1.906226285   2.113299383  -1.325472783
  S    1.841658755   1.977347311   0.007004422

1.11_mon1_sulfane--methylazide.wfx


