%nprocs=4
%mem=2GB
#p hf aug-cc-pvdz output=wfx scf=(conver=6) int=(grid=ultrafine)

title

0 1
  H    1.700202605   0.232163252   0.141981808
  H    1.830711941   2.076036912   0.741863884
  S    1.652224685   0.878921467   1.319452482
  H   -2.405089946   0.949441967  -0.865846959
  H   -3.085327365  -0.018953321   0.473284480
  H   -1.414309458   0.618805308   0.591036859
  C   -2.186400631   0.239421188  -0.072568526
  O   -1.733355175  -1.017310735  -0.668217247
  C   -0.628302497  -0.958474872  -1.312549433
  N    0.369985456  -0.940171299  -1.893905058

1.12_1.10_sulfane--methylcyanate.wfx


