%nprocs=4
%mem=2GB
#p hf aug-cc-pvdz output=wfx scf=(conver=6) int=(grid=ultrafine)

title

0 1
  H    0.067192993   0.971773336   0.000000000
  H    1.323045348   2.486783412   0.000000000
  S   -0.009552849   2.340443353   0.000000000
  H    0.613258964  -2.568665144  -1.303193424
  H    0.194705026  -1.028166206  -2.080506414
  H    1.714886275  -1.181703125  -1.197590280
  H    1.714886275  -1.181703125   1.197590280
  H    0.613258964  -2.568665144   1.303193424
  H    0.194705026  -1.028166206   2.080506414
  H   -1.622034514  -2.359598711   0.000000000
  H   -1.874042549  -0.840776346   0.882788905
  C    0.665843882  -1.473616959  -1.205875462
  N    0.013356577  -0.991822292   0.000000000
  C    0.665843882  -1.473616959   1.205875462
  C   -1.411335106  -1.279537226   0.000000000
  H   -1.874042549  -0.840776346  -0.882788905

1.14_1.00_sulfane--trimethylamine.wfx


