%nprocs=4
%mem=2GB
#p hf aug-cc-pvdz output=wfx scf=(conver=6) int=(grid=ultrafine)

title

0 1
  H   -0.000000254  -0.306552956   0.000000000
  F   -0.000000230  -1.267128039   0.000000000

1.15_mon1_hydrogenfluoride--ammonia.wfx


