%nprocs=4
%mem=2GB
#p hf aug-cc-pvdz output=wfx scf=(conver=6) int=(grid=ultrafine)

title

0 1
  H   -0.172375188  -0.888330607   0.000000000
  F    0.158810900  -1.799313584   0.000000000
  N   -0.629438564   0.591963529   0.000000000
  H   -1.208507058   0.759598005   0.813140199
  H   -1.208507058   0.759598005  -0.813140199
  C    0.545151693   1.477927079   0.000000000
  H    1.149677817   1.262814022   0.878043289
  H    1.149677817   1.262814022  -0.878043289
  H    0.291870380   2.540077027   0.000000000

1.16_0.95_hydrogenfluoride--methylamine.wfx


