%nprocs=4
%mem=2GB
#p hf aug-cc-pvdz output=wfx scf=(conver=6) int=(grid=ultrafine)

title

0 1
  H   -0.172375188  -0.888330607   0.000000000
  F    0.158810900  -1.799313584   0.000000000
  N   -0.701606465   0.825694182   0.000000000
  H   -1.280674959   0.993328658   0.813140199
  H   -1.280674959   0.993328658  -0.813140199
  C    0.472983792   1.711657732   0.000000000
  H    1.077509916   1.496544675   0.878043289
  H    1.077509916   1.496544675  -0.878043289
  H    0.219702479   2.773807680   0.000000000

1.16_1.10_hydrogenfluoride--methylamine.wfx


