%nprocs=4
%mem=2GB
#p hf aug-cc-pvdz output=wfx scf=(conver=6) int=(grid=ultrafine)

title

0 1
  H    0.328016831   1.546292083   0.000000000
  F    0.577717104   2.456537939   0.000000000

1.17_mon1_hydrogenfluoride--methylazide.wfx


