%nprocs=4
%mem=2GB
#p hf aug-cc-pvdz output=wfx scf=(conver=6) int=(grid=ultrafine)

title

0 1
  H    0.047398582   2.376990287   0.000000000
  F    0.229305667   3.300103958   0.000000000
  H    1.319933285  -2.102941628  -0.895929680
  H    1.319933285  -2.102941628   0.895929680
  H    0.401851422  -3.348603115   0.000000000
  C    0.746301018  -2.322298543   0.000000000
  O   -0.474349624  -1.515397487   0.000000000
  C   -0.306731945  -0.250384616   0.000000000
  N   -0.194485389   0.895502663   0.000000000

1.18_0.85_hydrogenfluoride--methylcyanate.wfx


