%nprocs=4
%mem=2GB
#p hf aug-cc-pvdz output=wfx scf=(conver=6) int=(grid=ultrafine)

title

0 1
  H    0.047398582   2.376990287   0.000000000
  F    0.229305667   3.300103958   0.000000000
  H    1.305704816  -2.190087959  -0.895929680
  H    1.305704816  -2.190087959   0.895929680
  H    0.387622953  -3.435749446   0.000000000
  C    0.732072549  -2.409444874   0.000000000
  O   -0.488578093  -1.602543818   0.000000000
  C   -0.320960414  -0.337530947   0.000000000
  N   -0.208713858   0.808356332   0.000000000

1.18_0.90_hydrogenfluoride--methylcyanate.wfx


