%nprocs=4
%mem=2GB
#p hf aug-cc-pvdz output=wfx scf=(conver=6) int=(grid=ultrafine)

title

0 1
  H   -0.000000000   0.000000000  -2.212895458
  F   -0.000000000   0.000000000  -3.177886238
  H    0.000000000   2.147274954   3.629159325
  H    0.000000000   2.052423833   1.141809170
  C    0.000000000   0.000000000   3.825665445
  C    0.000000000   1.195194544   3.120216309
  C    0.000000000   1.147329140   1.734136684
  N    0.000000000   0.000000000   1.054654972
  C    0.000000000  -1.147329140   1.734136684
  C    0.000000000  -1.195194544   3.120216309
  H    0.000000000  -2.052423833   1.141809170
  H    0.000000000  -2.147274954   3.629159325
  H    0.000000000   0.000000000   4.906297656

1.20_2.00_hydrogenfluoride--pyridine.wfx


