%nprocs=4
%mem=2GB
#p hf aug-cc-pvdz output=wfx scf=(conver=6) int=(grid=ultrafine)

title

0 1
  H   -0.000000000   0.000000000  -2.212895458
  F   -0.000000000   0.000000000  -3.177886238
  H   -0.000000000   2.147274954   1.668629067
  H   -0.000000000   2.052423833  -0.818721088
  C   -0.000000000   0.000000000   1.865135187
  C   -0.000000000   1.195194544   1.159686051
  C   -0.000000000   1.147329140  -0.226393574
  N   -0.000000000   0.000000000  -0.905875286
  C    0.000000000  -1.147329140  -0.226393574
  C    0.000000000  -1.195194544   1.159686051
  H    0.000000000  -2.052423833  -0.818721088
  H    0.000000000  -2.147274954   1.668629067
  H   -0.000000000   0.000000000   2.945767398

1.20_0.80_hydrogenfluoride--pyridine.wfx


