%nprocs=4
%mem=2GB
#p hf aug-cc-pvdz output=wfx scf=(conver=6) int=(grid=ultrafine)

title

0 1
  H   -0.000000000   0.000000000  -2.212895458
  F   -0.000000000   0.000000000  -3.177886238
  H   -0.000000000   2.147274954   1.750317828
  H   -0.000000000   2.052423833  -0.737032327
  C   -0.000000000   0.000000000   1.946823948
  C   -0.000000000   1.195194544   1.241374812
  C   -0.000000000   1.147329140  -0.144704813
  N   -0.000000000   0.000000000  -0.824186525
  C    0.000000000  -1.147329140  -0.144704813
  C    0.000000000  -1.195194544   1.241374812
  H    0.000000000  -2.052423833  -0.737032327
  H    0.000000000  -2.147274954   1.750317828
  H   -0.000000000   0.000000000   3.027456159

1.20_0.85_hydrogenfluoride--pyridine.wfx


