%nprocs=4
%mem=2GB
#p hf aug-cc-pvdz output=wfx scf=(conver=6) int=(grid=ultrafine)

title

0 1
  H    0.000000216  -0.312689967   0.000000000
 Cl   -0.000001282   1.030655196   0.000000000

1.22_mon1_hydrogenchloride--ammonia.wfx


