%nprocs=4
%mem=2GB
#p hf aug-cc-pvdz output=wfx scf=(conver=6) int=(grid=ultrafine)

title

0 1
  H    0.000000216  -0.312689967   0.000000000
 Cl   -0.000001282   1.030655196   0.000000000
  N    0.000002997  -2.206663243   0.000000000
  H   -0.473181134  -2.565671295   0.819577485
  H   -0.473181134  -2.565671295  -0.819577485
  H    0.946369173  -2.565673075   0.000000000

1.22_1.10_hydrogenchloride--ammonia.wfx


