%nprocs=4
%mem=2GB
#p hf aug-cc-pvdz output=wfx scf=(conver=6) int=(grid=ultrafine)

title

0 1
  H    0.000000216  -0.312689967   0.000000000
 Cl   -0.000001282   1.030655196   0.000000000
  N    0.000003376  -2.464932326   0.000000000
  H   -0.473180755  -2.823940378   0.819577485
  H   -0.473180755  -2.823940378  -0.819577485
  H    0.946369552  -2.823942158   0.000000000

1.22_1.25_hydrogenchloride--ammonia.wfx


