%nprocs=4
%mem=2GB
#p hf aug-cc-pvdz output=wfx scf=(conver=6) int=(grid=ultrafine)

title

0 1
  H    0.336684409   0.188965689   0.000000000
 Cl   -0.071380756   1.520063651   0.000000000
  N    0.850643132  -2.085872294   0.000000000
  H    1.409057914  -2.297770720   0.817050016
  H    1.409057914  -2.297770720  -0.817050016
  C   -0.416380892  -2.830805780   0.000000000
  H   -0.990248042  -2.545130496  -0.878231722
  H   -0.282094276  -3.913473496   0.000000000
  H   -0.990248042  -2.545130496   0.878231722

1.23_1.50_hydrogenchloride--methylamine.wfx


