%nprocs=4
%mem=2GB
#p hf aug-cc-pvdz output=wfx scf=(conver=6) int=(grid=ultrafine)

title

0 1
  H    0.126682222   1.083119430   0.000000000
 Cl    0.244070020   2.384096055   0.000000000
  H   -2.275924670  -2.530325694   0.891135748
  H   -2.275924670  -2.530325694  -0.891135748
  H   -2.530393234  -1.019838819   0.000000000
  C   -2.000672269  -1.965917780   0.000000000
  N   -0.565209293  -1.638541422   0.000000000
  N    0.215659465  -2.586486021   0.000000000
  N    1.015812589  -3.379219642   0.000000000

1.24_1.50_hydrogenchloride--methylazide.wfx


