%nprocs=4
%mem=2GB
#p hf aug-cc-pvdz output=wfx scf=(conver=6) int=(grid=ultrafine)

title

0 1
  H    0.126682222   1.083119430   0.000000000
 Cl    0.244070020   2.384096055   0.000000000

1.24_mon1_hydrogenchloride--methylazide.wfx


