%nprocs=4
%mem=2GB
#p hf aug-cc-pvdz output=wfx scf=(conver=6) int=(grid=ultrafine)

title

0 1
  H    0.126682222   1.083119430   0.000000000
 Cl    0.244070020   2.384096055   0.000000000
  H   -2.045294165  -1.623105410   0.891135748
  H   -2.045294165  -1.623105410  -0.891135748
  H   -2.299762729  -0.112618535   0.000000000
  C   -1.770041764  -1.058697496   0.000000000
  N   -0.334578788  -0.731321138   0.000000000
  N    0.446289970  -1.679265737   0.000000000
  N    1.246443094  -2.471999358   0.000000000

1.24_1.00_hydrogenchloride--methylazide.wfx


