%nprocs=4
%mem=2GB
#p hf aug-cc-pvdz output=wfx scf=(conver=6) int=(grid=ultrafine)

title

0 1
  H    0.108442249  -1.774679671   0.000000000
 Cl   -0.147300079  -3.049197596   0.000000000

1.25_mon1_hydrogenchloride--methylcyanate.wfx


