%nprocs=4
%mem=2GB
#p hf aug-cc-pvdz output=wfx scf=(conver=6) int=(grid=ultrafine)

title

0 1
  H    0.108442249  -1.774679671   0.000000000
 Cl   -0.147300079  -3.049197596   0.000000000
  H   -1.362841388   3.005878438  -0.895624011
  H   -1.362841388   3.005878438   0.895624011
  H   -0.554016659   4.324914013   0.000000000
  C   -0.808869639   3.272646476   0.000000000
  O    0.474504432   2.572927655   0.000000000
  C    0.411757209   1.296397299   0.000000000
  N    0.394390433   0.143944752   0.000000000

1.25_1.00_hydrogenchloride--methylcyanate.wfx


