%nprocs=4
%mem=2GB
#p hf aug-cc-pvdz output=wfx scf=(conver=6) int=(grid=ultrafine)

title

0 1
  H    1.028265062   0.532241587  -0.362285786
 Cl    2.047560612   1.348590584  -0.329954463
  C   -0.800714310  -1.589727404   1.848493496
  H   -1.137937365  -1.038353421   2.720259754
  H    0.287308102  -1.587296956   1.809702866
  H   -1.139849103  -2.622223665   1.945541056
  C   -1.420794207  -0.978681717   0.612880800
  O   -2.460513930  -0.358663563   0.625289001
  N   -0.693865484  -1.155796888  -0.553142351
  H   -0.026956388  -1.911384769  -0.543702363
  C   -1.303087357  -0.843597047  -1.841941094
  H   -1.754531403   0.141632355  -1.785799251
  H   -0.530035623  -0.840264258  -2.605621191
  H   -2.079389060  -1.561076185  -2.110142044

1.26_1.25_hydrogenchloride--Nmethylacetamide.wfx


