%nprocs=4
%mem=2GB
#p hf aug-cc-pvdz output=wfx scf=(conver=6) int=(grid=ultrafine)

title

0 1
  H    0.000015148  -0.932477668   0.000000000
 Br   -0.000005844   0.581740630   0.000000000
  N    0.000026391  -2.578593783   0.000000000
  H   -0.474353244  -2.931059587   0.821647420
  H   -0.474353244  -2.931059587  -0.821647420
  H    0.948782268  -2.931063413   0.000000000

1.28_1.00_hydrogenbromide--ammonia.wfx


