%nprocs=4
%mem=2GB
#p hf aug-cc-pvdz output=wfx scf=(conver=6) int=(grid=ultrafine)

title

0 1
  H    0.000015148  -0.932477668   0.000000000
 Br   -0.000005844   0.581740630   0.000000000
  N    0.000029202  -2.990122812   0.000000000
  H   -0.474350433  -3.342588616   0.821647420
  H   -0.474350433  -3.342588616  -0.821647420
  H    0.948785079  -3.342592442   0.000000000

1.28_1.25_hydrogenbromide--ammonia.wfx


