%nprocs=4
%mem=2GB
#p hf aug-cc-pvdz output=wfx scf=(conver=6) int=(grid=ultrafine)

title

0 1
  H    0.297566448  -0.717849564   0.000000000
 Br   -0.085272120  -2.108519111   0.000000000
  H   -1.453592602   3.932296676   0.895536333
  H   -0.825527243   5.346399284   0.000000000
  H   -1.453592602   3.932296676  -0.895536333
  C   -0.939371234   4.269692776   0.000000000
  O    0.424782850   3.745142395   0.000000000
  C    0.529741011   2.471010310   0.000000000
  N    0.664858990   1.325987188   0.000000000

1.30_1.05_hydrogenbromide--methylcyanate.wfx


