%nprocs=4
%mem=2GB
#p hf aug-cc-pvdz output=wfx scf=(conver=6) int=(grid=ultrafine)

title

0 1
  H    0.096771930   0.137479490  -0.463314473
 Br    1.186865228   0.951683611  -0.972916370

1.31_mon1_hydrogenbromide--Nmethylacetamide.wfx


