%nprocs=4
%mem=2GB
#p hf aug-cc-pvdz output=wfx scf=(conver=6) int=(grid=ultrafine)

title

0 1
  H   -0.130828491   0.131510701  -0.431202063
  I    0.015068266  -0.015261633  -2.148009928
  N   -0.280159872   0.281808427   1.328038805
  H    0.009893291  -0.578779758   1.774720615
  H    0.303836809   1.038067489   1.661636301
  H   -1.241640681   0.474135946   1.578702650

1.32_1.10_hydrogeniodide--ammonia.wfx


