%nprocs=4
%mem=2GB
#p hf aug-cc-pvdz output=wfx scf=(conver=6) int=(grid=ultrafine)

title

0 1
  H    0.113038661   0.093971994  -0.503615560
  I   -0.411387200   0.368949864  -2.030082527
  H   -0.692899287   1.616415073   2.104893312
  H   -0.955934956   0.052026647   2.917302222
  H   -1.669365318   0.361802291   1.324466256
  C   -0.805980007   0.542357481   1.955302254
  N    0.352668348  -0.025906074   1.247159476
  N    1.451741376   0.145982174   1.766620014
  N    2.508056962   0.241663895   2.147995418

1.33_0.90_hydrogeniodide--methylazide.wfx


