%nprocs=4
%mem=2GB
#p hf aug-cc-pvdz output=wfx scf=(conver=6) int=(grid=ultrafine)

title

0 1
  O   -0.776261641   1.825777723  -0.108957092
  H   -0.940735204   2.762289511   0.016945025
  C   -1.509561927   1.368474177  -1.241902738
  H   -1.330474176   0.298778456  -1.316219718
  H   -2.583193374   1.532909561  -1.124679744
  H   -1.172052125   1.849217754  -2.163384266

2.03_mon2_methanethiol--methanol.wfx


