%nprocs=4
%mem=2GB
#p hf aug-cc-pvdz output=wfx scf=(conver=6) int=(grid=ultrafine)

title

0 1
  H    1.425969998   0.667220724  -0.246014418
  H    2.431068551   1.692112706   1.070775682
  S    1.867313537   1.933810349  -0.121553023

2.05_mon1_sulfane--aceticacid.wfx


