%nprocs=4
%mem=2GB
#p hf aug-cc-pvdz output=wfx scf=(conver=6) int=(grid=ultrafine)

title

0 1
  H    1.432615055   0.721266972   0.158637111
  H    1.694551270   2.056806281   1.567407355
  S    1.516825825   2.071830291   0.238599361
  H   -1.050873050  -0.675794638   2.164817009
  H   -2.429928840  -0.160859662   1.163081017
  H   -0.964610164   0.871706127   1.276730946
  H   -0.728920897  -0.255390393  -2.362035253
  H   -0.814241338   1.102305358  -1.204648702
  C   -1.346229990  -0.146788156   1.262725133
  S   -0.609080238  -1.041198306  -0.132262931
  O    0.872516409  -0.879735769  -0.016190959
  C   -1.163468809   0.097419806  -1.430648813
  H   -2.249574222   0.064365129  -1.492788519

2.07_0.85_sulfane--dimethylsulfoxide.wfx


