%nprocs=4
%mem=2GB
#p hf aug-cc-pvdz output=wfx scf=(conver=6) int=(grid=ultrafine)

title

0 1
  H    0.605915701   0.162904659  -0.307556747
  H    2.150876743   0.627823125   0.784025773
  S    1.243552707   1.292942979   0.054646191
  O   -0.698329242  -1.362809428  -0.450556355
  H   -0.984996505  -1.884768251  -1.202682561
  C   -1.819161997  -1.073930155   0.381591218
  H   -1.457551204  -0.427541598   1.176922052
  H   -2.604969277  -0.546898889  -0.163912082
  H   -2.234736096  -1.980985706   0.825899350

2.08_0.95_sulfane--methanol.wfx


