%nprocs=4
%mem=2GB
#p hf aug-cc-pvdz output=wfx scf=(conver=6) int=(grid=ultrafine)

title

0 1
  H    1.836567763   1.964089921  -0.037249760
  H    1.105589524   3.674202586  -0.595700393
  S    1.810688642   2.687869208  -1.168211245
  P   -0.949087035  -2.153989534   1.725921978
 Cl   -1.776594915  -3.742459457   2.645260792
 Cl   -0.393892323  -2.868540591  -0.068099013
 Cl   -2.516688877  -0.964082487   1.316164945
  O    0.117099473  -1.515474503   2.482149860

2.10_2.00_sulfane--POCl3.wfx


