%nprocs=4
%mem=2GB
#p hf aug-cc-pvdz output=wfx scf=(conver=6) int=(grid=ultrafine)

title

0 1
  H   -0.064731809   0.051850180  -1.624618161
  F    0.088838349   0.822032063  -2.190519980
  H    0.412052004   1.424673271   1.658036419
  H    0.329762738   1.424669579  -0.080953151
  H   -1.150911908  -1.506516336   2.200791653
  H    0.556272642  -1.906234039   2.120020609
  H    0.039429975  -0.429392801   2.958470963
  O   -0.244567656  -0.990105760  -0.268878513
  C   -0.051074011  -0.376344807   0.783051982
  N    0.256298566   0.933081434   0.799168746
  C   -0.153336316  -1.081198776   2.109796617

2.12_1.10_hydrogenfluoride--acetamide.wfx


