%nprocs=4
%mem=2GB
#p hf aug-cc-pvdz output=wfx scf=(conver=6) int=(grid=ultrafine)

title

0 1
  H   -0.619051431   1.544534084   0.000000000
  F    0.002515980   2.280176365   0.000000000
  C   -0.021372560  -0.544750962   0.000000000
  O   -1.017901042   0.159391198   0.000000000
  O    1.214677794  -0.051820480   0.000000000
  H    1.169572452   0.925362263   0.000000000
  C   -0.056906475  -2.039985086   0.000000000
  H   -1.084223870  -2.385342341   0.000000000
  H    0.467310437  -2.416659348  -0.877155210
  H    0.467310437  -2.416659348   0.877155210

2.13_0.90_hydrogenfluoride--aceticacid.wfx


