%nprocs=4
%mem=2GB
#p hf aug-cc-pvdz output=wfx scf=(conver=6) int=(grid=ultrafine)

title

0 1
  H   -0.619051431   1.544534084   0.000000000
  F    0.002515980   2.280176365   0.000000000

2.13_mon1_hydrogenfluoride--aceticacid.wfx


