%nprocs=4
%mem=2GB
#p hf aug-cc-pvdz output=wfx scf=(conver=6) int=(grid=ultrafine)

title

0 1
  H   -0.172330123  -1.658470038  -0.378732490
  F    0.321641134  -2.414468754  -0.675442961
  H    1.559122943   1.585906014  -0.730113912
  H    1.593691489  -0.177455547  -0.449476946
  H    1.836644507   0.970416236   0.885425940
  H   -1.819482179   2.000408030   0.946992786
  H   -0.704981757   2.838530273  -0.156752706
  C    1.292680725   0.782656861  -0.042503215
  C   -0.184104721   0.812088487   0.242428168
  O   -0.883750579  -0.179326594   0.139089371
  C   -0.778382038   2.126607148   0.667571817
  H   -0.212714859   2.548557012   1.498871213

2.14_1.05_hydrogenfluoride--acetone.wfx


