%nprocs=4
%mem=2GB
#p hf aug-cc-pvdz output=wfx scf=(conver=6) int=(grid=ultrafine)

title

0 1
  H    0.641213651   1.077499808  -2.106597882
  F    0.730811460   0.608431767  -2.910652581
 Br   -0.375834346  -0.076880519   2.063260179
  O    0.569314427  -0.198763570   3.353839732
  O   -1.912165345   0.178612419   2.482913875
  O    0.078521809   1.613518346   1.370586946
  H   -0.629708306   2.200437294   1.682737310

2.15_2.00_hydrogenfluoride--bromicacid.wfx


