%nprocs=4
%mem=2GB
#p hf aug-cc-pvdz output=wfx scf=(conver=6) int=(grid=ultrafine)

title

0 1
  H    0.641213651   1.077499808  -2.106597882
  F    0.730811460   0.608431767  -2.910652581

2.15_mon1_hydrogenfluoride--bromicacid.wfx


