%nprocs=4
%mem=2GB
#p hf aug-cc-pvdz output=wfx scf=(conver=6) int=(grid=ultrafine)

title

0 1
 Br   -0.094488425  -0.344889788   0.324667765
  O    0.850660348  -0.466772839   1.615247318
  O   -1.630819424  -0.089396850   0.744321461
  O    0.359867730   1.345509077  -0.368005468
  H   -0.348362385   1.932428025  -0.055855104

2.15_mon2_hydrogenfluoride--bromicacid.wfx


