%nprocs=4
%mem=2GB
#p hf aug-cc-pvdz output=wfx scf=(conver=6) int=(grid=ultrafine)

title

0 1
  H    0.576809073  -1.955916470   0.000000000
  F    0.003549381  -2.709931439   0.000000000

2.16_mon1_hydrogenfluoride--dimethylsulfone.wfx


