%nprocs=4
%mem=2GB
#p hf aug-cc-pvdz output=wfx scf=(conver=6) int=(grid=ultrafine)

title

0 1
  H    0.245679854  -0.156030376  -1.895693416
  F    0.414251896   0.179912897  -2.746626711
  O   -0.104312490  -0.840659863  -0.115627434
  S   -0.215050075  -0.300396400   1.215982894
  O   -0.039992054   1.106884535   1.405805671

2.20_1.05_hydrogenfluoride--SO2.wfx


