%nprocs=4
%mem=2GB
#p hf aug-cc-pvdz output=wfx scf=(conver=6) int=(grid=ultrafine)

title

0 1
  H    0.245679854  -0.156030376  -1.895693416
  F    0.414251896   0.179912897  -2.746626711
  O   -0.120978792  -0.873261267  -0.030862387
  S   -0.231716377  -0.332997804   1.300747940
  O   -0.056658356   1.074283131   1.490570718

2.20_1.10_hydrogenfluoride--SO2.wfx


