%nprocs=4
%mem=2GB
#p hf aug-cc-pvdz output=wfx scf=(conver=6) int=(grid=ultrafine)

title

0 1
  H   -0.210563935   0.623845157   0.000000000
 Cl    0.030262919   1.919061317   0.000000000

2.23_mon1_hydrogenchloride--dimethylether.wfx


