%nprocs=4
%mem=2GB
#p hf aug-cc-pvdz output=wfx scf=(conver=6) int=(grid=ultrafine)

title

0 1
  H    0.677392394   1.621702208   0.000000000
 Cl   -0.001716351   2.739716399   0.000000000
  H   -1.849177386  -1.217937039  -1.388755889
  H   -0.379457372  -0.746032263  -2.281738262
  H   -1.289364795   0.491652072  -1.372970259
  H   -1.289364795   0.491652072   1.372970259
  H   -0.379457372  -0.746032263   2.281738262
  H   -1.849177386  -1.217937039   1.388755889
  O    0.371342181  -2.307377016   0.000000000
  S    0.046653614  -0.906960595   0.000000000
  O    1.130546018   0.061900219   0.000000000
  C   -0.990799493  -0.552709894  -1.403732425
  C   -0.990799493  -0.552709894   1.403732425

2.24_0.90_hydrogenchloride--dimethylsulfone.wfx


