%nprocs=4
%mem=2GB
#p hf aug-cc-pvdz output=wfx scf=(conver=6) int=(grid=ultrafine)

title

0 1
  H   -0.373384347  -1.562222782   0.000000000
 Cl    0.104536029  -2.797229754   0.000000000

2.25_mon1_hydrogenchloride--dimethylsulfoxide.wfx


