%nprocs=4
%mem=2GB
#p hf aug-cc-pvdz output=wfx scf=(conver=6) int=(grid=ultrafine)

title

0 1
  H   -0.373384347  -1.562222782   0.000000000
 Cl    0.104536029  -2.797229754   0.000000000
  H    0.150120343   1.426942202  -2.279157595
  H    0.800408130   2.791903339  -1.337428233
  H   -0.950821440   2.396830214  -1.264879777
  H    0.150120343   1.426942202   2.279157595
  H   -0.950821440   2.396830214   1.264879777
  C    0.056749032   1.997762005  -1.359426576
  S    0.367035890   0.848635466   0.000000000
  O   -0.795197480  -0.104006653   0.000000000
  C    0.056749032   1.997762005   1.359426576
  H    0.800408130   2.791903339   1.337428233

2.25_0.90_hydrogenchloride--dimethylsulfoxide.wfx


