%nprocs=4
%mem=2GB
#p hf aug-cc-pvdz output=wfx scf=(conver=6) int=(grid=ultrafine)

title

0 1
  H    0.164404635  -0.143388383  -1.463844896
 Cl    0.448835015   0.375928693  -2.606531987
  O   -0.219267948  -0.824102516   0.113453908
  S   -0.271546075  -0.296785755   1.451610672
  O    0.041187439   1.084876613   1.662619312

2.29_0.85_hydrogenchloride--SO2.wfx


