%nprocs=4
%mem=2GB
#p hf aug-cc-pvdz output=wfx scf=(conver=6) int=(grid=ultrafine)

title

0 1
  H    0.164404635  -0.143388383  -1.463844896
 Cl    0.448835015   0.375928693  -2.606531987
  O   -0.309543849  -0.984270548   0.484583039
  S   -0.361821976  -0.456953787   1.822739803
  O   -0.049088462   0.924708581   2.033748443

2.29_1.05_hydrogenchloride--SO2.wfx


