%nprocs=4
%mem=2GB
#p hf aug-cc-pvdz output=wfx scf=(conver=6) int=(grid=ultrafine)

title

0 1
  H    0.164404635  -0.143388383  -1.463844896
 Cl    0.448835015   0.375928693  -2.606531987
  O   -0.399819751  -1.144438579   0.855712169
  S   -0.452097878  -0.617121818   2.193868933
  O   -0.139364364   0.764540550   2.404877573

2.29_1.25_hydrogenchloride--SO2.wfx


