%nprocs=4
%mem=2GB
#p hf aug-cc-pvdz output=wfx scf=(conver=6) int=(grid=ultrafine)

title

0 1
  O   -0.286974874  -0.944228540   0.391800756
  S   -0.339253001  -0.416911779   1.729957520
  O   -0.026519487   0.964750589   1.940966160

2.29_mon2_hydrogenchloride--SO2.wfx


