%nprocs=4
%mem=2GB
#p hf aug-cc-pvdz output=wfx scf=(conver=6) int=(grid=ultrafine)

title

0 1
  H    0.256714246   0.282080426  -2.234905683
 Cl   -0.391109730   0.255686958  -3.383670479

2.30_mon1_hydrogenchloride--trimethylphosphate.wfx


