%nprocs=4
%mem=2GB
#p hf aug-cc-pvdz output=wfx scf=(conver=6) int=(grid=ultrafine)

title

0 1
  H   -0.064352184  -0.188326900  -0.093549965
 Cl    0.085737575   0.878306338   0.638965120
  O   -0.234320430  -2.049312255  -1.458400274
  H   -0.352632828  -1.814690374  -2.383074566
  H    0.553462910  -2.599239732  -1.426071013

2.31_1.25_hydrogenchloride--water.wfx


