%nprocs=4
%mem=2GB
#p hf aug-cc-pvdz output=wfx scf=(conver=6) int=(grid=ultrafine)

title

0 1
  H    0.309262970   0.454463349  -0.100684978
 Br   -0.518597461   1.622144528   0.192620142

2.32_mon1_hydrogenbromide--acetone.wfx


