%nprocs=4
%mem=2GB
#p hf aug-cc-pvdz output=wfx scf=(conver=6) int=(grid=ultrafine)

title

0 1
  H   -0.163536921  -0.330059341  -0.667407782
 Br   -0.404759841   0.050558093  -2.024235094
 Cl   -0.139950515  -1.678273650   4.473516853
  O   -1.331549175  -1.055343361   4.991772184
  O   -0.360107580  -2.642424875   3.438649964
  O    0.606160603  -0.399046907   3.551383430
  H    0.333985185   0.421883192   3.990939863

2.33_2.00_hydrogenbromide--chloricacid.wfx


