%nprocs=4
%mem=2GB
#p hf aug-cc-pvdz output=wfx scf=(conver=6) int=(grid=ultrafine)

title

0 1
  H   -0.163536921  -0.330059341  -0.667407782
 Br   -0.404759841   0.050558093  -2.024235094
 Cl   -0.582526591  -1.638605800   2.047711906
  O   -1.774125251  -1.015675511   2.565967237
  O   -0.802683656  -2.602757025   1.012845017
  O    0.163584527  -0.359379057   1.125578483
  H   -0.108590891   0.461551042   1.565134916

2.33_0.85_hydrogenbromide--chloricacid.wfx


