%nprocs=4
%mem=2GB
#p hf aug-cc-pvdz output=wfx scf=(conver=6) int=(grid=ultrafine)

title

0 1
  H   -0.416205839  -0.700077117  -0.786781148
 Br    0.421428782  -1.879138177  -0.916206654

2.34_mon1_hydrogenbromide--dimethylsulfone.wfx


