%nprocs=4
%mem=2GB
#p hf aug-cc-pvdz output=wfx scf=(conver=6) int=(grid=ultrafine)

title

0 1
  H   -0.214481803   0.209632281  -0.812159610
 Br    0.536944582  -0.601473979  -1.791779043

2.35_mon1_hydrogenbromide--dimethylsulfoxide.wfx


