%nprocs=4
%mem=2GB
#p hf aug-cc-pvdz output=wfx scf=(conver=6) int=(grid=ultrafine)

title

0 1
  H    0.420860164  -0.040816655   0.328447977
 Br   -0.175784307   0.059859923  -0.997558702
  O    0.881607173  -0.181153435   1.762493938
  H    1.255455753  -1.056527073   1.892646864
  C   -0.242624758  -0.008285498   2.631925588
  H   -0.633842114   0.985769915   2.437113881
  H   -1.023640936  -0.741687953   2.426963836
  H    0.059428716  -0.073433447   3.677460856

2.36_0.85_hydrogenbromide--methanol.wfx


