%nprocs=4
%mem=2GB
#p hf aug-cc-pvdz output=wfx scf=(conver=6) int=(grid=ultrafine)

title

0 1
  H   -0.435743197  -0.504495451   0.000000000
 Br   -0.101991652  -1.933123719   0.000000000

2.37_mon1_hydrogenbromide--Nmethylacetamide.wfx


