%nprocs=4
%mem=2GB
#p hf aug-cc-pvdz output=wfx scf=(conver=6) int=(grid=ultrafine)

title

0 1
  H   -0.099736348  -0.509971450  -1.362657007
 Br    0.810684881   0.437116880  -1.936976715
  H   -2.138183304  -1.150181122   0.262235193
  H    0.798629325  -1.766148290   2.239123846
  H    0.196034708   1.262175770   0.350801494
  P   -0.657795910  -0.310095689   1.589283260
  O   -1.577284846  -0.428472741   2.710904664
  O   -1.180432873  -1.048272894   0.249773310
  O   -0.334531205   1.168300605   1.155972860
  O    0.792911844  -0.937876119   1.749023291

2.38_0.95_hydrogenbromide--phosphoricacid.wfx


