%nprocs=4
%mem=2GB
#p hf aug-cc-pvdz output=wfx scf=(conver=6) int=(grid=ultrafine)

title

0 1
  H   -0.355325381  -0.589617444   0.000000000
 Br    0.180581142  -1.914407193   0.000000000
  O   -1.165925752   1.623880442   0.000000000
  S   -0.476832450   2.886935628   0.000000000
  O    0.955787121   2.892906376   0.000000000

2.39_1.10_hydrogenbromide--SO2.wfx


