%nprocs=4
%mem=2GB
#p hf aug-cc-pvdz output=wfx scf=(conver=6) int=(grid=ultrafine)

title

0 1
  O   -1.092234809   1.422653361   0.000000000
  S   -0.403141507   2.685708547   0.000000000
  O    1.029478064   2.691679296   0.000000000

2.39_mon2_hydrogenbromide--SO2.wfx


