%nprocs=4
%mem=2GB
#p hf aug-cc-pvdz output=wfx scf=(conver=6) int=(grid=ultrafine)

title

0 1
  H   -0.220400800   0.435720945  -1.006476719
  I   -0.542220943  -0.870537170  -1.898724404
 Br   -1.101411165  -1.228518325   1.427564428
  O   -0.702305694  -1.525045342   2.967063502
  O   -2.635370379  -0.755717960   1.319267050
  O   -0.141066614   0.316402341   1.103253271
  H   -0.012485803   0.703716654   1.984859742

2.44_0.80_hydrogeniodide--bromicacid.wfx


