%nprocs=4
%mem=2GB
#p hf aug-cc-pvdz output=wfx scf=(conver=6) int=(grid=ultrafine)

title

0 1
  H   -0.220400800   0.435720945  -1.006476719
  I   -0.542220943  -0.870537170  -1.898724404
 Br   -1.086536006  -1.250890563   1.823138801
  O   -0.687430535  -1.547417580   3.362637875
  O   -2.620495220  -0.778090198   1.714841423
  O   -0.126191455   0.294030103   1.498827644
  H    0.002389356   0.681344416   2.380434115

2.44_0.95_hydrogeniodide--bromicacid.wfx


