%nprocs=4
%mem=2GB
#p hf aug-cc-pvdz output=wfx scf=(conver=6) int=(grid=ultrafine)

title

0 1
  H   -0.394127428  -1.488193020  -0.018286073
  I   -0.060700150  -0.390244536  -1.242531023
  C   -1.021470720  -1.062469695   3.223362364
  H   -0.039933414  -0.695022915   2.930862274
  H   -1.210891172  -0.798685336   4.261252984
  H   -1.749797512  -0.565239537   2.585930888
  C   -1.084378534  -2.547571372   2.976104686
  O   -0.895913858  -3.042585531   1.862553252
  N   -1.359391942  -3.332043776   4.033544430
  H   -1.506385232  -2.903337556   4.928399882
  C   -1.444903396  -4.778283074   3.915722636
  H   -0.498387960  -5.193279345   3.573976528
  H   -1.689145472  -5.193440092   4.888953006
  H   -2.215079598  -5.059607801   3.200041966

2.47_1.50_hydrogeniodide--Nmethylacetamide.wfx


