%nprocs=4
%mem=2GB
#p hf aug-cc-pvdz output=wfx scf=(conver=6) int=(grid=ultrafine)

title

0 1
  H   -0.394127428  -1.488193020  -0.018286073
  I   -0.060700150  -0.390244536  -1.242531023

2.47_mon1_hydrogeniodide--Nmethylacetamide.wfx


