%nprocs=4
%mem=2GB
#p hf aug-cc-pvdz output=wfx scf=(conver=6) int=(grid=ultrafine)

title

0 1
  H   -0.787863116   0.035223446   0.101035769
  I   -1.876331631  -0.028579213  -1.150515721
  H   -1.197122346  -2.164758206   1.695303424
  H   -0.421980472  -0.853797200   5.912193752
  H    0.130037153   0.833378059   6.062094826
  H    1.278402221  -0.505363085   6.307400994
  H   -2.242573625  -2.765334717   3.004287990
  H   -0.473517669  -2.802815352   3.193580856
  H   -2.787166353   1.416246436   2.710727206
  H   -2.202584564   2.989660301   3.307682708
  H   -1.499253835   2.277174088   1.834036104
  C    0.409619914  -0.170297312   5.751181144
  O    0.795280355  -0.165667266   4.365472492
  P   -0.237067890   0.102552503   3.211894586
  O    0.411282525   0.089140862   1.892632922
  O   -1.413265384  -0.948009187   3.372118874
  C   -1.314316266  -2.254841579   2.771500380
  O   -0.931881521   1.442517936   3.657502462
  C   -1.921361824   2.066387351   2.813392706

2.49_1.25_hydrogeniodide--trimethylphosphate.wfx


