%nprocs=4
%mem=2GB
#p hf aug-cc-pvdz output=wfx scf=(conver=6) int=(grid=ultrafine)

title

0 1
  H   -0.724097678  -0.806459658   0.719600863
  I    0.234343463   0.488298445   0.471807322
  O   -1.641224863  -2.234256811   0.922352000
  H   -1.804750546  -2.640358718   0.066601720
  H   -1.133343572  -2.879990753   1.421402374

2.51_0.85_hydrogeniodide--water.wfx


