%nprocs=4
%mem=2GB
#p hf aug-cc-pvdz output=wfx scf=(conver=6) int=(grid=ultrafine)

title

0 1
  C   -0.445073206   3.291327787   0.000000000
  H   -0.876214391   2.317388004   0.000000000
  C    0.055104244   4.378112754   0.000000000
  H    0.495012170   5.343744939   0.000000000
  H   -2.867454181  -2.511312824   0.000000000
  H   -1.638710726  -3.412796308  -0.885880150
  H   -1.638710726  -3.412796308   0.885880150
  H    1.496488468   0.278464802   0.000000000
  H    1.937974651  -3.365358112  -0.874979008
  H    2.531442762  -0.853947676   0.877120118
  H    2.531442762  -0.853947676  -0.877120118
  H    0.513617412  -3.932908884   0.000000000
  H    1.937974651  -3.365358112   0.874979008
  P   -0.787573210  -1.259322064   0.000000000
  C    0.805788580  -1.778997338   0.000000000
  C    1.889515395  -0.735863266   0.000000000
  C    1.305595779  -3.190751790   0.000000000
  C   -1.819472343  -2.805427700   0.000000000

3.01_1.25_ethyne--phosphaalkene.wfx


