%nprocs=4
%mem=2GB
#p hf aug-cc-pvdz output=wfx scf=(conver=6) int=(grid=ultrafine)

title

0 1
  C   -0.445073206   3.291327787   0.000000000
  H   -0.876214391   2.317388004   0.000000000
  C    0.055104244   4.378112754   0.000000000
  H    0.495012170   5.343744939   0.000000000

3.01_mon1_ethyne--phosphaalkene.wfx


