%nprocs=4
%mem=2GB
#p hf aug-cc-pvdz output=wfx scf=(conver=6) int=(grid=ultrafine)

title

0 1
  N    0.293708948   3.065122439   0.000000000
  H    0.918460321   2.265199024   0.000000000
  H    0.519131365   3.622803887  -0.814146044
  H    0.519131365   3.622803887   0.814146044
  H    1.128789166  -2.303142037   0.880350997
  H    1.128789166  -2.303142037  -0.880350997
  H   -0.401844703  -2.470267083   0.000000000
  H   -0.243896036  -0.141506108   2.346889984
  H   -1.628157837  -0.547132665   1.314488545
  H   -1.060374165   1.131338405   1.434629011
  H   -0.243896036  -0.141506108  -2.346889984
  H   -1.060374165   1.131338405  -1.434629011
  H   -1.628157837  -0.547132665  -1.314488545
  P    0.424691682  -0.139316085   0.000000000
  C    0.573869306  -1.981252351   0.000000000
  C   -0.746378055   0.089166811   1.408288849
  C   -0.746378055   0.089166811  -1.408288849

3.07_0.90_ammonia--trimethylphosphine.wfx


