%nprocs=4
%mem=2GB
#p hf aug-cc-pvdz output=wfx scf=(conver=6) int=(grid=ultrafine)

title

0 1
  N   -1.301351763   2.349132670  -2.378570685
  H   -1.353211443   1.840444713  -1.502279560
  H   -1.362255491   3.336077953  -2.162376317
  H   -2.122945559   2.110083083  -2.919275914

3.08_mon1_ammonia--trimethylphosphite.wfx


