%nprocs=4
%mem=2GB
#p hf aug-cc-pvdz output=wfx scf=(conver=6) int=(grid=ultrafine)

title

0 1
  N   -1.686058393   1.389510189   1.376264904
  H   -1.150769958   0.555809556   1.588267201
  H   -2.577367707   1.303856695   1.846025391
  C   -0.969635346   2.580595300   1.830814560
  H   -1.531681359   3.471894053   1.553108852
  H   -0.780533169   2.621860357   2.909689900
  H   -0.006638430   2.631857131   1.324202457

3.09_mon1_methylamine--trimethylphosphine.wfx


