%nprocs=4
%mem=2GB
#p hf aug-cc-pvdz output=wfx scf=(conver=6) int=(grid=ultrafine)

title

0 1
  C   -2.389240398  -1.455799537   0.314567582
  H   -3.257815680  -1.548703992   0.963603557
  H   -1.484740608  -1.563800608   0.909544476
  H   -2.439120086  -2.262219815  -0.415079427
  C   -2.472390664  -0.131660691  -0.416794831
  O   -3.431516940   0.170611485  -1.107422000
  N   -1.411302671   0.697033192  -0.248985803
  H   -0.613429116   0.373193799   0.271819674
  C   -1.343780956   1.983862933  -0.909348666
  H   -2.240948819   2.564350677  -0.703566440
  H   -0.475995010   2.523137008  -0.538612869
  H   -1.260101739   1.876476396  -1.992141832

3.10_mon1_Nmethylacetamide--phosphaalkene.wfx


