%nprocs=4
%mem=2GB
#p hf aug-cc-pvdz output=wfx scf=(conver=6) int=(grid=ultrafine)

title

0 1
  P   -0.052088250  -2.969334798   0.000000000
  H   -0.769693136  -3.606932607  -1.039172711
  H    1.003547825  -3.911306477   0.000000000
  H   -0.769693136  -3.606932607   1.039172711

3.12_mon2_Nmethylacetamide--phosphine.wfx


