%nprocs=4
%mem=2GB
#p hf aug-cc-pvdz output=wfx scf=(conver=6) int=(grid=ultrafine)

title

0 1
  C   -1.974610795  -1.457891036   1.449517142
  H   -2.535785920  -1.060771908   2.294272576
  H   -0.979321902  -1.019656534   1.447136528
  H   -1.893026057  -2.533704362   1.589023202
  C   -2.758666076  -1.191849986   0.179725630
  O   -3.841899726  -1.714172127  -0.028394428
  N   -2.184661571  -0.337469043  -0.702126208
  H   -1.290262583   0.078816222  -0.491173163
  C   -2.840809639   0.014441313  -1.944917415
  H   -3.075906365  -0.877359792  -2.524193363
  H   -3.774588714   0.546778430  -1.763219661
  H   -2.174320814   0.650872374  -2.521635401

3.13_mon1_Nmethylacetamide--trimethylphosphite.wfx


