%nprocs=4
%mem=2GB
#p hf aug-cc-pvdz output=wfx scf=(conver=6) int=(grid=ultrafine)

title

0 1
  H   -1.202715576  -1.857619391   1.536575062
  H   -1.337545566  -0.091724864   1.514762482
  H   -0.301057834  -0.887755038   2.706138655
  P    1.645341384  -0.756555352  -0.240933844
  C    0.463813955  -0.843503509   0.745355879
  C   -0.651275243  -0.925718074   1.673183159

3.15_mon2_methanol--phosphaalkyne.wfx


