%nprocs=4
%mem=2GB
#p hf aug-cc-pvdz output=wfx scf=(conver=6) int=(grid=ultrafine)

title

0 1
  O   -1.121527761   1.783086118  -0.311869827
  H   -0.268081128   1.346485238  -0.222631995
  C   -1.800164383   1.203441979  -1.415625590
  H   -2.777600875   1.676680365  -1.474937109
  H   -1.272929749   1.377157168  -2.357630495
  H   -1.941017652   0.125968981  -1.289509094
  H   -1.408625214  -1.375072140   1.317209187
  H   -1.543455204   0.390822387   1.295396607
  H   -0.506967472  -0.405207787   2.486772780
  P    1.439431746  -0.274008101  -0.460299719
  C    0.257904317  -0.360956258   0.525990004
  C   -0.857184881  -0.443170823   1.453817284

3.15_0.80_methanol--phosphaalkyne.wfx


