%nprocs=4
%mem=2GB
#p hf aug-cc-pvdz output=wfx scf=(conver=6) int=(grid=ultrafine)

title

0 1
  P   -0.387376520  -2.120340285   0.000000000
  P   -0.478281578  -0.220843526  -1.105768740
  P   -0.478281578  -0.220843526   1.105768740
  P    1.346263469  -0.757183333   0.000000000

3.19_mon2_methanol--P4.wfx


