%nprocs=4
%mem=2GB
#p hf aug-cc-pvdz output=wfx scf=(conver=6) int=(grid=ultrafine)

title

0 1
  H    0.645614250   0.470582030   0.065841731
  H    1.602452768   1.491606756   1.413105006
  S    1.654629066   1.359580835   0.079663563

3.25_mon1_sulfane--phosphine.wfx


