%nprocs=4
%mem=2GB
#p hf aug-cc-pvdz output=wfx scf=(conver=6) int=(grid=ultrafine)

title

0 1
  H    0.893794006   1.515332247  -0.345187693
  H    2.645035627   1.487578252  -1.194174060
  S    2.143912497   1.919000715  -0.027657068

3.27_mon1_sulfane--trimethylphosphine.wfx


