%nprocs=4
%mem=2GB
#p hf aug-cc-pvdz output=wfx scf=(conver=6) int=(grid=ultrafine)

title

0 1
  H   -0.024515893   2.370885834   0.000000000
  F   -0.344763424   3.255166431   0.000000000
  H    2.857173967   0.565571183   0.000000000
  H    2.231580702  -0.824865698   0.886368272
  H    2.231580702  -0.824865698  -0.886368272
  H   -2.294794725   0.910805065   0.000000000
  H   -0.960744999  -2.514145419   0.875133540
  H   -2.678391779  -0.575690339  -0.877385818
  H   -2.678391779  -0.575690339   0.877385818
  H    0.562226750  -2.333637163   0.000000000
  H   -0.960744999  -2.514145419  -0.875133540
  P    0.437690386   0.621842040   0.000000000
  C   -0.722941465  -0.581861663   0.000000000
  C   -2.168453361  -0.169918752   0.000000000
  C   -0.488215536  -2.060190915   0.000000000
  C    2.091929925  -0.208050963   0.000000000

3.28_0.80_hydrogenfluoride--phosphaalkene.wfx


