%nprocs=4
%mem=2GB
#p hf aug-cc-pvdz output=wfx scf=(conver=6) int=(grid=ultrafine)

title

0 1
  H    2.972725537   0.128310234   0.000000000
  H    2.347132272  -1.262126647   0.886368272
  H    2.347132272  -1.262126647  -0.886368272
  H   -2.179243155   0.473544116   0.000000000
  H   -0.845193429  -2.951406368   0.875133540
  H   -2.562840209  -1.012951288  -0.877385818
  H   -2.562840209  -1.012951288   0.877385818
  H    0.677778320  -2.770898112   0.000000000
  H   -0.845193429  -2.951406368  -0.875133540
  P    0.553241956   0.184581091   0.000000000
  C   -0.607389895  -1.019122612   0.000000000
  C   -2.052901791  -0.607179701   0.000000000
  C   -0.372663966  -2.497451864   0.000000000
  C    2.207481495  -0.645311912   0.000000000

3.28_mon2_hydrogenfluoride--phosphaalkene.wfx


