%nprocs=4
%mem=2GB
#p hf aug-cc-pvdz output=wfx scf=(conver=6) int=(grid=ultrafine)

title

0 1
  H   -0.309778637   1.408639177   0.033212071
  F   -0.130618760   2.322985077  -0.026014150
  H    2.141351022   0.918114781  -0.983849279
  H    2.526584898  -0.783689808  -0.692911952
  H    2.495833233   0.363346165   0.652694116
  P   -0.886541403  -0.534468402   0.139835483
  C    0.603407213  -0.199592040  -0.078870414
  C    2.012935189   0.089082020  -0.286493000

3.29_0.80_hydrogenfluoride--phosphaalkyne.wfx


