%nprocs=4
%mem=2GB
#p hf aug-cc-pvdz output=wfx scf=(conver=6) int=(grid=ultrafine)

title

0 1
  H   -0.000000000   0.000000000  -2.916476279
  F   -0.000000000   0.000000000  -3.853087078

3.31_mon1_hydrogenfluoride--phosphorine.wfx


