%nprocs=4
%mem=2GB
#p hf aug-cc-pvdz output=wfx scf=(conver=6) int=(grid=ultrafine)

title

0 1
  H   -0.000048316  -0.000060220  -2.097871376
  F   -0.000072473  -0.000051513  -3.047168784

3.33_mon1_hydrogenfluoride--trimethylphosphite.wfx


