%nprocs=4
%mem=2GB
#p hf aug-cc-pvdz output=wfx scf=(conver=6) int=(grid=ultrafine)

title

0 1
  H    0.331345486   1.884346591   0.000000000
 Cl   -0.055022791   3.130768445   0.000000000

3.34_mon1_hydrogenchloride--phosphaalkene.wfx


