%nprocs=4
%mem=2GB
#p hf aug-cc-pvdz output=wfx scf=(conver=6) int=(grid=ultrafine)

title

0 1
  H    0.373563736   0.965915426   0.000000000
 Cl    0.159554978   2.242092151   0.000000000
  H   -2.455657928  -1.230454917  -0.883965785
  H   -2.118566982   0.261489071   0.000000000
  H   -2.455657928  -1.230454917   0.883965785
  P    0.953109027  -1.490511723   0.000000000
  C   -0.548112371  -1.138651180   0.000000000
  C   -1.965343933  -0.819287765   0.000000000

3.35_0.95_hydrogenchloride--phosphaalkyne.wfx


