%nprocs=4
%mem=2GB
#p hf aug-cc-pvdz output=wfx scf=(conver=6) int=(grid=ultrafine)

title

0 1
  H    0.373563736   0.965915426   0.000000000
 Cl    0.159554978   2.242092151   0.000000000
  H   -2.394653160  -1.489026195  -0.883965785
  H   -2.057562214   0.002917793   0.000000000
  H   -2.394653160  -1.489026195   0.883965785
  P    1.014113795  -1.749083001   0.000000000
  C   -0.487107603  -1.397222458   0.000000000
  C   -1.904339165  -1.077859043   0.000000000

3.35_1.05_hydrogenchloride--phosphaalkyne.wfx


