%nprocs=4
%mem=2GB
#p hf aug-cc-pvdz output=wfx scf=(conver=6) int=(grid=ultrafine)

title

0 1
  H    0.000000000   0.000000000  -2.466595611
 Cl    0.000000000   0.000000000  -3.764119587
  H    0.000000000  -2.328087241   0.773061854
  H    0.000000000   2.328087241   0.773061854
  C    0.000000000  -1.221894466   2.588736113
  C    0.000000000  -1.336395966   1.206955469
  P    0.000000000   0.000000000   0.110190117
  C    0.000000000   1.336395966   1.206955469
  C    0.000000000   1.221894466   2.588736113
  C    0.000000000   0.000000000   3.253392909
  H    0.000000000   2.126635150   3.183712890
  H    0.000000000   0.000000000   4.334308592
  H    0.000000000  -2.126635150   3.183712890

3.37_1.05_hydrogenchloride--phosphorine.wfx


