%nprocs=4
%mem=2GB
#p hf aug-cc-pvdz output=wfx scf=(conver=6) int=(grid=ultrafine)

title

0 1
  H    0.000000000   0.000000000  -2.466595611
 Cl    0.000000000   0.000000000  -3.764119587
  H    0.000000000  -2.328087241   0.282245525
  H   -0.000000000   2.328087241   0.282245525
  C    0.000000000  -1.221894466   2.097919784
  C    0.000000000  -1.336395966   0.716139140
  P    0.000000000   0.000000000  -0.380626212
  C   -0.000000000   1.336395966   0.716139140
  C   -0.000000000   1.221894466   2.097919784
  C    0.000000000   0.000000000   2.762576580
  H   -0.000000000   2.126635150   2.692896561
  H    0.000000000   0.000000000   3.843492263
  H    0.000000000  -2.126635150   2.692896561

3.37_0.85_hydrogenchloride--phosphorine.wfx


