%nprocs=4
%mem=2GB
#p hf aug-cc-pvdz output=wfx scf=(conver=6) int=(grid=ultrafine)

title

0 1
  H   -0.000000499   1.434839437   0.000000000
 Cl   -0.000001086   2.766485865   0.000000000
  H   -1.864508339  -1.856075000   1.468593928
  H   -0.339585943  -1.856075048   2.349008984
  H   -0.774556496  -3.250595834   1.341571094
  H   -1.864508339  -1.856075000  -1.468593928
  H   -0.774556496  -3.250595834  -1.341571094
  H   -0.339585943  -1.856075048  -2.349008984
  H    2.204094839  -1.856074772   0.880414679
  H    2.204094839  -1.856074772  -0.880414679
  H    1.549113583  -3.250595396   0.000000000
  P    0.000001306  -1.335902032   0.000000000
  C   -0.821112847  -2.163807354   1.422209664
  C   -0.821112847  -2.163807354  -1.422209664
  C    1.642227673  -2.163807042   0.000000000

3.38_1.25_hydrogenchloride--trimethylphosphine.wfx


