%nprocs=4
%mem=2GB
#p hf aug-cc-pvdz output=wfx scf=(conver=6) int=(grid=ultrafine)

title

0 1
  H   -0.000000499   1.434839437   0.000000000
 Cl   -0.000001086   2.766485865   0.000000000
  H   -1.864508772  -1.191097047   1.468593928
  H   -0.339586376  -1.191097095   2.349008984
  H   -0.774556929  -2.585617881   1.341571094
  H   -1.864508772  -1.191097047  -1.468593928
  H   -0.774556929  -2.585617881  -1.341571094
  H   -0.339586376  -1.191097095  -2.349008984
  H    2.204094406  -1.191096819   0.880414679
  H    2.204094406  -1.191096819  -0.880414679
  H    1.549113150  -2.585617443   0.000000000
  P    0.000000873  -0.670924079   0.000000000
  C   -0.821113280  -1.498829401   1.422209664
  C   -0.821113280  -1.498829401  -1.422209664
  C    1.642227240  -1.498829089   0.000000000

3.38_0.95_hydrogenchloride--trimethylphosphine.wfx


