%nprocs=4
%mem=2GB
#p hf aug-cc-pvdz output=wfx scf=(conver=6) int=(grid=ultrafine)

title

0 1
  H   -0.000000000  -0.000000000  -2.275117691
 Cl   -0.000000000  -0.000000000  -3.563134661
  P    0.000000000   1.108766362   3.011204792
  P   -1.104102416   0.000000000   4.556046351
  P    0.000000000  -1.108766362   3.011204792
  P    1.104102416   0.000000000   4.556046351

3.40_2.00_hydrogenchloride--P4.wfx


