%nprocs=4
%mem=2GB
#p hf aug-cc-pvdz output=wfx scf=(conver=6) int=(grid=ultrafine)

title

0 1
  H   -0.102356188   0.043547349  -0.627319202
 Br   -1.017267085   0.867266820  -1.393091892

3.41_mon1_hydrogenbromide--phosphaalkene.wfx


