%nprocs=4
%mem=2GB
#p hf aug-cc-pvdz output=wfx scf=(conver=6) int=(grid=ultrafine)

title

0 1
  H   -0.337669649   0.185761799   0.000000000
 Br   -0.058551079   1.597089692   0.000000000
  H    2.180652404  -0.480636988   0.000000000
  H    2.475253061  -1.981654094  -0.884014065
  H    2.475253061  -1.981654094   0.884014065
  P   -0.941166026  -2.134346939   0.000000000
  C    0.571120305  -1.833819675   0.000000000
  C    1.996760673  -1.556872486   0.000000000

3.42_0.90_hydrogenbromide--phosphaalkyne.wfx


