%nprocs=4
%mem=2GB
#p hf aug-cc-pvdz output=wfx scf=(conver=6) int=(grid=ultrafine)

title

0 1
  H   -0.337669649   0.185761799   0.000000000
 Br   -0.058551079   1.597089692   0.000000000
  H    1.443045721  -3.316325446   0.000000000
  H    1.737646378  -4.817342552  -0.884014065
  H    1.737646378  -4.817342552   0.884014065
  P   -1.678772709  -4.970035397   0.000000000
  C   -0.166486378  -4.669508133   0.000000000
  C    1.259153990  -4.392560944   0.000000000

3.42_2.00_hydrogenbromide--phosphaalkyne.wfx


