%nprocs=4
%mem=2GB
#p hf aug-cc-pvdz output=wfx scf=(conver=6) int=(grid=ultrafine)

title

0 1
  H    2.113597251  -0.738426848   0.000000000
  H    2.408197908  -2.239443954  -0.884014065
  H    2.408197908  -2.239443954   0.884014065
  P   -1.008221179  -2.392136799   0.000000000
  C    0.504065152  -2.091609535   0.000000000
  C    1.929705520  -1.814662346   0.000000000

3.42_mon2_hydrogenbromide--phosphaalkyne.wfx


