%nprocs=4
%mem=2GB
#p hf aug-cc-pvdz output=wfx scf=(conver=6) int=(grid=ultrafine)

title

0 1
  H   -0.337669649   0.185761799   0.000000000
 Br   -0.058551079   1.597089692   0.000000000
  H    1.778321486  -2.027376147   0.000000000
  H    2.072922143  -3.528393253  -0.884014065
  H    2.072922143  -3.528393253   0.884014065
  P   -1.343496944  -3.681086098   0.000000000
  C    0.168789387  -3.380558834   0.000000000
  C    1.594429755  -3.103611645   0.000000000

3.42_1.50_hydrogenbromide--phosphaalkyne.wfx


