%nprocs=4
%mem=2GB
#p hf aug-cc-pvdz output=wfx scf=(conver=6) int=(grid=ultrafine)

title

0 1
  H   -0.337669649   0.185761799   0.000000000
 Br   -0.058551079   1.597089692   0.000000000
  H    2.080069674  -0.867321778   0.000000000
  H    2.374670332  -2.368338884  -0.884014065
  H    2.374670332  -2.368338884   0.884014065
  P   -1.041748756  -2.521031729   0.000000000
  C    0.470537576  -2.220504465   0.000000000
  C    1.896177944  -1.943557276   0.000000000

3.42_1.05_hydrogenbromide--phosphaalkyne.wfx


