%nprocs=4
%mem=2GB
#p hf aug-cc-pvdz output=wfx scf=(conver=6) int=(grid=ultrafine)

title

0 1
  H    0.000000003   0.241145066   0.000000000
 Br    0.000000014  -1.201897006   0.000000000

3.43_mon1_hydrogenbromide--phosphine.wfx


