%nprocs=4
%mem=2GB
#p hf aug-cc-pvdz output=wfx scf=(conver=6) int=(grid=ultrafine)

title

0 1
  H    0.000000003   0.241145066   0.000000000
 Br    0.000000014  -1.201897006   0.000000000
  P   -0.000000027   2.221740129   0.000000000
  H   -0.601940334   2.963259613  -1.042591202
  H   -0.601940334   2.963259613   1.042591202
  H    1.203880611   2.963259623   0.000000000

3.43_0.80_hydrogenbromide--phosphine.wfx


