%nprocs=4
%mem=2GB
#p hf aug-cc-pvdz output=wfx scf=(conver=6) int=(grid=ultrafine)

title

0 1
  H    0.000000000  -2.327998980   1.661834783
  H    0.000000000   2.327998980   1.661834783
  C    0.000000000  -1.221858385   3.477473994
  C    0.000000000  -1.336254300   2.095662783
  P    0.000000000   0.000000000   0.998231963
  C    0.000000000   1.336254300   2.095662783
  C    0.000000000   1.221858385   3.477473994
  C    0.000000000   0.000000000   4.142193751
  H    0.000000000   2.126642665   4.072419705
  H    0.000000000   0.000000000   5.223114503
  H    0.000000000  -2.126642665   4.072419705

3.44_mon2_hydrogenbromide--phosphorine.wfx


