%nprocs=4
%mem=2GB
#p hf aug-cc-pvdz output=wfx scf=(conver=6) int=(grid=ultrafine)

title

0 1
  H   -0.000000000   0.000000000  -1.468387165
 Br   -0.000000000   0.000000000  -2.910894635
  H    0.000000000  -2.327998980   4.128453911
  H    0.000000000   2.327998980   4.128453911
  C    0.000000000  -1.221858385   5.944093122
  C    0.000000000  -1.336254300   4.562281911
  P    0.000000000   0.000000000   3.464851091
  C    0.000000000   1.336254300   4.562281911
  C    0.000000000   1.221858385   5.944093122
  C    0.000000000   0.000000000   6.608812879
  H    0.000000000   2.126642665   6.539038833
  H    0.000000000   0.000000000   7.689733631
  H    0.000000000  -2.126642665   6.539038833

3.44_2.00_hydrogenbromide--phosphorine.wfx


