%nprocs=4
%mem=2GB
#p hf aug-cc-pvdz output=wfx scf=(conver=6) int=(grid=ultrafine)

title

0 1
  H    0.000005849  -0.520678153   0.000000000
 Br   -0.000054595  -2.022146666   0.000000000
  H   -1.865092256   2.319648342  -1.469454914
  H   -0.340018680   2.319680522  -2.350012174
  H   -0.779954253   3.718955914  -1.350936644
  H   -1.865092256   2.319648342   1.469454914
  H   -0.779954253   3.718955914   1.350936644
  H   -0.340018680   2.319680522   2.350012174
  H    2.205260844   2.319706361  -0.880516280
  H    2.205260844   2.319706361   0.880516280
  H    1.560002593   3.718985274   0.000000000
  P    0.000078637   1.816145714   0.000000000
  C   -0.822946477   2.631652820  -1.425457210
  C   -0.822946477   2.631652820   1.425457210
  C    1.646057381   2.631684044   0.000000000

3.45_1.10_hydrogenbromide--trimethylphosphine.wfx


