%nprocs=4
%mem=2GB
#p hf aug-cc-pvdz output=wfx scf=(conver=6) int=(grid=ultrafine)

title

0 1
  H    0.270599856   0.207966649  -1.311285943
 Br    0.722742179  -0.587188535  -2.409727359
  P   -0.484050024  -1.171408770   3.119615111
  P    0.294708961   0.850477180   2.738916210
  P   -1.799788022   0.349208471   2.227470713
  P   -1.187962457   0.533224992   4.331648712

3.47_1.50_hydrogenbromide--P4.wfx


