%nprocs=4
%mem=2GB
#p hf aug-cc-pvdz output=wfx scf=(conver=6) int=(grid=ultrafine)

title

0 1
  H    0.448189295  -0.049944979   0.672237473
  I    1.558561712  -0.541901292  -0.409465742

3.49_mon1_hydrogeniodide--phosphaalkyne.wfx


