%nprocs=4
%mem=2GB
#p hf aug-cc-pvdz output=wfx scf=(conver=6) int=(grid=ultrafine)

title

0 1
  H    0.448189295  -0.049944979   0.672237473
  I    1.558561712  -0.541901292  -0.409465742
  H    1.963092837  -0.894264154   2.650653712
  H    0.955028516  -1.525623083   3.956724098
  H    1.723847320   0.058080216   4.119570296
  P   -1.161001063   0.672623317   2.172956328
  C    0.071930127   0.007418183   2.815987044
  C    1.235223845  -0.619331580   3.417238182

3.49_0.85_hydrogeniodide--phosphaalkyne.wfx


