%nprocs=4
%mem=2GB
#p hf aug-cc-pvdz output=wfx scf=(conver=6) int=(grid=ultrafine)

title

0 1
  H    1.679118068  -0.766752102   2.915486451
  H    0.671053747  -1.398111031   4.221556837
  H    1.439872551   0.185592268   4.384403035
  P   -1.444975832   0.800135369   2.437789067
  C   -0.212044642   0.134930235   3.080819783
  C    0.951249076  -0.491819528   3.682070921

3.49_mon2_hydrogeniodide--phosphaalkyne.wfx


