%nprocs=4
%mem=2GB
#p hf aug-cc-pvdz output=wfx scf=(conver=6) int=(grid=ultrafine)

title

0 1
  H    0.113621135   0.012932231  -0.500806450
  I   -0.206158913   1.113863923  -1.655522928

3.51_mon1_hydrogeniodide--phosphorine.wfx


