%nprocs=4
%mem=2GB
#p hf aug-cc-pvdz output=wfx scf=(conver=6) int=(grid=ultrafine)

title

0 1
  H   -0.239386532   0.462064869  -0.598124371
  I   -0.837109405  -0.511350293  -1.741952413
  P   -1.200989179  -0.922900397   2.577008139
  P   -0.390344045   0.444288573   4.108620818
  P    0.729472072   0.077218493   2.249944737
  P   -1.145544098   1.242736111   2.201960561

3.52_1.05_hydrogeniodide--P4.wfx


