%nprocs=4
%mem=2GB
#p hf aug-cc-pvdz output=wfx scf=(conver=6) int=(grid=ultrafine)

title

0 1
  H   -0.239386532   0.462064869  -0.598124371
  I   -0.837109405  -0.511350293  -1.741952413
  P   -1.209012833  -0.973552857   1.854231681
  P   -0.398367699   0.393636113   3.385844360
  P    0.721448418   0.026566033   1.527168279
  P   -1.153567752   1.192083651   1.479184103

3.52_0.80_hydrogeniodide--P4.wfx


