%nprocs=4
%mem=2GB
#p hf aug-cc-pvdz output=wfx scf=(conver=6) int=(grid=ultrafine)

title

0 1
  C    2.106088099   0.342724641  -0.187886324
  H    1.150106433   0.623891613  -0.566455031
  C    3.169792657   0.011916680   0.248503367
  H    4.116618093  -0.276415848   0.631432631
  H   -2.514692877  -1.532438470   1.303717426
  H   -1.968492677   0.060711216   1.841273607
  H   -0.806321045  -1.051053348   1.108239111
  H   -2.050540012  -1.013776008  -1.280057507
  C   -1.837811393  -0.711472918   1.087851829
  S   -2.244342803   0.067328586  -0.509811710

4.02_1.25_ethyne--methanethiol.wfx


