%nprocs=4
%mem=2GB
#p hf aug-cc-pvdz output=wfx scf=(conver=6) int=(grid=ultrafine)

title

0 1
  C    0.088317027   1.939161876   0.000000000
  H    0.213283249   0.881623217   0.000000000
  C   -0.056920454   3.126544944   0.000000000
  H   -0.183798061   4.180110454   0.000000000
  H   -0.968644372  -3.315434988   0.969418293
  H   -0.968644372  -3.315434988  -0.969418293
  S   -0.042163012  -3.352020330   0.000000000

4.03_1.50_ethyne--sulfane.wfx


