%nprocs=4
%mem=2GB
#p hf aug-cc-pvdz output=wfx scf=(conver=6) int=(grid=ultrafine)

title

0 1
  C   -0.207512111  -2.930116447   0.000000000
  H   -0.707754653  -1.987489218   0.000000000
  C    0.372962374  -3.976609526   0.000000000
  H    0.881372541  -4.908040530   0.000000000
  H   -0.514570652   4.063648620   0.000000000
  H    1.007882446   3.785789486   0.874718892
  H    1.007882446   3.785789486  -0.874718892
  H    1.204360326   0.125558282   0.000000000
  H    2.028749334   1.432151922  -0.874313666
  C    0.415335640   3.505604264   0.000000000
  C    0.178293522   2.025819848   0.000000000
  S   -1.319947210   1.391075724   0.000000000
  C    1.419896954   1.187801700   0.000000000
  H    2.028749334   1.432151922   0.874313666

4.05_1.25_ethyne--thioacetone.wfx


