%nprocs=4
%mem=2GB
#p hf aug-cc-pvdz output=wfx scf=(conver=6) int=(grid=ultrafine)

title

0 1
  H   -1.697548333  -2.667968218  -0.306329806
  H   -2.226730061  -0.975446216  -0.218533583
  H   -0.893946914  -1.549097583   0.818377784
  H    2.560133366  -0.327578727  -0.321080901
  H    1.424670281  -0.058656386   1.037188283
  H    2.262301511   1.315777990   0.284199480
  C   -1.369836165  -1.640470099  -0.153265877
  S   -0.188216664  -1.289908909  -1.494262959
  S    0.464898051   0.609717395  -1.087091189
  C    1.815649376   0.338280700   0.104724774

4.10_mon2_methylamine--dimethyldisulfide.wfx


