%nprocs=4
%mem=2GB
#p hf aug-cc-pvdz output=wfx scf=(conver=6) int=(grid=ultrafine)

title

0 1
 Br   -0.030254314  -0.999634660   0.000000000
  O    0.761026747  -0.504663159  -1.322598332
  O    0.761026747  -0.504663159   1.322598332
  O   -1.551989949  -0.015483186   0.000000000
  H   -1.249893375   0.926211885   0.000000000
  H    0.643611105   2.004444602   0.967089121
  H    0.643611105   2.004444602  -0.967089121
  S   -0.052905288   2.624035330   0.000000000

4.18_0.90_bromicacid--sulfane.wfx


