%nprocs=4
%mem=2GB
#p hf aug-cc-pvdz output=wfx scf=(conver=6) int=(grid=ultrafine)

title

0 1
  H    0.776609781   2.193091652   0.967089121
  H    0.776609781   2.193091652  -0.967089121
  S    0.080093388   2.812682380   0.000000000

4.18_mon2_bromicacid--sulfane.wfx


