%nprocs=4
%mem=2GB
#p hf aug-cc-pvdz output=wfx scf=(conver=6) int=(grid=ultrafine)

title

0 1
  O   -1.117655145   0.114307846  -1.550670053
  H   -0.423216579  -0.338451426  -1.053825792
  C   -0.585710661   1.330640392  -2.045922697
  H   -1.387423241   1.844835956  -2.571686638
  H   -0.229752760   1.982642547  -1.241382733
  H    0.236851123   1.165118865  -2.747744707
  H   -1.375844177   0.560237414   0.834092215
  H    0.098976158   1.429581698   1.282623929
  H   -0.564062598   0.224592862   2.392838908
  H   -0.117103673  -1.820969975   0.736765053
  C   -0.422601601   0.478414215   1.346997319
  S    0.652415264  -0.743316383   0.521457229

4.20_0.80_methanol--methanethiol.wfx


