%nprocs=4
%mem=2GB
#p hf aug-cc-pvdz output=wfx scf=(conver=6) int=(grid=ultrafine)

title

0 1
  H    1.015540508  -2.064302946  -0.263452316
  H    1.412213480  -3.507907961   0.683306271
  H    2.287767006  -1.999782097   0.978385091
  H    0.092274976  -0.709598095   1.832674891
  C    1.324423996  -2.425038093   0.712776929
  S    0.069414853  -2.045084238   1.979216362

4.22_mon1_methanethiol--dimethyldisulfide.wfx


