%nprocs=4
%mem=2GB
#p hf aug-cc-pvdz output=wfx scf=(conver=6) int=(grid=ultrafine)

title

0 1
  H    1.488411113  -0.839329770  -0.946998750
  H    2.603013228  -1.844008641  -0.015336080
  H    2.559788359  -0.100175654   0.268668478
  H    0.078774260  -0.119560383   1.214778309
  C    1.957669280  -0.970558599   0.024694512
  S    0.719917690  -1.297094746   1.320350134
  H   -2.559576030   1.961319547  -4.323482843
  H   -3.629475281   1.893657197  -2.918959120
  H   -2.081816559   1.044118593  -2.862890143
  H   -0.673226875   3.355127600  -3.069816499
  C   -2.591358799   1.926993724  -3.238780238
  S   -1.891033644   3.446535089  -2.515433149

4.24_2.00_methanethiol--methanethiol.wfx


