%nprocs=4
%mem=2GB
#p hf aug-cc-pvdz output=wfx scf=(conver=6) int=(grid=ultrafine)

title

0 1
  H    1.259279987   1.114064871  -0.282655519
  H    2.282790173   2.734183409  -0.675778468
  S    1.071104189   2.451633102  -0.176419536

4.28_mon1_sulfane--tetrahydrothiophene.wfx


