%nprocs=4
%mem=2GB
#p hf aug-cc-pvdz output=wfx scf=(conver=6) int=(grid=ultrafine)

title

0 1
  H   -0.346903232   0.868584639  -1.985965324
  F   -0.202685645   1.471500906  -2.693050447

4.29_mon1_hydrogenfluoride--dimethyldisulfide.wfx


