%nprocs=4
%mem=2GB
#p hf aug-cc-pvdz output=wfx scf=(conver=6) int=(grid=ultrafine)

title

0 1
  S    0.777599823   0.111498533   1.835778732
  P    0.332207079   2.087905135   2.453963575
  S   -2.287635940  -0.091254532   2.850770618
  S    0.157150421  -0.229412154   4.976939518
  P   -0.101590961   1.839130594   4.649438506
  P   -1.796910824   1.934358518   3.169956737
  P   -0.438090761  -1.075542652   3.131214806

4.32_mon2_hydrogenfluoride--P4S3.wfx


