%nprocs=4
%mem=2GB
#p hf aug-cc-pvdz output=wfx scf=(conver=6) int=(grid=ultrafine)

title

0 1
  H    0.048002422   1.088734497   0.000000000
  F   -0.004908833   2.023879365   0.000000000
  H   -0.855975235  -3.514031543   0.970994567
  H   -0.855975235  -3.514031543  -0.970994567
  S    0.063724704  -3.402707835   0.000000000

4.33_2.00_hydrogenfluoride--sulfane.wfx


