%nprocs=4
%mem=2GB
#p hf aug-cc-pvdz output=wfx scf=(conver=6) int=(grid=ultrafine)

title

0 1
  H   -0.328148919   0.674631615  -1.759528174
  F   -0.332598602   1.541791953  -2.147664879
  H   -1.569468243  -1.396102186   1.779394514
  H   -2.042807858  -0.133229608   0.633287646
  H   -0.653790089   0.620378720   2.792957716
  H    1.860972750  -0.152434816  -0.101184644
  H   -0.155790926   1.250963942   1.223039668
  H    2.084269122  -1.774062292   0.569305787
  H    1.878031307   0.306020350   2.269486669
  H    1.020401094  -1.186520130   2.638784646
  S   -0.186694645  -1.433155918  -0.204423344
  C   -1.198339066  -0.627432364   1.105073977
  C   -0.258707266   0.341935824   1.816068351
  C    1.091634924  -0.364736884   1.924689686
  C    1.421109879  -0.914594468   0.537044566

4.34_1.25_hydrogenfluoride--tetrahydrothiophene.wfx


