%nprocs=4
%mem=2GB
#p hf aug-cc-pvdz output=wfx scf=(conver=6) int=(grid=ultrafine)

title

0 1
  H   -0.191797763  -1.955532752   0.000000000
  F    0.331167063  -2.745939304   0.000000000
  H   -1.860641266   4.686193495   0.000000000
  H   -0.315513690   4.775667572   0.874524845
  H   -0.315513690   4.775667572  -0.874524845
  H    0.745262945   1.265032859   0.000000000
  H    1.232239040   2.733533305  -0.873839624
  C   -0.825131188   4.363831554   0.000000000
  C   -0.699574916   2.872392555   0.000000000
  S   -2.017731621   1.912238102   0.000000000
  C    0.700714625   2.348082118   0.000000000
  H    1.232239040   2.733533305   0.873839624

4.35_2.00_hydrogenfluoride--thioacetone.wfx


