%nprocs=4
%mem=2GB
#p hf aug-cc-pvdz output=wfx scf=(conver=6) int=(grid=ultrafine)

title

0 1
  H   -0.713230529   0.360813909  -0.389639872
 Cl   -0.975746180   1.504326327  -0.971284297

4.38_mon1_hydrogenchloride--methanethiol.wfx


