%nprocs=4
%mem=2GB
#p hf aug-cc-pvdz output=wfx scf=(conver=6) int=(grid=ultrafine)

title

0 1
  H   -0.713230529   0.360813909  -0.389639872
 Cl   -0.975746180   1.504326327  -0.971284297
  H    1.681710320   0.599864901   0.534815230
  H    2.206815699  -0.805965331  -0.400870192
  H    2.439065247  -0.796616542   1.353587674
  H   -0.194573448  -0.777595251   1.868517310
  C    1.785958516  -0.480704435   0.546408402
  S    0.157254451  -1.289732296   0.679267446

4.38_0.95_hydrogenchloride--methanethiol.wfx


