%nprocs=4
%mem=2GB
#p hf aug-cc-pvdz output=wfx scf=(conver=6) int=(grid=ultrafine)

title

0 1
  H   -0.573885324   0.231715936  -0.009838134
 Cl   -1.310853354   0.724488426  -0.947943052
  S    1.272485484  -0.084703535   2.461384678
  P    0.765463598   1.924302850   2.885425280
  S   -1.855515674  -0.256097710   3.264988338
  S    0.418580366  -0.178665879   5.570667066
  P    0.164054880   1.851017358   5.053790846
  P   -1.411327676   1.797601512   3.443654272
  P   -0.017375210  -1.179942802   3.757285314

4.39_1.25_hydrogenchloride--P4S3.wfx


