%nprocs=4
%mem=2GB
#p hf aug-cc-pvdz output=wfx scf=(conver=6) int=(grid=ultrafine)

title

0 1
  H   -0.218382161   0.191075287  -1.473719797
 Cl   -0.276261258   1.341645487  -2.138661144

4.41_mon1_hydrogenchloride--tetrahydrothiophene.wfx


