%nprocs=4
%mem=2GB
#p hf aug-cc-pvdz output=wfx scf=(conver=6) int=(grid=ultrafine)

title

0 1
  H   -0.341594984   0.208126873  -0.915648439
 Br    0.140219177   1.167610147  -1.896611081

4.43_mon1_hydrogenbromide--dimethyldisulfide.wfx


