%nprocs=4
%mem=2GB
#p hf aug-cc-pvdz output=wfx scf=(conver=6) int=(grid=ultrafine)

title

0 1
  H    0.132061490  -0.386054295  -0.144426513
 Br   -0.319777356   0.407793335  -1.282933983
  H    0.155115185   0.219097000   4.011334272
  H    1.843711045   0.158120035   4.534214549
  H    0.573653588  -0.385071916   5.640864514
  H   -0.137068006  -2.446972705   4.081478388
  C    0.878615356  -0.336288497   4.600472009
  S    1.121106478  -2.009669973   3.919829329

4.45_2.00_hydrogenbromide--methanethiol.wfx


