%nprocs=4
%mem=2GB
#p hf aug-cc-pvdz output=wfx scf=(conver=6) int=(grid=ultrafine)

title

0 1
  H   -0.513232116   0.204990711  -0.024081129
 Br   -1.319093678   0.779092326  -1.062312847
  S    2.383775552  -0.272866001   4.046876797
  P    1.846540294   1.737105417   4.422718689
  S   -0.762261658  -0.462234528   4.774339365
  S    1.450564223  -0.322012399   7.134792075
  P    1.189876655   1.695753606   6.575850011
  P   -0.342306447   1.598626473   4.926298750
  P    1.072371972  -1.358250682   5.327973703

4.46_2.00_hydrogenbromide--P4S3.wfx


