%nprocs=4
%mem=2GB
#p hf aug-cc-pvdz output=wfx scf=(conver=6) int=(grid=ultrafine)

title

0 1
  H   -0.462973966   0.619411228   0.000000000
 Br    0.064311133   1.992874943   0.000000000

4.48_mon1_hydrogenbromide--thioacetone.wfx


