%nprocs=4
%mem=2GB
#p hf aug-cc-pvdz output=wfx scf=(conver=6) int=(grid=ultrafine)

title

0 1
  H    0.178549809  -0.167929679   0.498312747
  I   -0.746689416  -1.212497957  -0.380656784
  H    1.922353394  -2.138834538   3.777897402
  H    1.837002931  -1.775232326   2.041528596
  H    0.373811814  -1.670821523   3.052096296
  H   -0.734456353   1.969882433   3.590693942
  H   -1.235284417   0.542447805   2.637896567
  H   -1.240775306   2.150695277   1.893854570
  C    1.448037856  -1.515925783   3.020948921
  S    1.883264749   0.195727246   3.460289502
  S    0.974287762   1.326281378   2.008954501
  C   -0.733443179   1.505614646   2.609584124

4.49_1.00_hydrogeniodide--dimethyldisulfide.wfx


