%nprocs=4
%mem=2GB
#p hf aug-cc-pvdz output=wfx scf=(conver=6) int=(grid=ultrafine)

title

0 1
  H    0.178549809  -0.167929679   0.498312747
  I   -0.746689416  -1.212497957  -0.380656784
  H    1.763205803  -2.437676749   3.475769051
  H    1.677855340  -2.074074537   1.739400245
  H    0.214664223  -1.969663734   2.749967945
  H   -0.893603944   1.671040222   3.288565591
  H   -1.394432008   0.243605594   2.335768216
  H   -1.399922897   1.851853066   1.591726219
  C    1.288890265  -1.814767994   2.718820570
  S    1.724117158  -0.103114965   3.158161151
  S    0.815140171   1.027439167   1.706826150
  C   -0.892590770   1.206772435   2.307455773

4.49_0.80_hydrogeniodide--dimethyldisulfide.wfx


