%nprocs=4
%mem=2GB
#p hf aug-cc-pvdz output=wfx scf=(conver=6) int=(grid=ultrafine)

title

0 1
  H    0.178549809  -0.167929679   0.498312747
  I   -0.746689416  -1.212497957  -0.380656784

4.49_mon1_hydrogeniodide--dimethyldisulfide.wfx


