%nprocs=4
%mem=2GB
#p hf aug-cc-pvdz output=wfx scf=(conver=6) int=(grid=ultrafine)

title

0 1
  H    0.540227290   0.348824840   0.000000000
  I   -0.099753736  -1.210693140   0.000000000
  H   -0.853483429   3.769771894   1.355874607
  H   -0.667200582   5.546406183   1.357877629
  H    0.441278429   4.531042175   2.298518063
  H    0.441278429   4.531042175  -2.298518063
  H   -0.667200582   5.546406183  -1.357877629
  H   -0.853483429   3.769771894  -1.355874607
  C   -0.143270285   4.594054292   1.384558962
  S    1.014738722   4.472942938   0.000000000
  C   -0.143270285   4.594054292  -1.384558962

4.50_2.00_hydrogeniodide--dimethylsulfide.wfx


