%nprocs=4
%mem=2GB
#p hf aug-cc-pvdz output=wfx scf=(conver=6) int=(grid=ultrafine)

title

0 1
  H   -0.498514346   0.106069306  -0.084445378
  I   -1.345984336   0.891207522  -1.219795607
  S    0.812698909  -0.115838955   1.880927466
  P    0.330388490   1.923804655   2.142624343
  S   -2.361594954  -0.168729916   2.500856664
  S   -0.232814692   0.012739739   4.932637061
  P   -0.403159758   2.008505255   4.270155386
  P   -1.877650508   1.882442924   2.570298925
  P   -0.576493379  -1.094901807   3.160920493

4.52_0.90_hydrogeniodide--P4S3.wfx


