%nprocs=4
%mem=2GB
#p hf aug-cc-pvdz output=wfx scf=(conver=6) int=(grid=ultrafine)

title

0 1
  H    0.163303972   0.595462209   0.486647856
  I    0.186802555   1.935970050  -0.565473334

4.53_mon1_hydrogeniodide--tetrahydrothiophene.wfx


