%nprocs=4
%mem=2GB
#p hf aug-cc-pvdz output=wfx scf=(conver=6) int=(grid=ultrafine)

title

0 1
  H    1.820378959  -1.125299702   2.454234082
  H    2.453276139  -0.045903543   1.184066481
  H    1.260488174  -1.302784812   0.756050915
  H   -1.356564860  -1.068742410   1.510338998
  H   -1.899998602   0.310187138   2.505836399
  H   -0.849109657  -0.933021145   3.230940098
  O    0.704774222   1.412933999   2.939215939
  S    0.307968686   0.589750174   1.827294826
  O   -0.016497056   1.220002527   0.564481539
  C    1.589985551  -0.611496269   1.525588362
  C   -1.093470440  -0.394756309   2.319766088
  P   -0.043872624  -0.190139541  -3.076373228
  F   -0.681065462  -0.827472608  -4.404532498
  F   -0.399447958  -1.407441531  -2.076177517
  H   -1.179174028   0.601566799  -2.751138377

5.02_1.50_dimethylsulfone--phosphineF2.wfx


