%nprocs=4
%mem=2GB
#p hf aug-cc-pvdz output=wfx scf=(conver=6) int=(grid=ultrafine)

title

0 1
  C    0.315950133  -1.637450299   0.000000000
  H    0.815403366  -0.697738209   0.000000000
  C   -0.259427185  -2.686214375   0.000000000
  H   -0.763906337  -3.619848858   0.000000000
  H   -1.095509600   3.482715900   0.893892902
  H   -1.095509600   3.482715900  -0.893892902
  H   -1.395006318   1.963811960   0.000000000
  C   -0.857530656   2.909978466   0.000000000
  F    0.512824292   2.641664726   0.000000000

5.04_1.50_ethyne--methylfluoride.wfx


