%nprocs=4
%mem=2GB
#p hf aug-cc-pvdz output=wfx scf=(conver=6) int=(grid=ultrafine)

title

0 1
  C    0.315950133  -1.637450299   0.000000000
  H    0.815403366  -0.697738209   0.000000000
  C   -0.259427185  -2.686214375   0.000000000
  H   -0.763906337  -3.619848858   0.000000000
  H   -1.045079754   2.926148744   0.893892902
  H   -1.045079754   2.926148744  -0.893892902
  H   -1.344576472   1.407244804   0.000000000
  C   -0.807100811   2.353411311   0.000000000
  F    0.563254137   2.085097570   0.000000000

5.04_1.25_ethyne--methylfluoride.wfx


