%nprocs=4
%mem=2GB
#p hf aug-cc-pvdz output=wfx scf=(conver=6) int=(grid=ultrafine)

title

0 1
  C   -0.045358139   2.459433130   0.000000000
  H    0.597315397   1.582811146   0.000000000
  H   -0.673508224   2.451908275   0.888289198
  H   -0.673508224   2.451908275  -0.888289198
  H    0.564968051   3.359502566   0.000000000
  H   -1.235813853   0.211203748   0.000000000
  H   -0.988536218  -1.315779355  -0.893116157
  H   -0.988536218  -1.315779355   0.893116157
  C   -0.726927953  -0.750774707   0.000000000
  F    0.646166705  -0.528115856   0.000000000

5.05_0.80_methane--methylfluoride.wfx


