%nprocs=4
%mem=2GB
#p hf aug-cc-pvdz output=wfx scf=(conver=6) int=(grid=ultrafine)

title

0 1
  C   -0.045358139   2.459433130   0.000000000
  H    0.597315397   1.582811146   0.000000000
  H   -0.673508224   2.451908275   0.888289198
  H   -0.673508224   2.451908275  -0.888289198
  H    0.564968051   3.359502566   0.000000000
  H   -1.226654233  -0.184595064   0.000000000
  H   -0.979376598  -1.711578167  -0.893116157
  H   -0.979376598  -1.711578167   0.893116157
  C   -0.717768333  -1.146573519   0.000000000
  F    0.655326325  -0.923914668   0.000000000

5.05_0.95_methane--methylfluoride.wfx


