%nprocs=4
%mem=2GB
#p hf aug-cc-pvdz output=wfx scf=(conver=6) int=(grid=ultrafine)

title

0 1
  H   -1.724348231  -0.027355360  -1.474026193
  H   -1.296435492  -1.415159708  -2.484097898
  H   -1.572301525   0.160027650  -3.243538945
  H    0.527790206   1.283050936  -1.949835639
  C   -1.185008230  -0.341291707  -2.362021642
  S    0.601246922  -0.037729081  -2.172892147
  P    0.252176444  -1.114323258   0.491968486
  F   -0.785428098   0.106889462   0.571859201
  F    0.331297485  -1.421859272   2.067145700
  H    1.430222171  -0.312256956   0.454220149

5.07_0.85_methanethiol--phosphineF2.wfx


