%nprocs=4
%mem=2GB
#p hf aug-cc-pvdz output=wfx scf=(conver=6) int=(grid=ultrafine)

title

0 1
  N   -0.762680266   0.657120961   1.269302631
  H   -0.160490256  -0.155763922   1.265651164
  H   -1.193948935   0.709510332   2.182080338
  C    0.012763010   1.865373931   0.988817467
  H   -0.654275639   2.726515138   0.961290449
  H    0.811540614   2.078466282   1.708394270
  H    0.470675110   1.775094247   0.004516708
  H   -0.140841694  -2.517840314  -2.810325070
  H   -0.496218978  -0.949044204  -2.020771162
  H    0.705720876  -1.040468220  -3.348380514
  C    0.267939594  -1.558902720  -2.497207008
  F    1.279024364  -1.796856842  -1.560909450

5.15_1.50_methylamine--methylfluoride.wfx


