%nprocs=4
%mem=2GB
#p hf aug-cc-pvdz output=wfx scf=(conver=6) int=(grid=ultrafine)

title

0 1
  F    2.848946085   0.902296127   0.215104995
  F    2.615042019  -0.401619267  -0.227858193

5.16_mon2_Nmethylacetamide--F2.wfx


