%nprocs=4
%mem=2GB
#p hf aug-cc-pvdz output=wfx scf=(conver=6) int=(grid=ultrafine)

title

0 1
  H    2.919810452   2.315275516  -0.231920966
  H    1.272356160   1.893116000   0.323671296
  H    2.684504149   1.539026983   1.361766340
  C    2.322116738   1.608728344   0.338885270
  F    2.445345513   0.348092003  -0.257685291

5.17_mon2_Nmethylacetamide--methylfluoride.wfx


