%nprocs=4
%mem=2GB
#p hf aug-cc-pvdz output=wfx scf=(conver=6) int=(grid=ultrafine)

title

0 1
  C    2.426914981  -1.000114078  -0.312034772
  O    1.635234765  -1.883035583  -0.540557396
  O    2.044485941   0.257976049   0.003270394
  H    1.077165591   0.253917262  -0.004358153
  C    3.916588652  -1.125928396  -0.333647894
  H    4.191425357  -2.140948050  -0.588274120
  H    4.329191877  -0.430471283  -1.059125962
  H    4.317574678  -0.859947617   0.640356741
  F   -0.762388116  -0.886356636  -0.304078952
  F   -1.989190288  -0.222648717  -0.144111450

5.18_0.95_aceticacid--F2.wfx


