%nprocs=4
%mem=2GB
#p hf aug-cc-pvdz output=wfx scf=(conver=6) int=(grid=ultrafine)

title

0 1
  C    0.117051709   1.274442082   0.000000000
  O    1.166609596   0.677312967   0.000000000
  O   -1.076602854   0.660704137   0.000000000
  H   -0.934016426  -0.304069627   0.000000000
  C   -0.022726243   2.770613513   0.000000000
  H    0.958583891   3.231480425   0.000000000
  H   -0.585458259   3.087729203  -0.876949085
  H   -0.585458259   3.087729203   0.876949085
  H    0.809308419  -3.180450558  -0.894521766
  H    1.329977441  -1.713206274   0.000000000
  H    0.809308419  -3.180450558   0.894521766
  C    0.673826885  -2.578143488   0.000000000
  F   -0.656572350  -2.107610108   0.000000000

5.19_1.00_aceticacid--methylfluoride.wfx


