%nprocs=4
%mem=2GB
#p hf aug-cc-pvdz output=wfx scf=(conver=6) int=(grid=ultrafine)

title

0 1
  O   -0.803544382   1.332223447  -1.496330359
  H   -0.649021950   0.892695201  -0.657948265
  C   -0.186524404   0.575912051  -2.528542508
  H   -0.385830120   1.095618354  -3.462630606
  H    0.896677037   0.506846147  -2.395771105
  H   -0.598960451  -0.434302933  -2.600469321

5.22_mon1_methanol--F2.wfx


