%nprocs=4
%mem=2GB
#p hf aug-cc-pvdz output=wfx scf=(conver=6) int=(grid=ultrafine)

title

0 1
  F    0.128851854  -1.018498534   0.576908898
  F    1.499286181  -0.924547991   0.324842220

5.22_mon2_methanol--F2.wfx


