%nprocs=4
%mem=2GB
#p hf aug-cc-pvdz output=wfx scf=(conver=6) int=(grid=ultrafine)

title

0 1
  H    0.772317992   0.289446267   0.424270171
  H    2.154945825   0.503297034  -0.922890803
  S    1.244355420   1.292062670  -0.333928762
  H   -2.186443206  -1.228491926  -0.745722597
  H   -2.608924926  -2.951752898  -0.519038649
  H   -3.516396440  -1.686811622   0.358639184
  C   -2.546848350  -1.975809540  -0.041862261
  F   -1.639428084  -2.059172926   1.016350657

5.28_1.50_sulfane--methylfluoride.wfx


