%nprocs=4
%mem=2GB
#p hf aug-cc-pvdz output=wfx scf=(conver=6) int=(grid=ultrafine)

title

0 1
  H   -0.125894687   1.650952610   0.000000000
  F    0.218483751   2.513324458   0.000000000
  P    0.293601607  -1.413596590   0.000000000
  H   -0.408262024  -2.106999839  -1.022721997
  H   -0.408262024  -2.106999839   1.022721997
  F   -0.647159416  -0.072724218   0.000000000

5.29_1.00_F2--phosphine.wfx


