%nprocs=4
%mem=2GB
#p hf aug-cc-pvdz output=wfx scf=(conver=6) int=(grid=ultrafine)

title

0 1
  H   -0.082052577  -0.045767382  -0.478725397
  F    0.112777497  -0.025380444  -1.387103121
  H    0.663941712   0.265272826   1.440005977
  F   -0.133993246   0.004411335   1.051706107

5.30_0.85_hydrogenfluoride--hydrogenfluoride.wfx


