%nprocs=4
%mem=2GB
#p hf aug-cc-pvdz output=wfx scf=(conver=6) int=(grid=ultrafine)

title

0 1
  H    0.654775712   0.274127894   1.710082125
  F   -0.143159246   0.013266403   1.321782255

5.30_mon2_hydrogenfluoride--hydrogenfluoride.wfx


