%nprocs=4
%mem=2GB
#p hf aug-cc-pvdz output=wfx scf=(conver=6) int=(grid=ultrafine)

title

0 1
  H   -0.082052577  -0.045767382  -0.478725397
  F    0.112777497  -0.025380444  -1.387103121
  H    0.593669043   0.333161679   3.510589777
  F   -0.204265915   0.072300188   3.122289907

5.30_2.00_hydrogenfluoride--hydrogenfluoride.wfx


