%nprocs=4
%mem=2GB
#p hf aug-cc-pvdz output=wfx scf=(conver=6) int=(grid=ultrafine)

title

0 1
  H   -0.506811470  -2.118351948   0.895479757
  H   -1.413517143  -0.860485482   0.000000000
  H   -0.506811470  -2.118351948  -0.895479757
  C   -0.537917269  -1.504094076   0.000000000
  F    0.608098276  -0.684925684   0.000000000

5.31_mon2_hydrogenfluoride--methylfluoride.wfx


