%nprocs=4
%mem=2GB
#p hf aug-cc-pvdz output=wfx scf=(conver=6) int=(grid=ultrafine)

title

0 1
  H    0.877639885   0.253766380  -0.699482539
  F    0.421979799   0.851309102  -1.242840685
  P    0.332282532  -0.977977913   1.688507902
  F    0.880170389   0.225708575   2.569760587
  F    1.214801380  -0.724219770   0.356285069
  H   -0.817921084  -0.288581920   1.198832889

5.32_0.80_hydrogenfluoride--phosphineF2.wfx


