%nprocs=4
%mem=2GB
#p hf aug-cc-pvdz output=wfx scf=(conver=6) int=(grid=ultrafine)

title

0 1
  H    0.146501661   0.397704458  -2.286260823
  F    0.621680349   0.612576639  -3.048278943
  C   -0.086587411  -0.117252742   0.606513285
  F   -0.682471763   0.005815785  -0.589745742
  F   -0.580804020  -1.175085420   1.222153287
  F   -0.322648501   0.970543485   1.316227780
  F    1.213242654  -0.265356535   0.424272030

5.33_0.95_hydrogenfluoride--tetraFmethane.wfx


