%nprocs=4
%mem=2GB
#p hf aug-cc-pvdz output=wfx scf=(conver=6) int=(grid=ultrafine)

title

0 1
  H   -0.176353781  -0.044371204   0.055481540
 Cl    0.093460166  -0.038977817  -1.202312446
  H    0.614801616   0.280293406   2.157564088
  F   -0.192316968   0.042993117   1.775895730

5.34_0.85_hydrogenchloride--hydrogenfluoride.wfx


