%nprocs=4
%mem=2GB
#p hf aug-cc-pvdz output=wfx scf=(conver=6) int=(grid=ultrafine)

title

0 1
  H   -0.176353781  -0.044371204   0.055481540
 Cl    0.093460166  -0.038977817  -1.202312446
  H    0.593204363   0.398492193   4.485183286
  F   -0.213914221   0.161191904   4.103514928

5.34_2.00_hydrogenchloride--hydrogenfluoride.wfx


