%nprocs=4
%mem=2GB
#p hf aug-cc-pvdz output=wfx scf=(conver=6) int=(grid=ultrafine)

title

0 1
  H   -0.176353781  -0.044371204   0.055481540
 Cl    0.093460166  -0.038977817  -1.202312446
  H    0.613862605   0.285432484   2.258764923
  F   -0.193255979   0.048132195   1.877096565

5.34_0.90_hydrogenchloride--hydrogenfluoride.wfx


