%nprocs=4
%mem=2GB
#p hf aug-cc-pvdz output=wfx scf=(conver=6) int=(grid=ultrafine)

title

0 1
  H   -0.176353781  -0.044371204   0.055481540
 Cl    0.093460166  -0.038977817  -1.202312446
  H    0.611984583   0.295710639   2.461166592
  F   -0.195134001   0.058410350   2.079498234

5.34_1.00_hydrogenchloride--hydrogenfluoride.wfx


