%nprocs=4
%mem=2GB
#p hf aug-cc-pvdz output=wfx scf=(conver=6) int=(grid=ultrafine)

title

0 1
  H   -0.176353781  -0.044371204   0.055481540
 Cl    0.093460166  -0.038977817  -1.202312446
  H    0.610106561   0.305988794   2.663568261
  F   -0.197012023   0.068688505   2.281899903

5.34_1.10_hydrogenchloride--hydrogenfluoride.wfx


