%nprocs=4
%mem=2GB
#p hf aug-cc-pvdz output=wfx scf=(conver=6) int=(grid=ultrafine)

title

0 1
  H    0.899741532   1.996983088   0.000000000
 Cl   -0.020205803   2.887946808   0.000000000
  C   -0.039990049  -0.805888016   0.000000000
  F    1.080535829  -0.083082681   0.000000000
  F   -0.744000760  -0.518726439  -1.082147125
  F   -0.744000760  -0.518726439   1.082147125
  F    0.274414877  -2.091854771   0.000000000

5.36_0.85_hydrogenchloride--tetraFmethane.wfx


