%nprocs=4
%mem=2GB
#p hf aug-cc-pvdz output=wfx scf=(conver=6) int=(grid=ultrafine)

title

0 1
  H    0.899741532   1.996983088   0.000000000
 Cl   -0.020205803   2.887946808   0.000000000
  C    0.045089620  -1.784742496   0.000000000
  F    1.165615498  -1.061937161   0.000000000
  F   -0.658921091  -1.497580919  -1.082147125
  F   -0.658921091  -1.497580919   1.082147125
  F    0.359494546  -3.070709251   0.000000000

5.36_1.25_hydrogenchloride--tetraFmethane.wfx


