%nprocs=4
%mem=2GB
#p hf aug-cc-pvdz output=wfx scf=(conver=6) int=(grid=ultrafine)

title

0 1
  H    0.899741532   1.996983088   0.000000000
 Cl   -0.020205803   2.887946808   0.000000000
  C    0.098264414  -2.396526546   0.000000000
  F    1.218790292  -1.673721210   0.000000000
  F   -0.605746298  -2.109364968  -1.082147125
  F   -0.605746298  -2.109364968   1.082147125
  F    0.412669340  -3.682493300   0.000000000

5.36_1.50_hydrogenchloride--tetraFmethane.wfx


