%nprocs=4
%mem=2GB
#p hf aug-cc-pvdz output=wfx scf=(conver=6) int=(grid=ultrafine)

title

0 1
  H   -0.262410292  -0.031032367   0.675994838
 Br    0.055754988  -0.019611785  -0.716815364
  H    0.578898995   0.304055086   3.661065307
  F   -0.244652241   0.093133544   3.300229233

5.37_1.25_hydrogenbromide--hydrogenfluoride.wfx


