%nprocs=4
%mem=2GB
#p hf aug-cc-pvdz output=wfx scf=(conver=6) int=(grid=ultrafine)

title

0 1
  H   -0.262410292  -0.031032367   0.675994838
 Br    0.055754988  -0.019611785  -0.716815364
  H    0.574637063   0.274255268   3.031249052
  F   -0.248914173   0.063333726   2.670412978

5.37_0.95_hydrogenbromide--hydrogenfluoride.wfx


