%nprocs=4
%mem=2GB
#p hf aug-cc-pvdz output=wfx scf=(conver=6) int=(grid=ultrafine)

title

0 1
  H   -0.262410292  -0.031032367   0.675994838
 Br    0.055754988  -0.019611785  -0.716815364
  H    0.576768029   0.289155177   3.346157180
  F   -0.246783207   0.078233635   2.985321106

5.37_1.10_hydrogenbromide--hydrogenfluoride.wfx


