%nprocs=4
%mem=2GB
#p hf aug-cc-pvdz output=wfx scf=(conver=6) int=(grid=ultrafine)

title

0 1
  H    0.575347385   0.279221904   3.136218428
  F   -0.248203851   0.068300362   2.775382354

5.37_mon2_hydrogenbromide--hydrogenfluoride.wfx


