%nprocs=4
%mem=2GB
#p hf aug-cc-pvdz output=wfx scf=(conver=6) int=(grid=ultrafine)

title

0 1
  H    0.056611427  -0.063269451  -0.898869585
  I    0.180449043  -0.243966834  -2.497001253
  F   -0.273235416   0.238868521   1.615503869
  F    0.789154424  -0.564874900   2.034773646

5.39_1.00_hydrogeniodide--F2.wfx


