%nprocs=4
%mem=2GB
#p hf aug-cc-pvdz output=wfx scf=(conver=6) int=(grid=ultrafine)

title

0 1
  H    0.857473060   0.223515629   1.603088780
  F   -0.034407383   0.131506253   1.383648076

5.40_mon2_hydrogeniodide--hydrogenfluoride.wfx


