%nprocs=4
%mem=2GB
#p hf aug-cc-pvdz output=wfx scf=(conver=6) int=(grid=ultrafine)

title

0 1
  H   -0.201340452  -0.015288357  -0.867920736
  I    0.292571396  -0.069479531  -2.405652362
  H    0.832433100   0.201496438   1.265353458
  F   -0.059447343   0.109487062   1.045912754

5.40_0.85_hydrogeniodide--hydrogenfluoride.wfx


