%nprocs=4
%mem=2GB
#p hf aug-cc-pvdz output=wfx scf=(conver=6) int=(grid=ultrafine)

title

0 1
  H   -0.650095310   0.658648843   0.000000000
  I    0.014334529  -0.816331458   0.000000000

5.41_mon1_hydrogeniodide--methylfluoride.wfx


