%nprocs=4
%mem=2GB
#p hf aug-cc-pvdz output=wfx scf=(conver=6) int=(grid=ultrafine)

title

0 1
  H   -0.650095310   0.658648843   0.000000000
  I    0.014334529  -0.816331458   0.000000000
  H    1.346134021   2.426539952   0.000000000
  H    0.818086340   3.881573021  -0.894222833
  H    0.818086340   3.881573021   0.894222833
  C    0.671177523   3.280028823   0.000000000
  F   -0.643407083   2.805632811   0.000000000

5.41_1.00_hydrogeniodide--methylfluoride.wfx


