%nprocs=4
%mem=2GB
#p hf aug-cc-pvdz output=wfx scf=(conver=6) int=(grid=ultrafine)

title

0 1
  H   -0.650095310   0.658648843   0.000000000
  I    0.014334529  -0.816331458   0.000000000
  H    1.347806078   2.963285944   0.000000000
  H    0.819758397   4.418319013  -0.894222833
  H    0.819758397   4.418319013   0.894222833
  C    0.672849580   3.816774815   0.000000000
  F   -0.641735026   3.342378803   0.000000000

5.41_1.25_hydrogeniodide--methylfluoride.wfx


