%nprocs=4
%mem=2GB
#p hf aug-cc-pvdz output=wfx scf=(conver=6) int=(grid=ultrafine)

title

0 1
  C    2.781418243  -0.608550324  -0.534769490
  H    2.005196997  -1.321134149  -0.666124262
  C    3.650641240   0.199478900  -0.390357533
  H    4.421813727   0.916509176  -0.259273507
 Cl   -0.306203388  -1.419134902  -1.455649553
  S   -0.278073794   0.599769693  -0.877243227
  S   -0.961714882   0.734076941   0.938768110
 Cl    0.608936308   0.417849403   2.276968307

6.03_0.85_ethyne--S2Cl2.wfx


