%nprocs=4
%mem=2GB
#p hf aug-cc-pvdz output=wfx scf=(conver=6) int=(grid=ultrafine)

title

0 1
 Cl   -0.371983312   1.017026717   0.000000000
 Cl    0.226442855   2.963352685   0.000000000

6.05_mon2_aceticacid--Cl2.wfx


