%nprocs=4
%mem=2GB
#p hf aug-cc-pvdz output=wfx scf=(conver=6) int=(grid=ultrafine)

title

0 1
  C    3.345318533  -0.477864024   0.226244029
  O    3.075291494  -0.477504808   1.398749772
  O    2.423754936  -0.250489768  -0.736249410
  H    1.572310567  -0.102646735  -0.297643536
  C    4.706409732  -0.722924315  -0.359546503
  H    5.421707255  -0.892699648   0.437197577
  H    4.671973726  -1.586976573  -1.021798735
  H    5.009898492   0.133580003  -0.959898544
  P   -2.046294704   0.711059000   0.320477451
 Cl   -0.418402298   0.141774735   1.468775981
 Cl   -1.080566401   1.224447122  -1.438241191
 Cl   -2.815823769  -1.135189673  -0.191742221

6.08_1.05_aceticacid--PCl3.wfx


