%nprocs=4
%mem=2GB
#p hf aug-cc-pvdz output=wfx scf=(conver=6) int=(grid=ultrafine)

title

0 1
  P    0.826529090  -0.433556379   1.053667129
 Cl   -1.016343487   0.445433286   1.423666313
 Cl    0.255107707  -2.033750973  -0.118755736
 Cl    1.565927464   0.854278174  -0.384882188

6.11_mon2_methanol--PCl3.wfx


