%nprocs=4
%mem=2GB
#p hf aug-cc-pvdz output=wfx scf=(conver=6) int=(grid=ultrafine)

title

0 1
  O   -1.656641508   1.873570781  -1.792895933
  H   -1.206915583   1.844990107  -0.945419952
  C   -1.726449657   0.553383824  -2.310382491
  H   -2.265366327   0.611005944  -3.253136248
  H   -0.734695681   0.135270441  -2.501405712
  H   -2.266988365  -0.121412047  -1.641332007
  P    0.921815138  -1.133334790   2.238210262
 Cl   -0.921057439  -0.254345124   2.608209446
 Cl    0.350393755  -2.733529384   1.065787396
 Cl    1.661213512   0.154499764   0.799660944

6.11_1.50_methanol--PCl3.wfx


