%nprocs=4
%mem=2GB
#p hf aug-cc-pvdz output=wfx scf=(conver=6) int=(grid=ultrafine)

title

0 1
  O   -0.957936578  -1.600403085  -1.455027213
  H   -0.158325201  -1.361622737  -0.972333763
  H   -1.029392041  -2.553813037  -1.372805313

6.12_mon1_water--methylchloride.wfx


