%nprocs=4
%mem=2GB
#p hf aug-cc-pvdz output=wfx scf=(conver=6) int=(grid=ultrafine)

title

0 1
  O   -0.957936578  -1.600403085  -1.455027213
  H   -0.158325201  -1.361622737  -0.972333763
  H   -1.029392041  -2.553813037  -1.372805313
  H   -0.599813574   2.092876573  -0.131274512
  H   -1.428610076   0.509237215  -0.142988044
  H   -1.136190060   1.358803664   1.404467667
  C   -0.763892942   1.166050169   0.405345872
 Cl    0.825741051   0.330576219   0.561451833

6.12_1.00_water--methylchloride.wfx


