%nprocs=4
%mem=2GB
#p hf aug-cc-pvdz output=wfx scf=(conver=6) int=(grid=ultrafine)

title

0 1
  O   -0.957936578  -1.600403085  -1.455027213
  H   -0.158325201  -1.361622737  -0.972333763
  H   -1.029392041  -2.553813037  -1.372805313
  H   -0.649016887   2.008266625  -0.207963792
  H   -1.477813389   0.424627267  -0.219677324
  H   -1.185393373   1.274193716   1.327778387
  C   -0.813096255   1.081440221   0.328656592
 Cl    0.776537738   0.245966271   0.484762553

6.12_0.95_water--methylchloride.wfx


