%nprocs=4
%mem=2GB
#p hf aug-cc-pvdz output=wfx scf=(conver=6) int=(grid=ultrafine)

title

0 1
  H   -0.599813574   2.092876573  -0.131274512
  H   -1.428610076   0.509237215  -0.142988044
  H   -1.136190060   1.358803664   1.404467667
  C   -0.763892942   1.166050169   0.405345872
 Cl    0.825741051   0.330576219   0.561451833

6.12_mon2_water--methylchloride.wfx


