%nprocs=4
%mem=2GB
#p hf aug-cc-pvdz output=wfx scf=(conver=6) int=(grid=ultrafine)

title

0 1
  O   -0.179065184  -3.016945644   0.000000000
  H    0.042387182  -2.470831377   0.758723103
  H    0.042387182  -2.470831377  -0.758723103
  P    0.061874574   0.988070190   0.000000000
 Cl   -1.870423818   0.279440640   0.000000000
 Cl    0.859751457  -0.073594158   1.594095765
 Cl    0.859751457  -0.073594158  -1.594095765

6.13_0.95_water--PCl3.wfx


