%nprocs=4
%mem=2GB
#p hf aug-cc-pvdz output=wfx scf=(conver=6) int=(grid=ultrafine)

title

0 1
  O   -0.179065184  -3.016945644   0.000000000
  H    0.042387182  -2.470831377   0.758723103
  H    0.042387182  -2.470831377  -0.758723103
  P    1.010757240   3.771036014   0.000000000
 Cl   -0.921541152   3.062406464   0.000000000
 Cl    1.808634123   2.709371666   1.594095765
 Cl    1.808634123   2.709371666  -1.594095765

6.13_2.00_water--PCl3.wfx


