%nprocs=4
%mem=2GB
#p hf aug-cc-pvdz output=wfx scf=(conver=6) int=(grid=ultrafine)

title

0 1
  H    1.134943156   0.464255462  -0.467961851
  H    2.134375891   1.451346819   0.870753575
  S    1.441289529   1.751931610  -0.237291113
  H   -1.660549195  -0.412660386   1.655865459
  H   -0.919005529   0.905376564   0.704840204
  H   -2.361828346   0.055313636   0.084113540
  C   -1.449117262  -0.039379057   0.660664038
 Cl   -0.388065531  -1.231473721  -0.167605457

6.15_0.85_sulfane--methylchloride.wfx


