%nprocs=4
%mem=2GB
#p hf aug-cc-pvdz output=wfx scf=(conver=6) int=(grid=ultrafine)

title

0 1
  H    1.134943156   0.464255462  -0.467961851
  H    2.134375891   1.451346819   0.870753575
  S    1.441289529   1.751931610  -0.237291113
  H   -3.721090360  -2.706882221   2.062229993
  H   -2.979546694  -1.388845271   1.111204738
  H   -4.422369511  -2.238908199   0.490478074
  C   -3.509658427  -2.333600892   1.067028572
 Cl   -2.448606696  -3.525695556   0.238759077

6.15_2.00_sulfane--methylchloride.wfx


