%nprocs=4
%mem=2GB
#p hf aug-cc-pvdz output=wfx scf=(conver=6) int=(grid=ultrafine)

title

0 1
  H   -0.166740982  -0.172124732  -1.140544944
  F   -0.197387145  -0.132497381  -2.067892576
  H    0.743283528   1.160513914   1.123957512
 Cl    0.103881301   0.054607070   1.240610035

6.16_1.05_hydrogenfluoride--hydrogenchloride.wfx


