%nprocs=4
%mem=2GB
#p hf aug-cc-pvdz output=wfx scf=(conver=6) int=(grid=ultrafine)

title

0 1
  H   -0.166740982  -0.172124732  -1.140544944
  F   -0.197387145  -0.132497381  -2.067892576
  H    0.730396753   1.149717161   1.010569180
 Cl    0.090994526   0.043810318   1.127221703

6.16_1.00_hydrogenfluoride--hydrogenchloride.wfx


