%nprocs=4
%mem=2GB
#p hf aug-cc-pvdz output=wfx scf=(conver=6) int=(grid=ultrafine)

title

0 1
  H   -0.166740982  -0.172124732  -1.140544944
  F   -0.197387145  -0.132497381  -2.067892576
  H    0.794830630   1.203700924   1.577510842
 Cl    0.155428403   0.097794080   1.694163365

6.16_1.25_hydrogenfluoride--hydrogenchloride.wfx


