%nprocs=4
%mem=2GB
#p hf aug-cc-pvdz output=wfx scf=(conver=6) int=(grid=ultrafine)

title

0 1
  H   -0.315728734  -1.389828455   0.000000000
  F    0.099208777  -2.225581814   0.000000000
  H    1.374399497   2.169819226   0.893333170
  H    1.614768536   0.641186096   0.000000000
  H    1.374399497   2.169819226  -0.893333170
  C    1.128031966   1.609058881   0.000000000
 Cl   -0.654531395   1.331611321   0.000000000

6.17_1.25_hydrogenfluoride--methylchloride.wfx


