%nprocs=4
%mem=2GB
#p hf aug-cc-pvdz output=wfx scf=(conver=6) int=(grid=ultrafine)

title

0 1
  H   -0.315728734  -1.389828455   0.000000000
  F    0.099208777  -2.225581814   0.000000000
  H    1.469264242   1.407816089   0.893333170
  H    1.709633281  -0.120817041   0.000000000
  H    1.469264242   1.407816089  -0.893333170
  C    1.222896711   0.847055744   0.000000000
 Cl   -0.559666650   0.569608184   0.000000000

6.17_0.90_hydrogenfluoride--methylchloride.wfx


