%nprocs=4
%mem=2GB
#p hf aug-cc-pvdz output=wfx scf=(conver=6) int=(grid=ultrafine)

title

0 1
  H   -0.315728734  -1.389828455   0.000000000
  F    0.099208777  -2.225581814   0.000000000
  H    1.171117900   3.802683092   0.893333170
  H    1.411486939   2.274049962   0.000000000
  H    1.171117900   3.802683092  -0.893333170
  C    0.924750369   3.241922747   0.000000000
 Cl   -0.857812992   2.964475187   0.000000000

6.17_2.00_hydrogenfluoride--methylchloride.wfx


