%nprocs=4
%mem=2GB
#p hf aug-cc-pvdz output=wfx scf=(conver=6) int=(grid=ultrafine)

title

0 1
  H    0.228834519   0.370628924   0.003365949
  F    0.368539278   0.917583230  -0.732497130
  P    0.556128434  -0.901318612   5.273678094
 Cl   -0.335585769  -2.165068888   3.858422339
 Cl    2.354424871  -0.528877051   4.347505529
 Cl   -0.455368200   0.847825913   4.888751274

6.18_2.00_hydrogenfluoride--PCl3.wfx


