%nprocs=4
%mem=2GB
#p hf aug-cc-pvdz output=wfx scf=(conver=6) int=(grid=ultrafine)

title

0 1
  H    0.037976592  -0.108553810  -2.459197615
  F    0.828250667  -0.039555693  -2.943394038
 Cl   -1.406697459  -0.115605373  -1.365307880
  S   -0.472794065   1.009738813   0.171267912
  S    0.456824638  -0.216852245   1.357236122
 Cl    2.352990148  -0.577963519   0.590784127

6.19_0.80_hydrogenfluoride--S2Cl2.wfx


