%nprocs=4
%mem=2GB
#p hf aug-cc-pvdz output=wfx scf=(conver=6) int=(grid=ultrafine)

title

0 1
  H    0.037976592  -0.108553810  -2.459197615
  F    0.828250667  -0.039555693  -2.943394038
 Cl   -1.948450228  -0.118249709  -0.955099229
  S   -1.014546834   1.007094477   0.581476563
  S   -0.084928131  -0.219496581   1.767444773
 Cl    1.811237379  -0.580607855   1.000992778

6.19_1.10_hydrogenfluoride--S2Cl2.wfx


