%nprocs=4
%mem=2GB
#p hf aug-cc-pvdz output=wfx scf=(conver=6) int=(grid=ultrafine)

title

0 1
  H    0.037976592  -0.108553810  -2.459197615
  F    0.828250667  -0.039555693  -2.943394038
 Cl   -1.858158100  -0.117808987  -1.023467338
  S   -0.924254706   1.007535199   0.513108454
  S    0.005363997  -0.219055859   1.699076664
 Cl    1.901529507  -0.580167133   0.932624669

6.19_1.05_hydrogenfluoride--S2Cl2.wfx


