%nprocs=4
%mem=2GB
#p hf aug-cc-pvdz output=wfx scf=(conver=6) int=(grid=ultrafine)

title

0 1
  H   -0.294645010   0.304121680  -1.386697288
 Cl   -0.000897415  -0.055640208  -2.583890276
 Cl   -0.818855192   0.980488758   2.316131238
 Cl    0.478771012  -0.482702148   2.776276904

6.20_1.50_hydrogenchloride--Cl2.wfx


