%nprocs=4
%mem=2GB
#p hf aug-cc-pvdz output=wfx scf=(conver=6) int=(grid=ultrafine)

title

0 1
  H   -0.110342394  -0.192657999  -0.611221571
 Cl   -0.167429507  -0.066833724  -1.890314160
  H    0.609790698   1.307729370   2.340083870
 Cl    0.221268764   0.093597824   2.475655879

6.21_1.25_hydrogenchloride--hydrogenchloride.wfx


