%nprocs=4
%mem=2GB
#p hf aug-cc-pvdz output=wfx scf=(conver=6) int=(grid=ultrafine)

title

0 1
  H   -0.110342394  -0.192657999  -0.611221571
 Cl   -0.167429507  -0.066833724  -1.890314160
  H    0.543468466   1.250478206   1.722708380
 Cl    0.154946532   0.036346659   1.858280389

6.21_1.00_hydrogenchloride--hydrogenchloride.wfx


