%nprocs=4
%mem=2GB
#p hf aug-cc-pvdz output=wfx scf=(conver=6) int=(grid=ultrafine)

title

0 1
  H   -0.110342394  -0.192657999  -0.611221571
 Cl   -0.167429507  -0.066833724  -1.890314160
  H    0.530204020   1.239027973   1.599233282
 Cl    0.141682086   0.024896426   1.734805291

6.21_0.95_hydrogenchloride--hydrogenchloride.wfx


