%nprocs=4
%mem=2GB
#p hf aug-cc-pvdz output=wfx scf=(conver=6) int=(grid=ultrafine)

title

0 1
  H   -0.110342394  -0.192657999  -0.611221571
 Cl   -0.167429507  -0.066833724  -1.890314160
  H    0.490410681   1.204677274   1.228807988
 Cl    0.101888747  -0.009454273   1.364379997

6.21_0.80_hydrogenchloride--hydrogenchloride.wfx


