%nprocs=4
%mem=2GB
#p hf aug-cc-pvdz output=wfx scf=(conver=6) int=(grid=ultrafine)

title

0 1
  H   -0.092966836  -0.971772838   0.278420076
 Cl    0.763202035  -1.756078545   0.845935265
  H   -0.613020758   4.650423851  -0.726490558
  H    0.310177157   3.131450447  -0.894772145
  H   -0.023047360   4.137225540  -2.331891758
  C   -0.392982976   3.806359682  -1.368939629
 Cl   -1.927920800   2.906872890  -1.645499526

6.22_2.00_hydrogenchloride--methylchloride.wfx


