%nprocs=4
%mem=2GB
#p hf aug-cc-pvdz output=wfx scf=(conver=6) int=(grid=ultrafine)

title

0 1
  H    0.186338801   0.360035766  -0.033235668
 Cl    0.535543709   1.044378509  -1.062251879
  P    0.276391197  -0.786365893   5.536297715
 Cl   -0.854354515  -2.035441796   4.306032270
 Cl    2.077366364  -0.814930758   4.535665090
 Cl   -0.456858480   1.053538185   4.967441623

6.23_2.00_hydrogenchloride--PCl3.wfx


