%nprocs=4
%mem=2GB
#p hf aug-cc-pvdz output=wfx scf=(conver=6) int=(grid=ultrafine)

title

0 1
  H    0.186338801   0.360035766  -0.033235668
 Cl    0.535543709   1.044378509  -1.062251879

6.23_mon1_hydrogenchloride--PCl3.wfx


