%nprocs=4
%mem=2GB
#p hf aug-cc-pvdz output=wfx scf=(conver=6) int=(grid=ultrafine)

title

0 1
  H   -0.519803633  -0.110834186   0.000000000
 Br    0.006830518  -1.446762766   0.000000000
  H    1.556834195   2.731423328  -0.892805366
  H    1.556834195   2.731423328   0.892805366
  H    1.607345268   1.186286384   0.000000000
  C    1.239689059   2.206071961   0.000000000
 Cl   -0.558965036   2.149524033   0.000000000

6.26_0.95_hydrogenbromide--methylchloride.wfx


