%nprocs=4
%mem=2GB
#p hf aug-cc-pvdz output=wfx scf=(conver=6) int=(grid=ultrafine)

title

0 1
  H    0.201908319   0.238908418  -0.034579667
 Br    0.424126629   1.040088567  -1.193997794
  P    0.875897482   0.536575671   3.253806887
 Cl   -0.044008324  -0.939525351   2.106445314
 Cl    2.627780517   0.789584933   2.197006642
 Cl   -0.188118988   2.194628219   2.646389793

6.27_0.95_hydrogenbromide--PCl3.wfx


