%nprocs=4
%mem=2GB
#p hf aug-cc-pvdz output=wfx scf=(conver=6) int=(grid=ultrafine)

title

0 1
  H   -0.121256969   0.081730430  -0.701405515
  I    0.507580931  -0.524354363  -2.059356758
 Cl   -0.490848579   0.551379434   2.225286829
 Cl    0.990527215  -0.783374378   2.464081096

6.29_1.10_hydrogeniodide--Cl2.wfx


