%nprocs=4
%mem=2GB
#p hf aug-cc-pvdz output=wfx scf=(conver=6) int=(grid=ultrafine)

title

0 1
  H   -0.702521814   0.041860819  -0.493308322
  I   -0.187423614   0.613641067   0.935060773
  H    1.002196035  -1.933792893  -1.038457523
  H    0.433824582  -3.416265605  -1.853225346
  H    1.507094900  -2.279608824  -2.714859797
  C    0.712795634  -2.377577054  -1.984500705
 Cl   -0.723197621  -1.489645238  -2.601931280

6.30_1.05_hydrogeniodide--methylchloride.wfx


