%nprocs=4
%mem=2GB
#p hf aug-cc-pvdz output=wfx scf=(conver=6) int=(grid=ultrafine)

title

0 1
  H   -0.702521814   0.041860819  -0.493308322
  I   -0.187423614   0.613641067   0.935060773

6.30_mon1_hydrogeniodide--methylchloride.wfx


