%nprocs=4
%mem=2GB
#p hf aug-cc-pvdz output=wfx scf=(conver=6) int=(grid=ultrafine)

title

0 1
  H   -0.702521814   0.041860819  -0.493308322
  I   -0.187423614   0.613641067   0.935060773
  H    1.004165159  -1.787935173  -0.837636289
  H    0.435793706  -3.270407885  -1.652404112
  H    1.509064024  -2.133751104  -2.514038563
  C    0.714764758  -2.231719334  -1.783679471
 Cl   -0.721228497  -1.343787518  -2.401110046

6.30_0.95_hydrogeniodide--methylchloride.wfx


