%nprocs=4
%mem=2GB
#p hf aug-cc-pvdz output=wfx scf=(conver=6) int=(grid=ultrafine)

title

0 1
  H    0.996301487   0.764677659  -0.139294810
  I   -0.079872838   0.620024382  -1.333149446
  P    2.318562155   0.722753254   5.647673745
 Cl    1.595857601  -1.003219300   4.778117758
 Cl    3.930256117   1.128308327   4.398352342
 Cl    0.952618447   2.106886154   4.958107990

6.31_2.00_hydrogeniodide--PCl3.wfx


