%nprocs=4
%mem=2GB
#p hf aug-cc-pvdz output=wfx scf=(conver=6) int=(grid=ultrafine)

title

0 1
  H    0.996301487   0.764677659  -0.139294810
  I   -0.079872838   0.620024382  -1.333149446

6.31_mon1_hydrogeniodide--PCl3.wfx


