%nprocs=4
%mem=2GB
#p hf aug-cc-pvdz output=wfx scf=(conver=6) int=(grid=ultrafine)

title

0 1
  H   -0.815721793  -2.788414569   0.000000000
 Br    0.017670185  -1.629727877   0.000000000

7.03_mon2_aceticacid--hydrogenbromide.wfx


