%nprocs=4
%mem=2GB
#p hf aug-cc-pvdz output=wfx scf=(conver=6) int=(grid=ultrafine)

title

0 1
  C   -0.006511951  -2.513439389   0.000000000
  O   -1.109945102  -2.031621773   0.000000000
  O    1.117964036  -1.767567331   0.000000000
  H    0.849063590  -0.831711953   0.000000000
  C    0.302483743  -3.984101864   0.000000000
  H   -0.621231650  -4.551723597   0.000000000
  H    0.896679832  -4.236211993  -0.877324914
  H    0.896679832  -4.236211993   0.877324914
  H    1.783665830   2.440537135  -0.894033628
  H    0.611149468   3.449417768   0.000000000
  H    1.783665830   2.440537135   0.894033628
  C    1.179881541   2.528422830   0.000000000
 Br   -0.104830647   1.049021083   0.000000000

7.04_0.85_aceticacid--methylbromide.wfx


