%nprocs=4
%mem=2GB
#p hf aug-cc-pvdz output=wfx scf=(conver=6) int=(grid=ultrafine)

title

0 1
  O   -0.240701088   1.999524425  -1.453316336
  H   -0.749410811   1.398189354  -0.900205020
  C    0.041786954   1.342830009  -2.680926899
  H    0.664870094   2.014850194  -3.266432542
  H    0.585166578   0.406156399  -2.527311245
  H   -0.867739438   1.129788836  -3.248683900
  H    1.377927005   1.274156514  -0.014996125
  H    1.557330757   0.718207613   1.680260559
  H    2.195673724  -0.283534793   0.343668390
  C    1.431123640   0.419510836   0.647776962
 Br   -0.295987616  -0.506354274   0.517511595

7.05_0.90_methanol--methylbromide.wfx


