%nprocs=4
%mem=2GB
#p hf aug-cc-pvdz output=wfx scf=(conver=6) int=(grid=ultrafine)

title

0 1
  O   -0.240701088   1.999524425  -1.453316336
  H   -0.749410811   1.398189354  -0.900205020
  C    0.041786954   1.342830009  -2.680926899
  H    0.664870094   2.014850194  -3.266432542
  H    0.585166578   0.406156399  -2.527311245
  H   -0.867739438   1.129788836  -3.248683900
  H    1.428307360   1.062540555   0.142527943
  H    1.607711112   0.506591654   1.837784627
  H    2.246054079  -0.495150752   0.501192458
  C    1.481503995   0.207894877   0.805301030
 Br   -0.245607261  -0.717970233   0.675035663

7.05_1.00_methanol--methylbromide.wfx


