%nprocs=4
%mem=2GB
#p hf aug-cc-pvdz output=wfx scf=(conver=6) int=(grid=ultrafine)

title

0 1
  H    1.028618147   3.006350474   0.686345587
  H    1.376185339   1.173090011   0.155366235
  S    1.769888972   1.988733910   1.148416968
  H   -0.214021217   0.563575724   1.793681870
  H   -1.851319504   0.092061581   1.240937366
  H   -0.695511859  -1.161164198   1.779421479
  C   -0.809879536  -0.196081503   1.303010391
 Br   -0.138562158  -0.365055584  -0.531274827

7.08_0.80_sulfane--methylbromide.wfx


