%nprocs=4
%mem=2GB
#p hf aug-cc-pvdz output=wfx scf=(conver=6) int=(grid=ultrafine)

title

0 1
  H   -0.211868903  -0.183170600  -1.755870419
  F   -0.260864790  -0.164601284  -2.683303353
  H    0.727666439   1.274204367   0.509254084
 Br    0.056212294   0.025692260   0.661884825

7.09_1.00_hydrogenfluoride--hydrogenbromide.wfx


