%nprocs=4
%mem=2GB
#p hf aug-cc-pvdz output=wfx scf=(conver=6) int=(grid=ultrafine)

title

0 1
  H   -0.211868903  -0.183170600  -1.755870419
  F   -0.260864790  -0.164601284  -2.683303353
  H    0.794686738   1.326420082   1.113692895
 Br    0.123232593   0.077907975   1.266323636

7.09_1.25_hydrogenfluoride--hydrogenbromide.wfx


