%nprocs=4
%mem=2GB
#p hf aug-cc-pvdz output=wfx scf=(conver=6) int=(grid=ultrafine)

title

0 1
  H   -0.211868903  -0.183170600  -1.755870419
  F   -0.260864790  -0.164601284  -2.683303353
  H    0.700858319   1.253318081   0.267478560
 Br    0.029404174   0.004805974   0.420109301

7.09_0.90_hydrogenfluoride--hydrogenbromide.wfx


