%nprocs=4
%mem=2GB
#p hf aug-cc-pvdz output=wfx scf=(conver=6) int=(grid=ultrafine)

title

0 1
  H   -1.405987910   1.118464233   0.000000000
 Br    0.016959265   1.199645312   0.000000000

7.11_mon2_hydrogenchloride--hydrogenbromide.wfx


