%nprocs=4
%mem=2GB
#p hf aug-cc-pvdz output=wfx scf=(conver=6) int=(grid=ultrafine)

title

0 1
  H   -0.178902705   0.017114144  -0.619110867
 Br   -0.130070359  -0.202176731  -2.032071101
  H    1.298024362  -0.532270138   1.483940616
 Br    0.071097543   0.179697874   1.620715610

7.13_0.85_hydrogenbromide--hydrogenbromide.wfx


