%nprocs=4
%mem=2GB
#p hf aug-cc-pvdz output=wfx scf=(conver=6) int=(grid=ultrafine)

title

0 1
  H    0.448422173   0.705873360   0.000000000
 Br    0.018048804   2.077839545   0.000000000
  H   -1.830722377  -0.361855887   0.000000000
  H   -2.020436382  -1.900224214  -0.894873069
  H   -2.020436382  -1.900224214   0.894873069
  C   -1.637771244  -1.427312101   0.000000000
 Br    0.308976895  -1.667946062   0.000000000

7.14_0.95_hydrogenbromide--methylbromide.wfx


