%nprocs=4
%mem=2GB
#p hf aug-cc-pvdz output=wfx scf=(conver=6) int=(grid=ultrafine)

title

0 1
  H   -0.054804993   0.036642779  -0.613597215
  I    0.545944631  -0.621738058  -1.961828405
 Br   -0.464364912   0.587112684   1.640147613
 Br    1.157974216  -1.011377627   2.032549611

7.15_0.85_hydrogeniodide--Br2.wfx


