%nprocs=4
%mem=2GB
#p hf aug-cc-pvdz output=wfx scf=(conver=6) int=(grid=ultrafine)

title

0 1
  H   -1.506584104   2.300489689   0.000000000
 Br   -0.129774012   2.667179798   0.000000000

7.16_mon2_hydrogeniodide--hydrogenbromide.wfx


