%nprocs=4
%mem=2GB
#p hf aug-cc-pvdz output=wfx scf=(conver=6) int=(grid=ultrafine)

title

0 1
  C    2.663045616   0.227510949  -0.731863166
  H    2.093230286   0.104836459   0.157573983
  C    3.284572696   0.365593487  -1.744345889
  H    3.844529683   0.488082556  -2.637569752
  H   -1.685137197  -0.833773564  -1.617904454
  H   -1.787559676   0.942280970  -1.438482188
  H   -0.190908712   0.151179848  -1.605439676
  C   -1.202802169   0.055141948  -1.232412674
 Br   -1.095599273  -0.135461817   0.715498258

7.33_1.10_ethyne--methylbromide.wfx


