%nprocs=4
%mem=2GB
#p hf aug-cc-pvdz output=wfx scf=(conver=6) int=(grid=ultrafine)

title

0 1
  C    2.663045616   0.227510949  -0.731863166
  H    2.093230286   0.104836459   0.157573983
  C    3.284572696   0.365593487  -1.744345889
  H    3.844529683   0.488082556  -2.637569752

7.33_mon1_ethyne--methylbromide.wfx


