%nprocs=4
%mem=2GB
#p hf aug-cc-pvdz output=wfx scf=(conver=6) int=(grid=ultrafine)

title

0 1
  I    0.605427307  -0.977341105   0.399236060
  I   -0.919633255   0.997001464  -0.601380893

8.01_mon2_ethyne--I2.wfx


