%nprocs=4
%mem=2GB
#p hf aug-cc-pvdz output=wfx scf=(conver=6) int=(grid=ultrafine)

title

0 1
  I   -1.077331952  -1.219312037  -0.645361433
  I   -3.678187764  -0.428914180  -0.581014627

8.02_mon2_aceticacid--I2.wfx


