%nprocs=4
%mem=2GB
#p hf aug-cc-pvdz output=wfx scf=(conver=6) int=(grid=ultrafine)

title

0 1
  O   -0.911617218  -0.140255114  -0.402986320
  H   -0.020341759   0.227103403  -0.409711049
  H   -0.793861892  -1.082373528  -0.261385658
  H   -0.660177580   2.195332787   2.309237474
  H   -1.049029060   3.101363711   0.815226858
  H   -1.274774795   1.321721261   0.864809239
  C   -0.700872971   2.164104026   1.228525418
  I    1.320853144   1.877291651   0.527704178

8.07_0.80_water--methyliodide.wfx


