%nprocs=4
%mem=2GB
#p hf aug-cc-pvdz output=wfx scf=(conver=6) int=(grid=ultrafine)

title

0 1
  H    0.074202185   0.025904311  -0.630747507
  F    0.250671682  -0.046737067  -1.540202382
  H    1.343438093   0.363145560   1.725005276
  I   -0.239761976   0.197077127   1.455303084

8.10_0.80_hydrogenfluoride--hydrogeniodide.wfx


