%nprocs=4
%mem=2GB
#p hf aug-cc-pvdz output=wfx scf=(conver=6) int=(grid=ultrafine)

title

0 1
  H    0.074202185   0.025904311  -0.630747507
  F    0.250671682  -0.046737067  -1.540202382
  H    1.166833253   0.459430269   2.898408734
  I   -0.416366816   0.293361836   2.628706542

8.10_1.25_hydrogenfluoride--hydrogeniodide.wfx


