%nprocs=4
%mem=2GB
#p hf aug-cc-pvdz output=wfx scf=(conver=6) int=(grid=ultrafine)

title

0 1
  H    0.074202185   0.025904311  -0.630747507
  F    0.250671682  -0.046737067  -1.540202382
  H    1.245324293   0.416637065   2.376896086
  I   -0.337875776   0.250568632   2.107193894

8.10_1.05_hydrogenfluoride--hydrogeniodide.wfx


