%nprocs=4
%mem=2GB
#p hf aug-cc-pvdz output=wfx scf=(conver=6) int=(grid=ultrafine)

title

0 1
  I   -0.804268270   0.829021671   2.903847651
  I    1.111378090  -0.879048251   2.101799816

8.11_mon2_hydrogenfluoride--I2.wfx


