%nprocs=4
%mem=2GB
#p hf aug-cc-pvdz output=wfx scf=(conver=6) int=(grid=ultrafine)

title

0 1
  H    0.527032512  -0.487824092  -0.450049282
  F    0.315571085  -0.346592732  -1.343391973
  I   -0.512095481   0.633409592   4.179772200
  I    1.403550879  -1.074660330   3.377724365

8.11_1.50_hydrogenfluoride--I2.wfx


