%nprocs=4
%mem=2GB
#p hf aug-cc-pvdz output=wfx scf=(conver=6) int=(grid=ultrafine)

title

0 1
  H    0.527032512  -0.487824092  -0.450049282
  F    0.315571085  -0.346592732  -1.343391973
  I   -0.775050991   0.809460463   3.031440106
  I    1.140595369  -0.898609459   2.229392271

8.11_1.05_hydrogenfluoride--I2.wfx


