%nprocs=4
%mem=2GB
#p hf aug-cc-pvdz output=wfx scf=(conver=6) int=(grid=ultrafine)

title

0 1
  I   -0.595939017   0.635145211   2.200801651
  I    1.387319654  -1.108390857   2.702987555

8.14_mon2_hydrogenchloride--I2.wfx


