%nprocs=4
%mem=2GB
#p hf aug-cc-pvdz output=wfx scf=(conver=6) int=(grid=ultrafine)

title

0 1
  H    0.022520196   0.264049533   0.142466592
 Cl   -0.507757895   1.073089818  -0.717554321
  H   -0.722732528   0.846633162   3.512499056
  H   -1.290019090  -0.168741321   4.874660076
  H    0.129526806   0.902183843   5.087262058
  C   -0.435856098   0.291410930   4.396204354
  I    0.863606638  -1.301621196   3.745202092

8.15_1.50_hydrogenchloride--methyliodide.wfx


