%nprocs=4
%mem=2GB
#p hf aug-cc-pvdz output=wfx scf=(conver=6) int=(grid=ultrafine)

title

0 1
  H    0.022520196   0.264049533   0.142466592
 Cl   -0.507757895   1.073089818  -0.717554321
  H   -1.087203320   1.525090478   1.951313673
  H   -1.654489882   0.509715995   3.313474693
  H   -0.234943986   1.580641159   3.526076675
  C   -0.800326889   0.969868246   2.835018970
  I    0.499135847  -0.623163880   2.184016709

8.15_0.85_hydrogenchloride--methyliodide.wfx


