%nprocs=4
%mem=2GB
#p hf aug-cc-pvdz output=wfx scf=(conver=6) int=(grid=ultrafine)

title

0 1
  I   -0.696324110   0.702395641   2.136912755
  I    1.284419618  -1.012452651   2.735688504

8.16_mon2_hydrogenbromide--I2.wfx


