%nprocs=4
%mem=2GB
#p hf aug-cc-pvdz output=wfx scf=(conver=6) int=(grid=ultrafine)

title

0 1
  H   -0.014482918   0.230198996   0.135923832
 Br   -0.591513625   1.129521212  -0.829526750
  H   -0.739994998   0.807029574   3.500448548
  H   -1.229623416  -0.139645846   4.940243366
  H    0.213879070   0.917815182   5.012423482
  C   -0.402859920   0.285940494   4.387400138
  I    0.830683060  -1.352897070   3.724307390

8.17_1.50_hydrogenbromide--methyliodide.wfx


