%nprocs=4
%mem=2GB
#p hf aug-cc-pvdz output=wfx scf=(conver=6) int=(grid=ultrafine)

title

0 1
  H   -0.026480969   0.005839846  -0.515636747
  I    0.650626611  -0.660179342  -1.827083976
  I   -1.411537983   1.522647074   4.856305121
  I    0.552048744  -0.235943754   5.375963681

8.18_2.00_hydrogeniodide--I2.wfx


