%nprocs=4
%mem=2GB
#p hf aug-cc-pvdz output=wfx scf=(conver=6) int=(grid=ultrafine)

title

0 1
  I   -0.719009476   0.764243460   2.170334187
  I    1.244577251  -0.994347368   2.689992747

8.18_mon2_hydrogeniodide--I2.wfx


