&control
 title='crystal',
 prefix='crystal',
 pseudo_dir='.',
 calculation='vc-relax',
/
&system
 ibrav=0,
 celldm(1)=1.0,
 nat=    88,
 ntyp=  4,
 ecutwfc=60.0,
 ecutrho=600.0,
 xdm=.true.,
 xdm_a1=0.4073,
 xdm_a2=2.4150,
/
&electrons
 conv_thr = 1d-8,
/
&ions
/
&cell
/
ATOMIC_SPECIES
h      1.007940 h.UPF
c     12.010700 c.UPF
o     15.999400 o.UPF
br    79.904000 br.UPF

ATOMIC_POSITIONS crystal
br    0.17715195     0.15774068     0.26156929
br    0.82284804     0.84225929     0.73843068
br    0.17715195     0.34225931     0.76156929
br    0.82284804     0.65774067     0.23843068
o     0.44414822     0.07272129     0.83379720
o     0.55585177     0.92727868     0.16620278
o     0.44414822     0.42727870     0.33379720
o     0.55585177     0.57272128     0.66620278
o     0.53208259     0.74997870     0.90908552
o     0.46791739     0.25002127     0.09091445
o     0.53208260     0.75002129     0.40908552
o     0.46791739     0.24997869     0.59091445
o     0.40535139     0.81778910     0.56382677
o     0.59464859     0.18221087     0.43617320
o     0.40535140     0.68221089     0.06382677
o     0.59464859     0.31778909     0.93617320
c     0.45716610     0.84017868     0.83987124
c     0.54283388     0.15982129     0.16012873
c     0.45716611     0.65982131     0.33987124
c     0.54283388     0.34017867     0.66012873
c     0.37356348     0.70354440     0.75396585
c     0.62643651     0.29645557     0.24603413
c     0.37356348     0.79645559     0.25396585
c     0.62643650     0.20354439     0.74603413
c     0.33434929     0.81746072     0.62114465
c     0.66565069     0.18253925     0.37885532
c     0.33434930     0.68253927     0.12114465
c     0.66565069     0.31746071     0.87885532
c     0.24666652     0.69450625     0.53483967
c     0.75333346     0.30549372     0.46516030
c     0.24666653     0.80549374     0.03483967
c     0.75333346     0.19450624     0.96516030
c     0.25228777     0.50612106     0.45662173
c     0.74771221     0.49387891     0.54337824
c     0.25228778     0.99387893     0.95662173
c     0.74771221     0.00612105     0.04337824
c     0.16947665     0.40501839     0.37473883
c     0.83052334     0.59498158     0.62526114
c     0.16947665     0.09498160     0.87473883
c     0.83052333     0.90501838     0.12526114
c     0.08139950     0.48194180     0.36963283
c     0.91860049     0.51805817     0.63036715
c     0.08139950     0.01805819     0.86963283
c     0.91860048     0.98194179     0.13036715
c     0.07701004     0.66769318     0.44964101
c     0.92298994     0.33230679     0.55035896
c     0.07701005     0.83230681     0.94964101
c     0.92298994     0.16769317     0.05035896
c     0.15883688     0.77402707     0.53132192
c     0.84116310     0.22597290     0.46867806
c     0.15883689     0.72597292     0.03132192
c     0.84116310     0.27402706     0.96867806
h     0.50623373     0.15920164     0.88317995
h     0.49376626     0.84079833     0.11682003
h     0.50623373     0.34079835     0.38317995
h     0.49376625     0.65920163     0.61682003
h     0.43239877     0.98352482     0.57279350
h     0.56760121     0.01647515     0.42720647
h     0.43239878     0.51647517     0.07279350
h     0.56760121     0.48352481     0.92720647
h     0.31975567     0.70717025     0.79780947
h     0.68024431     0.29282972     0.20219051
h     0.31975568     0.79282974     0.29780947
h     0.68024431     0.20717024     0.70219051
h     0.39234414     0.51685397     0.74841825
h     0.60765584     0.48314600     0.25158172
h     0.39234415     0.98314602     0.24841825
h     0.60765584     0.01685396     0.75158172
h     0.31657865     0.00340008     0.63245343
h     0.68342134     0.99659989     0.36754655
h     0.31657865     0.49659991     0.13245343
h     0.68342134     0.50340007     0.86754655
h     0.32019781     0.44255695     0.45881991
h     0.67980218     0.55744302     0.54118006
h     0.32019781     0.05744304     0.95881991
h     0.67980217     0.94255695     0.04118006
h     0.01749664     0.40174451     0.30421838
h     0.98250335     0.59825546     0.69578159
h     0.01749664     0.09825548     0.80421838
h     0.98250334     0.90174450     0.19578159
h     0.00860263     0.73052079     0.44603274
h     0.99139735     0.26947918     0.55396723
h     0.00860263     0.76947920     0.94603274
h     0.99139735     0.23052078     0.05396723
h     0.15465307     0.92342266     0.59085038
h     0.84534692     0.07657732     0.40914960
h     0.15465307     0.57657734     0.09085038
h     0.84534691     0.42342265     0.90914960

K_POINTS automatic
2 2 2 1 1 1

CELL_PARAMETERS cubic
   28.825630000000     0.000000000000     0.017028000000
    0.000000000000    10.618779000000     0.000000000000
   -7.615177000000     0.000000000000    19.887721000000
