&control
 title='crystal',
 prefix='crystal',
 pseudo_dir='.',
 calculation='vc-relax',
/
&system
 ibrav=0,
 celldm(1)=1.0,
 nat=    44,
 ntyp=  4,
 ecutwfc=60.0,
 ecutrho=600.0,
 xdm=.true.,
 xdm_a1=0.4073,
 xdm_a2=2.4150,
/
&electrons
 conv_thr = 1d-8,
/
&ions
/
&cell
/
ATOMIC_SPECIES
h      1.007940 h.UPF
c     12.010700 c.UPF
o     15.999400 o.UPF
cl    35.453000 cl.UPF

ATOMIC_POSITIONS crystal
cl    0.37625232     0.82884237     0.96487458
cl    0.62374765     0.17115766     0.03512542
cl    0.75363412     0.18627093     0.65972707
cl    0.24636585     0.81372910     0.34027293
o     0.18052622     0.44212650     0.60440038
o     0.81947375     0.55787354     0.39559962
h     0.30484484     0.43091560     0.52087476
h     0.69515514     0.56908444     0.47912524
o     0.52048882     0.59086041     0.60363241
o     0.47951116     0.40913962     0.39636759
o     0.22853093     0.64450035     0.82474483
o     0.77146905     0.35549969     0.17525517
c     0.29607196     0.52796602     0.65247267
c     0.70392802     0.47203401     0.34752733
c     0.12965332     0.53965260     0.77928059
c     0.87034665     0.46034743     0.22071941
h     0.87353283     0.55494639     0.77498068
h     0.12646714     0.44505364     0.22501932
c     0.21205520     0.41548423     0.86482734
c     0.78794477     0.58451580     0.13517266
h     0.07715819     0.41734779     0.95444628
h     0.92284179     0.58265225     0.04555372
h     0.46481045     0.40412658     0.87341996
h     0.53518953     0.59587345     0.12658004
h     0.15595252     0.33189541     0.82951337
h     0.84404746     0.66810462     0.17048663
c     0.11476588     0.76817518     0.78051026
c     0.88523410     0.23182486     0.21948974
c     0.17527048     0.86729038     0.83977349
c     0.82472950     0.13270966     0.16022651
c     0.06921369     0.99576307     0.80231893
c     0.93078629     0.00423697     0.19768107
h     0.11621388     0.07039522     0.85038388
h     0.88378609     0.92960481     0.14961612
c     0.89757835     0.02595942     0.70463128
c     0.10242163     0.97404062     0.29536872
c     0.83327819     0.92970699     0.64469659
c     0.16672179     0.07029305     0.35530341
h     0.69589396     0.95349208     0.56950943
h     0.30410602     0.04650795     0.43049057
c     0.94246502     0.80137076     0.68276014
c     0.05753496     0.19862927     0.31723986
h     0.88257026     0.72782345     0.63631669
h     0.11742971     0.27217658     0.36368331

K_POINTS automatic
2 2 2 1 1 1

CELL_PARAMETERS cubic
    8.118226000000    -0.026453000000     0.076785000000
    2.455177000000    19.766513000000     0.127501000000
    3.057849000000     3.269879000000    20.960619000000
