&control
 title='crystal',
 prefix='crystal',
 pseudo_dir='.',
 calculation='vc-relax',
/
&system
 ibrav=0,
 celldm(1)=1.0,
 nat=    54,
 ntyp=  4,
 ecutwfc=60.0,
 ecutrho=600.0,
 xdm=.true.,
 xdm_a1=0.4073,
 xdm_a2=2.4150,
/
&electrons
 conv_thr = 1d-8,
/
&ions
/
&cell
/
ATOMIC_SPECIES
h      1.007940 h.UPF
c     12.010700 c.UPF
o     15.999400 o.UPF
br    79.904000 br.UPF

ATOMIC_POSITIONS crystal
c     0.35373667     0.44797094     0.28253542
c     0.64626334     0.55202904     0.71746456
o     0.16368486     0.52884951     0.30554995
o     0.83631515     0.47115048     0.69445003
c     0.48670796     0.43591543     0.15578874
c     0.51329205     0.56408456     0.84421124
h     0.44885817     0.54697382     0.10775317
h     0.55114184     0.45302617     0.89224682
h     0.40101008     0.33996592     0.11492654
h     0.59898993     0.66003406     0.88507344
c     0.75614318     0.39620249     0.14385867
c     0.24385682     0.60379750     0.85614132
h     0.82798352     0.36483203     0.05117240
h     0.17201649     0.63516795     0.94882758
h     0.85049496     0.50213016     0.16305857
h     0.14950505     0.49786983     0.83694141
c     0.80854406     0.25831681     0.22801556
c     0.19145594     0.74168317     0.77198442
h     0.72359720     0.14908838     0.20734862
h     0.27640281     0.85091161     0.79265136
h     0.00229200     0.23155627     0.21845458
h     0.99770801     0.76844372     0.78154540
c     0.71359720     0.30202724     0.35677403
c     0.28640281     0.69797274     0.64322595
h     0.82046615     0.39945874     0.38168312
h     0.17953386     0.60054124     0.61831686
o     0.75852386     0.16290870     0.43169384
o     0.24147615     0.83709129     0.56830614
c     0.64289598     0.16464336     0.54729950
c     0.35710402     0.83535663     0.45270048
c     0.74736664     0.08005439     0.63394127
c     0.25263337     0.91994560     0.36605871
h     0.92170343     0.01896790     0.60993997
h     0.07829658     0.98103209     0.39006001
c     0.62860591     0.07628357     0.75194229
c     0.37139409     0.92371641     0.24805769
h     0.71159912     0.01476569     0.82095989
h     0.28840088     0.98523430     0.17904009
c     0.40331975     0.15286515     0.78076521
c     0.59668025     0.84713484     0.21923477
br    0.23329591     0.14144705     0.94128913
br    0.76670409     0.85855293     0.05871085
c     0.29353316     0.23370134     0.69529182
c     0.70646684     0.76629865     0.30470816
h     0.11589783     0.29079331     0.71741423
h     0.88410218     0.70920668     0.28258575
c     0.41528021     0.24257235     0.57712456
c     0.58471979     0.75742763     0.42287542
c     0.31476852     0.32720822     0.48415712
c     0.68523149     0.67279177     0.51584287
h     0.12737548     0.36863084     0.50195062
h     0.87262452     0.63136915     0.49804936
c     0.45253302     0.35617921     0.37682140
c     0.54746699     0.64382078     0.62317858

K_POINTS automatic
2 2 2 1 1 1

CELL_PARAMETERS cubic
   10.692867000000    -0.145021000000    -0.087819000000
    0.856982000000    15.764457000000    -0.132653000000
    3.796073000000     0.537432000000    21.117979000000
