&control
 title='crystal',
 prefix='crystal',
 pseudo_dir='.',
 calculation='vc-relax',
/
&system
 ibrav=0,
 celldm(1)=1.0,
 nat=   104,
 ntyp=  4,
 ecutwfc=60.0,
 ecutrho=600.0,
 xdm=.true.,
 xdm_a1=0.4073,
 xdm_a2=2.4150,
/
&electrons
 conv_thr = 1d-8,
/
&ions
/
&cell
/
ATOMIC_SPECIES
h      1.007940 h.UPF
c     12.010700 c.UPF
n     14.006700 n.UPF
o     15.999400 o.UPF

ATOMIC_POSITIONS crystal
o     0.21039689     0.38080050     0.51321017
o     0.78960318     0.88080051     0.48678985
o     0.96398482     0.50401728     0.85499537
o     0.03601525     0.00401729     0.14500465
o     0.01723181     0.16067672     0.81454655
o     0.98276826     0.66067673     0.18545346
o     0.60569006     0.27188621     0.10320238
o     0.39431002     0.77188621     0.89679763
n     0.14235638     0.44027820     0.59412866
n     0.85764369     0.94027820     0.40587136
n     0.03826661     0.60419427     0.69119243
n     0.96173346     0.10419428     0.30880758
n     0.87802014     0.16887735     0.88369750
n     0.12197993     0.66887735     0.11630252
n     0.58758184     0.12222365     0.96782550
n     0.41241823     0.62222365     0.03217452
c     0.11393562     0.57517447     0.58190695
c     0.88606445     0.07517447     0.41809307
c     0.02285732     0.50538450     0.75813063
c     0.97714275     0.00538450     0.24186939
c     0.08765157     0.40328986     0.69245924
c     0.91234850     0.90328986     0.30754078
c     0.98215709     0.72308311     0.72712269
c     0.01784298     0.22308311     0.27287733
c     0.32004427     0.63040937     0.55940865
c     0.67995580     0.13040938     0.44059137
c     0.30453211     0.76267322     0.52723079
c     0.69546796     0.26267323     0.47276923
c     0.47114670     0.61056650     0.65703151
c     0.52885337     0.11056651     0.34296851
c     0.95707818     0.59423344     0.48762918
c     0.04292189     0.09423344     0.51237084
c     0.70289720     0.08252123     0.87435502
c     0.29710287     0.58252123     0.12564500
c     0.67257677     0.21815783     0.02198572
c     0.32742330     0.71815784     0.97801430
c     0.85706032     0.24441954     0.96600633
c     0.14293975     0.74441955     0.03399369
c     0.40286985     0.06682057     0.00023538
c     0.59713023     0.56682058     0.99976464
c     0.59936522     0.10421942     0.75772185
c     0.40063485     0.60421943     0.24227817
c     0.51810504     0.23162119     0.74688220
c     0.48189503     0.73162120     0.25311781
c     0.43830559     0.01174641     0.72731417
c     0.56169449     0.51174641     0.27268585
c     0.78749316     0.95767642     0.89238666
c     0.21250692     0.45767643     0.10761336
h     0.09064625     0.31044282     0.71901501
h     0.90935382     0.81044283     0.28098501
h     0.11171549     0.77298922     0.76170731
h     0.88828458     0.27298922     0.23829271
h     0.91207630     0.77299403     0.65714670
h     0.08792377     0.27299403     0.34285332
h     0.87494218     0.71236466     0.79279045
h     0.12505790     0.21236466     0.20720957
h     0.37028979     0.58013998     0.48677589
h     0.62971028     0.08013998     0.51322412
h     0.61720813     0.64351862     0.63378477
h     0.38279194     0.14351862     0.36621525
h     0.43072454     0.65930584     0.73224892
h     0.56927553     0.15930585     0.26775110
h     0.48788914     0.51563414     0.67827446
h     0.51211093     0.01563414     0.32172556
h     0.45350715     0.79797604     0.51250918
h     0.54649292     0.29797604     0.48749084
h     0.21171331     0.77595415     0.45064577
h     0.78828676     0.27595416     0.54935424
h     0.24242052     0.81641630     0.59375321
h     0.75757955     0.31641630     0.40624681
h     0.01541363     0.56793653     0.40718435
h     0.98458644     0.06793654     0.59281567
h     0.91147211     0.68809640     0.48329076
h     0.08852796     0.18809640     0.51670926
h     0.82558910     0.53985575     0.50338893
h     0.17441098     0.03985575     0.49661109
h     0.96222386     0.31564138     0.98390743
h     0.03777622     0.81564139     0.01609258
h     0.27251242     0.10822558     0.95729733
h     0.72748765     0.60822558     0.04270269
h     0.40468233     0.97189529     0.97883405
h     0.59531774     0.47189530     0.02116597
h     0.38955971     0.07705577     0.09038612
h     0.61044036     0.57705578     0.90961389
h     0.72093425     0.09313751     0.69975482
h     0.27906582     0.59313752     0.30024520
h     0.40467946     0.24801007     0.80834028
h     0.59532061     0.74801008     0.19165974
h     0.63550993     0.29923965     0.75853764
h     0.36449015     0.79923965     0.24146238
h     0.44742888     0.24473061     0.66352239
h     0.55257119     0.74473061     0.33647762
h     0.30565541     0.02343102     0.77639767
h     0.69434466     0.52343103     0.22360235
h     0.39176635     0.02352491     0.63910384
h     0.60823372     0.52352492     0.36089617
h     0.49161248     0.92000496     0.73796121
h     0.50838759     0.42000496     0.26203881
h     0.86783207     0.95561276     0.97406845
h     0.13216800     0.45561277     0.02593156
h     0.89081978     0.93811448     0.82644385
h     0.10918029     0.43811448     0.17355616
h     0.66854815     0.89080064     0.89069788
h     0.33145192     0.39080064     0.10930214

K_POINTS automatic
2 2 2 1 1 1

CELL_PARAMETERS cubic
   12.683659000000     0.000000000000     0.002369000000
    0.000000000000    21.157373000000     0.000000000000
   -0.983779000000     0.000000000000    22.584770000000
