&control
 title='crystal',
 prefix='crystal',
 pseudo_dir='.',
 calculation='vc-relax',
/
&system
 ibrav=0,
 celldm(1)=1.0,
 nat=    46,
 ntyp=  5,
 ecutwfc=60.0,
 ecutrho=600.0,
 xdm=.true.,
 xdm_a1=0.4073,
 xdm_a2=2.4150,
/
&electrons
 conv_thr = 1d-8,
/
&ions
/
&cell
/
ATOMIC_SPECIES
h      1.007940 h.UPF
c     12.010700 c.UPF
n     14.006700 n.UPF
o     15.999400 o.UPF
s     32.065000 s.UPF

ATOMIC_POSITIONS crystal
s     0.39621359     0.33587603     0.72249300
s     0.60379172     0.83592477     0.27751417
o     0.42213861     0.04392193     0.71801218
o     0.57787875     0.54393682     0.28201951
o     0.24901457     0.43098899     0.69978890
o     0.75096769     0.93101004     0.30019151
o     0.46809940     0.44891013     0.87429798
o     0.53186947     0.94887186     0.12570136
n     0.50402521     0.49571658     0.61853190
n     0.49596738     0.99578098     0.38146678
c     0.64014252     0.55958131     0.70703487
c     0.35986010     0.05972870     0.29296931
h     0.67874232     0.75485152     0.66899186
h     0.32127118     0.25501283     0.33101477
c     0.60788099     0.58197646     0.86535493
c     0.39212119     0.08209782     0.13465054
h     0.59365567     0.79183082     0.89926965
h     0.40638990     0.29193860     0.10074250
c     0.72681849     0.42610768     0.95464891
c     0.27316114     0.92632730     0.04535027
h     0.80183176     0.57288368     0.00996426
h     0.19815506     0.07315503     0.99005495
h     0.68324905     0.30307250     0.03679424
h     0.31671331     0.80328690     0.96319009
c     0.80002799     0.26143286     0.84855794
c     0.19994717     0.76165418     0.15143467
c     0.75326498     0.34001533     0.70979264
c     0.24672723     0.84021336     0.29020291
c     0.81164351     0.22390291     0.59459382
c     0.18836218     0.72407645     0.40540380
h     0.77691668     0.28958066     0.48687574
h     0.22311311     0.78971612     0.51312395
c     0.91669382     0.02180258     0.61935161
c     0.08332479     0.52200464     0.38063971
h     0.96173005     0.92728819     0.52996978
h     0.03830274     0.42744749     0.47002084
c     0.96314774     0.93980695     0.75779903
c     0.03685160     0.44003164     0.24219134
h     0.04506550     0.78154763     0.77465895
h     0.95494562     0.28178177     0.22532813
c     0.90506906     0.05950651     0.87325311
c     0.09492240     0.55975283     0.12673936
h     0.94065387     0.99542593     0.98124267
h     0.05932621     0.49567591     0.01874595
h     0.45485689     0.67275155     0.58087794
h     0.54514811     0.17279746     0.41914724

K_POINTS automatic
2 2 2 1 1 1

CELL_PARAMETERS cubic
   17.645806000000     0.000589000000    -0.031252000000
    0.000293000000     9.254892000000    -0.000066000000
   -1.789400000000    -0.000190000000    17.829459000000
