&control
 title='crystal',
 prefix='crystal',
 pseudo_dir='..',
 calculation='vc-relax',
 etot_conv_thr=1.0D-5,
/
&system
 ibrav=0,
 celldm(1)=1.0,
 nat=    68,
 ntyp=  4,
 ecutwfc=80.0,
 ecutrho=800.0,
 xdm=.true.,
 xdm_a1=0.6512,
 xdm_a2=1.4633,
/
&electrons
 conv_thr = 1d-8,
/
&ions
/
&cell
/
ATOMIC_SPECIES
h      1.007940 h.UPF
c     12.010700 c.UPF
n     14.006700 n.UPF
o     15.999400 o.UPF

ATOMIC_POSITIONS crystal
c        0.150194370   0.633197314   0.205583846
c        0.849805630   0.133197314   0.294416154
c        0.849805630   0.366802686   0.794416154
c        0.150194370   0.866802686   0.705583846
o        0.089018895   0.728109276   0.107525577
o        0.910981105   0.228109276   0.392474423
o        0.910981105   0.271890724   0.892474423
o        0.089018895   0.771890724   0.607525577
o        0.187641768   0.750220867   0.300022159
o        0.812358232   0.250220867   0.199977841
o        0.812358232   0.249779133   0.699977841
o        0.187641768   0.749779133   0.800022159
n        0.130742070   0.228115317   0.090086569
n        0.869257930   0.728115317   0.409913431
n        0.869257930   0.771884683   0.909913431
n        0.130742070   0.271884683   0.590086569
h        0.107175171   0.032680667   0.103131272
h        0.892824829   0.532680667   0.396868728
h        0.892824829   0.967319333   0.896868728
h        0.107175171   0.467319333   0.603131272
h        0.034846444   0.310249067   0.046650879
h        0.965153556   0.810249067   0.453349121
h        0.965153556   0.689750933   0.953349121
h        0.034846444   0.189750933   0.546650879
c        0.181368773   0.348278286   0.206899837
c        0.818631227   0.848278286   0.293100163
c        0.818631227   0.651721714   0.793100163
c        0.181368773   0.151721714   0.706899837
h        0.121639661   0.259556063   0.273441066
h        0.878360339   0.759556063   0.226558934
h        0.878360339   0.740443937   0.726558934
h        0.121639661   0.240443937   0.773441066
c        0.349356985   0.289142651   0.224418215
c        0.650643015   0.789142651   0.275581785
c        0.650643015   0.710857349   0.775581785
c        0.349356985   0.210857349   0.724418215
h        0.364493975   0.091786261   0.252171083
h        0.635506025   0.591786261   0.247828917
h        0.635506025   0.908213739   0.747828917
h        0.364493975   0.408213739   0.752171083
h        0.409657288   0.409822779   0.292223649
h        0.590342712   0.909822779   0.207776351
h        0.590342712   0.590177221   0.707776351
h        0.409657288   0.090177221   0.792223649
c        0.395005383   0.332144571   0.101073796
c        0.604994617   0.832144571   0.398926204
c        0.604994617   0.667855429   0.898926204
c        0.395005383   0.167855429   0.601073796
h        0.497431670   0.230142169   0.087516652
h        0.502568330   0.730142169   0.412483348
h        0.502568330   0.769857831   0.912483348
h        0.497431670   0.269857831   0.587516652
h        0.416516827   0.533137328   0.088152924
h        0.583483173   0.033137328   0.411847076
h        0.583483173   0.466862672   0.911847076
h        0.416516827   0.966862672   0.588152924
c        0.257680104   0.248305571   0.015399902
c        0.742319896   0.748305571   0.484600098
c        0.742319896   0.751694429   0.984600098
c        0.257680104   0.251694429   0.515399902
h        0.226008481   0.386946335   0.945864273
h        0.773991519   0.886946335   0.554135727
h        0.773991519   0.613053665   0.054135727
h        0.226008481   0.113053665   0.445864273
h        0.269919264   0.063096323   0.975244191
h        0.730080736   0.563096323   0.524755809
h        0.730080736   0.936903677   0.024755809
h        0.269919264   0.436903677   0.475244191

K_POINTS automatic
4 4 4 1 1 1

CELL_PARAMETERS cubic
  16.984822194   0.000000000  -0.056194658
   0.000000000  10.019723543   0.000000000
  -2.729249091   0.000000000  21.426396262
