&control
 title='crystal',
 prefix='crystal',
 pseudo_dir='.',
 calculation='vc-relax',
/
&system
 ibrav=0,
 celldm(1)=1.0,
 nat=    68,
 ntyp=  4,
 ecutwfc=60.0,
 ecutrho=600.0,
 xdm=.true.,
 xdm_a1=0.4073,
 xdm_a2=2.4150,
/
&electrons
 conv_thr = 1d-8,
/
&ions
/
&cell
/
ATOMIC_SPECIES
h      1.007940 h.UPF
c     12.010700 c.UPF
n     14.006700 n.UPF
o     15.999400 o.UPF

ATOMIC_POSITIONS crystal
c     0.15019437     0.63319728     0.20558385
c     0.84980564     0.36680267     0.79441618
c     0.15019437     0.86680265     0.70558386
c     0.84980564     0.13319731     0.29441617
o     0.08901889     0.72810925     0.10752558
o     0.91098112     0.27189070     0.89247445
o     0.08901890     0.77189068     0.60752559
o     0.91098111     0.22810928     0.39247444
o     0.18764177     0.75022083     0.30002217
o     0.81235824     0.24977912     0.69997786
o     0.18764177     0.74977910     0.80002217
o     0.81235824     0.25022086     0.19997785
n     0.13074207     0.22811531     0.09008657
n     0.86925794     0.77188464     0.90991346
n     0.13074207     0.27188462     0.59008658
n     0.86925794     0.72811534     0.40991345
h     0.10717517     0.03268066     0.10313127
h     0.89282484     0.96731929     0.89686875
h     0.10717517     0.46731927     0.60313128
h     0.89282484     0.53268069     0.39686875
h     0.03484644     0.31024905     0.04665088
h     0.96515357     0.68975090     0.95334915
h     0.03484645     0.18975088     0.54665089
h     0.96515356     0.81024908     0.45334914
c     0.18136878     0.34827827     0.20689984
c     0.81863123     0.65172168     0.79310019
c     0.18136878     0.15172166     0.70689985
c     0.81863123     0.84827830     0.29310018
h     0.12163966     0.25955605     0.27344107
h     0.87836035     0.74044390     0.72655896
h     0.12163966     0.24044388     0.77344108
h     0.87836035     0.75955608     0.22655895
c     0.34935699     0.28914264     0.22441822
c     0.65064302     0.71085732     0.77558181
c     0.34935699     0.21085730     0.72441823
c     0.65064302     0.78914267     0.27558180
h     0.36449398     0.09178626     0.25217109
h     0.63550603     0.90821369     0.74782894
h     0.36449398     0.40821367     0.75217110
h     0.63550603     0.59178629     0.24782893
h     0.40965729     0.40982276     0.29222366
h     0.59034272     0.59017719     0.70777637
h     0.40965730     0.09017717     0.79222367
h     0.59034271     0.90982279     0.20777636
c     0.39500539     0.33214456     0.10107380
c     0.60499462     0.66785539     0.89892623
c     0.39500539     0.16785537     0.60107381
c     0.60499462     0.83214459     0.39892622
h     0.49743168     0.23014216     0.08751666
h     0.50256833     0.76985779     0.91248337
h     0.49743168     0.26985777     0.58751667
h     0.50256833     0.73014219     0.41248336
h     0.41651684     0.53313730     0.08815293
h     0.58348318     0.46686265     0.91184709
h     0.41651684     0.96686263     0.58815294
h     0.58348317     0.03313733     0.41184709
c     0.25768011     0.24830556     0.01539991
c     0.74231990     0.75169439     0.98460012
c     0.25768011     0.25169437     0.51539992
c     0.74231990     0.74830559     0.48460011
h     0.22600848     0.38694632     0.94586429
h     0.77399153     0.61305363     0.05413574
h     0.22600849     0.11305361     0.44586430
h     0.77399153     0.88694635     0.55413573
h     0.26991927     0.06309632     0.97524421
h     0.73008074     0.93690363     0.02475582
h     0.26991927     0.43690361     0.47524422
h     0.73008074     0.56309635     0.52475581

K_POINTS automatic
2 2 2 1 1 1

CELL_PARAMETERS cubic
   16.984822000000     0.000000000000    -0.056195000000
    0.000000000000    10.019724000000     0.000000000000
   -2.729249000000     0.000000000000    21.426396000000
