## FHIaims input file generated by critic2.
lattice_vector 7.1233391800       0.0000000000       -3.0411541500     
lattice_vector -4.6050658200      5.4346418400       -3.0411541500     
lattice_vector 0.0000000000       0.0000000000       7.7453589400      
atom_frac  0.1200260786       0.8856887541       0.6952292913       H 
atom_frac  0.2744564773       0.0799613540       0.9758834984       H 
atom_frac  0.6731554862       0.3622871972       0.1404014265       H 
atom_frac  0.7085193529       0.3468928065       0.3474586161       H 
atom_frac  0.2248863075       0.1295712175       0.3464667840       H 
atom_frac  0.5055475328       0.2840174579       0.5407374288       H 
atom_frac  0.6700469169       0.6826923042       0.8230548275       H 
atom_frac  0.8771227529       0.7180881970       0.8076803178       H 
atom_frac  0.8760844833       0.2344145571       0.5903367902       H 
atom_frac  0.0703498190       0.5150713225       0.7447733151       H 
atom_frac  0.3526710789       0.6795831756       0.1434659063       H 
atom_frac  0.3373068748       0.8866617713       0.1788507115       H 
atom_frac  0.0448452493       0.2983011959       0.4103372149       H 
atom_frac  0.8904148506       0.1040285959       0.1296830079       H 
atom_frac  0.4917158203       0.8217029367       0.9651651436       H 
atom_frac  0.4563520940       0.8370973275       0.7581080091       H 
atom_frac  0.9399850204       0.0544187324       0.7590995931       H 
atom_frac  0.6593236547       0.8999724920       0.5648291514       H 
atom_frac  0.4948245300       0.5012978298       0.2825117977       H 
atom_frac  0.2877485750       0.4659017530       0.2978860593       H 
atom_frac  0.2887868446       0.9495753928       0.5152297161       H 
atom_frac  0.0945215089       0.6689186274       0.3607931912       H 
atom_frac  0.8122002490       0.5044067743       0.9621004708       H 
atom_frac  0.8275644531       0.2973281787       0.9267157947       H 
atom_frac  0.1013022420       0.9474832586       0.8205047690       O 
atom_frac  0.6003276243       0.3413036617       0.2188391185       O 
atom_frac  0.3501725090       0.1108603249       0.4082628798       O 
atom_frac  0.7484939583       0.6098757301       0.8020682106       O 
atom_frac  0.9378761514       0.3596942020       0.5716171542       O 
atom_frac  0.3316714898       0.7580126311       0.0706317190       O 
atom_frac  0.0635690859       0.2365066913       0.2850617373       O 
atom_frac  0.5645438226       0.8426864722       0.8867275067       O 
atom_frac  0.8146986785       0.0731296250       0.6973035713       O 
atom_frac  0.4163774885       0.5741144038       0.3034982855       O 
atom_frac  0.2269951765       0.8242957479       0.5339492229       O 
atom_frac  0.8331998381       0.4259773189       0.0349347872       O 
