%nprocs=4
%mem=2GB
#p pbepbe aug-cc-pvtz output=wfx scf=(conver=6) int=(grid=ultrafine)
 
title
 
0 1
 O        0.000000000    -0.057865710    -1.479793030
 H        0.000000000     0.822933840    -1.855414740
 H        0.000000000     0.079495670    -0.519342530

01waterammonia_1.wfx

