%nprocs=4
%mem=2GB
#p pbepbe aug-cc-pvtz output=wfx scf=(conver=6) int=(grid=ultrafine)
 
title
 
0 1
H    0.000000000   0.000000000   3.855213060
C    0.000000000   0.000000000   2.786499760
N    0.000000000   0.000000000   1.631507910
H    0.000000000   0.000000000  -0.593774920
C    0.000000000   0.000000000  -1.668098240
N    0.000000000   0.000000000  -2.825250560

03HCNdimer.wfx

