%nprocs=4
%mem=2GB
#p pbepbe aug-cc-pvtz output=wfx scf=(conver=6) int=(grid=ultrafine)
 
title
 
0 1
H    0.000000000   0.802679820   1.695293290
F    0.000000000  -0.045966660   1.340348180
H    0.000000000  -0.120407870  -0.490828400
F    0.000000000   0.009769450  -1.404249780

04HFdimer.wfx

