%nprocs=4
%mem=2GB
#p pbepbe aug-cc-pvtz output=wfx scf=(conver=6) int=(grid=ultrafine)
 
title
 
0 1
 N       -0.049981290    -1.587093230     0.000000000
 H        0.122962650    -2.168460180     0.811059760
 H        0.122962650    -2.168460180    -0.811059760
 H        0.659885800    -0.862352980     0.000000000

05ammoniadimer_1.wfx

