%nprocs=4
%mem=2GB
#p pbepbe aug-cc-pvtz output=wfx scf=(conver=6) int=(grid=ultrafine)
 
title
 
0 1
 H       -0.000000000     0.000000000    -0.548773280
 F       -0.000000000     0.000000000    -1.468032560

06HFmethane_2.wfx

