%nprocs=4
%mem=2GB
#p pbepbe aug-cc-pvtz output=wfx scf=(conver=6) int=(grid=ultrafine)
 
title
 
0 1
 H        0.000000000    -0.000000000    -0.944971740
 C        0.000000000    -0.000000000    -2.033637520
 H        0.512514390     0.887700960    -2.400951250
 H        0.512514390    -0.887700960    -2.400951250
 H       -1.025028780     0.000000000    -2.400951250

07ammoniamethane_2.wfx

