%nprocs=4
%mem=2GB
#p pbepbe aug-cc-pvtz output=wfx scf=(conver=6) int=(grid=ultrafine)
 
title
 
0 1
 O       -0.004725530     0.000000000     1.715974660
 H        0.032118630     0.757554590     2.301720440
 H        0.032118630    -0.757554590     2.301720440

08watermethane_2.wfx

