%nprocs=4
%mem=2GB
#p pbepbe aug-cc-pvtz output=wfx scf=(conver=6) int=(grid=ultrafine)
 
title
 
0 1
 C        0.000000000     0.601239800    -1.353839760
 O        0.000000000    -0.593018140    -1.552090210
 H        0.935422500     1.174276240    -1.265151320
 H       -0.935422500     1.174276240    -1.265151320

09formaldehydedimer_1.wfx

