%nprocs=4
%mem=2GB
#p pbepbe aug-cc-pvtz output=wfx scf=(conver=6) int=(grid=ultrafine)
 
title
 
0 1
 C        0.010588250    -0.668062460     1.298208090
 C        0.010588250     0.668062460     1.298208090
 H       -0.846082850    -1.232584950     1.645253850
 H        0.868632160    -1.232679330     0.954268150
 H        0.868632160     1.232679330     0.954268150
 H       -0.846082850     1.232584950     1.645253850

10waterethene_1.wfx

