%nprocs=4
%mem=2GB
#p pbepbe aug-cc-pvtz output=wfx scf=(conver=6) int=(grid=ultrafine)
 
title
 
0 1
 H       -0.796856270     0.000000000    -2.509110380
 O        0.043474450     0.000000000    -2.048340540
 H       -0.190675460     0.000000000    -1.115769440

10waterethene_2.wfx

