%nprocs=4
%mem=2GB
#p pbepbe aug-cc-pvtz output=wfx scf=(conver=6) int=(grid=ultrafine)
 
title
 
0 1
 H       -0.000000000     1.233449480     2.829317920
 C       -0.000000000     0.667116980     1.906010420
 H        0.000000000     1.225471480     0.977761990
 C       -0.000000000    -0.667116980     1.906010420
 H       -0.000000000    -1.225471480     0.977761990
 H       -0.000000000    -1.233449480     2.829317920

14ethenedimer_2.wfx

