%nprocs=4
%mem=2GB
#p pbepbe aug-cc-pvtz output=wfx scf=(conver=6) int=(grid=ultrafine)
 
title
 
0 1
 C        0.000000000     0.646343850    -1.608498150
 C        0.000000000    -0.679143550    -1.453816750
 H        0.924036070     1.207376020    -1.673572850
 H       -0.924036070     1.207376020    -1.673572850
 H       -0.923999610    -1.240162230    -1.387848830
 H        0.923999610    -1.240162230    -1.387848830

15methaneethene_1.wfx

