%nprocs=4
%mem=2GB
#p pbepbe aug-cc-pvtz output=wfx scf=(conver=6) int=(grid=ultrafine)
 
title
 
0 1
 H        0.000000000     0.082954110     1.590167110
 C        0.000000000     0.028715090     2.677117850
 H        0.888254590     0.522619900     3.066640290
 H       -0.888254590     0.522619900     3.066640290
 H        0.000000000    -1.013948000     2.989552270

15methaneethene_2.wfx

