%nprocs=4
%mem=2GB
#p pbepbe aug-cc-pvtz output=wfx scf=(conver=6) int=(grid=ultrafine)
 
title
 
0 1
 AR      -0.000000000     0.000000000     1.053951720

20Armethane_2.wfx

