&control
 title='crystal',
 prefix='crystal',
 pseudo_dir='../..',
 forc_conv_thr=1.0D-4,
 etot_conv_thr=1.0D-5,
/
&system
 ibrav=0,
 nat=    12,
 ntyp=  3,
 ecutwfc=80.0,
 ecutrho=800.0,
 vdw_corr='xdm',
 nosym=.true.,
/
&electrons
 conv_thr = 1d-10,
/
&ions
/
&cell
 press_conv_thr=0.01,
/
ATOMIC_SPECIES
N    14.006700 n.UPF
C    12.010700 c.UPF
H     1.007940 h.UPF

ATOMIC_POSITIONS crystal
N             0.5541952732        0.4458046160        0.9019390522
N             0.4457966907        0.5542030981        0.4019455259
C             0.7236316967        0.2763670717        0.0009967414
C             0.2763671624        0.7236325339        0.5009966230
C             0.9345953005        0.0654036573        0.1234401630
C             0.0654032190        0.9345963817        0.6234410488
H             0.0738589227        0.2274662092        0.2058488193
H             0.9261450222        0.7725304662        0.7058483746
H             0.1192741644        0.8807253415        0.0537712900
H             0.8807222765        0.1192769063        0.5537713200
H             0.7725347691        0.9261410832        0.2058482349
H             0.2274698520        0.0738564347        0.7058493169

K_POINTS automatic
7 7 3  1 1 1

CELL_PARAMETERS bohr
   7.430753722  -0.000063120   0.000018151
   0.985787128   7.365072936   0.000009654
  -0.000218722   0.000048379  14.570612212
