&control
 title='crystal',
 prefix='crystal',
 pseudo_dir='.',
 calculation='vc-relax',
/
&system
 ibrav=0,
 celldm(1)=1.0,
 nat=    84,
 ntyp=  3,
 ecutwfc=60.0,
 ecutrho=600.0,
 xdm=.true.,
 xdm_a1=0.4073,
 xdm_a2=2.4150,
/
&electrons
 conv_thr = 1d-8,
/
&ions
/
&cell
/
ATOMIC_SPECIES
h      1.007940 h.UPF
c     12.010700 c.UPF
o     15.999400 o.UPF

ATOMIC_POSITIONS crystal
c     0.55949693     0.26514586     0.36975853
c     0.44050306     0.73485413     0.63024147
c     0.44048691     0.76513857     0.13025469
c     0.55951308     0.23486141     0.86974531
c     0.40897524     0.33400046     0.36282066
c     0.59102475     0.66599953     0.63717935
c     0.59103877     0.83397208     0.13717695
c     0.40896121     0.16602790     0.86282306
c     0.32181282     0.31218355     0.41408381
c     0.67818717     0.68781644     0.58591619
c     0.67819734     0.81215923     0.08591662
c     0.32180265     0.18784075     0.91408339
c     0.12765324     0.50182844     0.34827245
c     0.87234675     0.49817154     0.65172756
c     0.87236035     0.00181811     0.15172864
c     0.12763964     0.99818187     0.84827137
c     0.18175185     0.39629092     0.40652005
c     0.81824814     0.60370907     0.59347996
c     0.81825852     0.89627344     0.09347832
c     0.18174147     0.10372654     0.90652168
c     0.21426965     0.50226495     0.29662314
c     0.78573034     0.49773504     0.70337687
c     0.78574111     0.00225012     0.20337645
c     0.21425888     0.99774987     0.79662356
c     0.35511839     0.42465914     0.30412885
c     0.64488160     0.57534084     0.69587116
c     0.64489042     0.92464008     0.19587273
c     0.35510957     0.07535991     0.80412728
o     0.08940159     0.39410167     0.45427250
o     0.91059840     0.60589832     0.54572751
o     0.91060844     0.89409735     0.04572731
o     0.08939155     0.10590264     0.95427269
o     0.99039003     0.59986500     0.34391788
o     0.00960996     0.40013499     0.65608213
o     0.00961722     0.09985335     0.15608127
o     0.99038277     0.90014664     0.84391873
o     0.15178780     0.58413940     0.24074674
o     0.84821219     0.41586059     0.75925327
o     0.84821828     0.08413488     0.25925414
o     0.15178171     0.91586510     0.74074587
o     0.59791429     0.12646820     0.42464026
o     0.40208570     0.87353179     0.57535975
o     0.40209917     0.62642082     0.07535804
o     0.59790082     0.37357916     0.92464196
o     0.64327300     0.33459328     0.32815655
o     0.35672699     0.66540670     0.67184345
o     0.35675896     0.83456521     0.17183179
o     0.64324103     0.16543478     0.82816822
o     0.85986360     0.95527801     0.43898771
o     0.14013639     0.04472197     0.56101230
o     0.14014425     0.45527887     0.06101247
o     0.85985573     0.54472111     0.93898754
h     0.89674704     0.80122702     0.40478466
h     0.10325295     0.19877297     0.59521534
h     0.10325846     0.30122256     0.09521535
h     0.89674153     0.69877742     0.90478465
h     0.93365849     0.14741429     0.44452956
h     0.06634150     0.85258569     0.55547045
h     0.06635048     0.64741487     0.05547092
h     0.93364951     0.35258512     0.94452909
h     0.36417226     0.23809646     0.45947633
h     0.63582773     0.76190353     0.54052367
h     0.63583745     0.73807007     0.04052286
h     0.36416254     0.26192992     0.95947715
h     0.96669992     0.71036742     0.30317196
h     0.03330007     0.28963256     0.69682805
h     0.03331387     0.21036695     0.19682925
h     0.96668612     0.78963303     0.80317076
h     0.12784780     0.27461504     0.49294651
h     0.87215219     0.72538494     0.50705350
h     0.87216246     0.77461254     0.00705158
h     0.12783753     0.22538745     0.99294843
h     0.22428269     0.66216684     0.21051781
h     0.77571730     0.33783315     0.78948220
h     0.77572822     0.16216485     0.28948142
h     0.22427177     0.83783513     0.71051859
h     0.42273429     0.43269678     0.26436424
h     0.57726570     0.56730320     0.73563577
h     0.57727784     0.93268297     0.23563545
h     0.42272215     0.06731701     0.76436455
h     0.70185302     0.08292969     0.42602939
h     0.29814697     0.91707030     0.57397062
h     0.29815537     0.58289987     0.07397042
h     0.70184462     0.41710011     0.92602958

K_POINTS automatic
2 2 2 1 1 1

CELL_PARAMETERS cubic
   18.168932000000     0.000006000000     0.076291000000
   -0.000001000000     6.772748000000    -0.000043000000
   -0.855610000000    -0.000264000000    40.748291000000
