&control
 title='crystal',
 prefix='crystal',
 pseudo_dir='.',
 calculation='vc-relax',
/
&system
 ibrav=0,
 celldm(1)=1.0,
 nat=    84,
 ntyp=  3,
 ecutwfc=60.0,
 ecutrho=600.0,
 xdm=.true.,
 xdm_a1=0.4073,
 xdm_a2=2.4150,
/
&electrons
 conv_thr = 1d-8,
/
&ions
/
&cell
/
ATOMIC_SPECIES
h      1.007940 h.UPF
c     12.010700 c.UPF
o     15.999400 o.UPF

ATOMIC_POSITIONS crystal
o     0.64102178     0.34547762     0.49686100
o     0.35897824     0.65452241     0.50313901
o     0.14102177     0.84547762     0.00313900
o     0.85897826     0.15452241     0.99686101
h     0.46777111     0.28699709     0.46666824
h     0.53222892     0.71300294     0.53333177
h     0.96777109     0.78699709     0.03333176
h     0.03222894     0.21300294     0.96666825
o     0.00778297     0.48251154     0.60069136
o     0.99221706     0.51748849     0.39930865
o     0.50778295     0.98251154     0.89930865
o     0.49221707     0.01748849     0.10069136
h     0.04440440     0.52440525     0.55881767
h     0.95559563     0.47559478     0.44118234
h     0.54440438     0.02440525     0.94118234
h     0.45559564     0.97559478     0.05881767
o     0.91263121     0.33780635     0.70826555
o     0.08736882     0.66219368     0.29173446
o     0.41263120     0.83780635     0.79173445
o     0.58736883     0.16219368     0.20826556
h     0.89464107     0.26417536     0.74267679
h     0.10535896     0.73582467     0.25732322
h     0.39464105     0.76417536     0.75732321
h     0.60535898     0.23582467     0.24267680
o     0.02509819     0.83604088     0.67571903
o     0.97490184     0.16395915     0.32428098
o     0.52509818     0.33604088     0.82428097
o     0.47490185     0.66395915     0.17571904
h     0.82134867     0.73988215     0.67822461
h     0.17865136     0.26011788     0.32177540
h     0.32134865     0.23988215     0.82177540
h     0.67865137     0.76011788     0.17822461
o     0.86989800     0.82831740     0.57612909
o     0.13010203     0.17168263     0.42387093
o     0.36989798     0.32831740     0.92387092
o     0.63010205     0.67168263     0.07612909
c     0.31747443     0.04393290     0.61321246
c     0.68252560     0.95606713     0.38678756
c     0.81747442     0.54393290     0.88678755
c     0.18252561     0.45606713     0.11321246
c     0.36545375     0.11929810     0.55666762
c     0.63454628     0.88070194     0.44333239
c     0.86545374     0.61929810     0.94333238
c     0.13454629     0.38070194     0.05666763
h     0.22218927     0.06591738     0.51653215
h     0.77781076     0.93408265     0.48346787
h     0.72218926     0.56591738     0.98346786
h     0.27781077     0.43408265     0.01653215
c     0.59464405     0.26583664     0.55113325
c     0.40535598     0.73416339     0.44886677
c     0.09464404     0.76583664     0.94886676
c     0.90535599     0.23416339     0.05113325
c     0.78174202     0.33861448     0.60246461
c     0.21825801     0.66138555     0.39753540
c     0.28174200     0.83861448     0.89753539
c     0.71825802     0.16138555     0.10246462
c     0.73306867     0.26096199     0.65904901
c     0.26693136     0.73903804     0.34095100
c     0.23306866     0.76096199     0.84095100
c     0.76693137     0.23903804     0.15904901
c     0.50586450     0.11471226     0.66434638
c     0.49413553     0.88528777     0.33565363
c     0.00586448     0.61471226     0.83565362
c     0.99413554     0.38528777     0.16434639
h     0.47767858     0.05633622     0.70836067
h     0.52232145     0.94366381     0.29163934
h     0.97767857     0.55633622     0.79163934
h     0.02232146     0.44366381     0.20836067
c     0.05358521     0.89422020     0.61900678
c     0.94641482     0.10577983     0.38099323
c     0.55358519     0.39422020     0.88099323
c     0.44641484     0.60577983     0.11900678
o     0.99399864     0.10505922     0.79915131
o     0.00600139     0.89494082     0.20084871
o     0.49399863     0.60505922     0.70084870
o     0.50600140     0.39494082     0.29915131
h     0.07171981     0.01535598     0.78213423
h     0.92828022     0.98464405     0.21786578
h     0.57171980     0.51535598     0.71786577
h     0.42828023     0.48464405     0.28213424
h     0.82007056     0.06031895     0.83116150
h     0.17992947     0.93968108     0.16883851
h     0.32007055     0.56031895     0.66883850
h     0.67992948     0.43968108     0.33116151

K_POINTS automatic
2 2 2 1 1 1

CELL_PARAMETERS cubic
    7.229212000000    -0.201771000000     0.000000000000
   -3.287326000000    16.293554000000     0.000000000000
    0.000000000000     0.000000000000    41.311471000000
