&control
 title='crystal',
 prefix='crystal',
 pseudo_dir='.',
 calculation='vc-relax',
/
&system
 ibrav=0,
 celldm(1)=1.0,
 nat=    84,
 ntyp=  3,
 ecutwfc=60.0,
 ecutrho=600.0,
 xdm=.true.,
 xdm_a1=0.4073,
 xdm_a2=2.4150,
/
&electrons
 conv_thr = 1d-8,
/
&ions
/
&cell
/
ATOMIC_SPECIES
h      1.007940 h.UPF
c     12.010700 c.UPF
o     15.999400 o.UPF

ATOMIC_POSITIONS crystal
c     0.46090823     0.23861698     0.03741819
c     0.53909172     0.76138298     0.96258183
c     0.23862891     0.46092624     0.46258121
c     0.76137104     0.53907371     0.53741881
c     0.66626854     0.34790855     0.07959387
c     0.33373141     0.65209140     0.92040615
c     0.34790045     0.66626077     0.42040833
c     0.65209950     0.33373919     0.57959169
c     0.74475041     0.44329798     0.15079696
c     0.25524954     0.55670197     0.84920305
c     0.44330346     0.74475713     0.34920140
c     0.55669649     0.25524282     0.65079862
c     0.60525074     0.41379588     0.18150142
c     0.39474921     0.58620408     0.81849860
c     0.41379732     0.60525168     0.31849490
c     0.58620263     0.39474827     0.68150512
c     0.40873061     0.31383557     0.13812216
c     0.59126934     0.68616439     0.86187786
c     0.31383764     0.40873170     0.36187632
c     0.68616231     0.59126826     0.63812370
c     0.34507251     0.23514647     0.06619206
c     0.65492744     0.76485348     0.93380796
c     0.23513518     0.34505343     0.43381134
c     0.76486477     0.65494653     0.56618868
h     0.76093722     0.35523393     0.05747764
h     0.23906273     0.64476602     0.94252237
h     0.35523569     0.76093791     0.44252203
h     0.64476426     0.23906205     0.55747799
h     0.19255828     0.15769402     0.03318236
h     0.80744167     0.84230594     0.96681766
h     0.15769566     0.19256446     0.46681624
h     0.84230429     0.80743549     0.53318378
c     0.34071395     0.10399883     0.96339610
c     0.65928600     0.89600112     0.03660391
c     0.10399187     0.34070406     0.53660479
c     0.89600808     0.65929590     0.46339523
o     0.42113672     0.07180138     0.94141005
o     0.57886323     0.92819857     0.05858997
o     0.07180280     0.42113961     0.55858977
o     0.92819715     0.57886035     0.44141024
h     0.29515623     0.94412337     0.89330123
h     0.70484372     0.05587658     0.10669879
h     0.94412333     0.29515773     0.60669899
h     0.05587662     0.70484223     0.39330103
o     0.94649043     0.55121050     0.19207394
o     0.05350952     0.44878945     0.80792608
o     0.55121072     0.94649011     0.30792622
o     0.44878923     0.05350984     0.69207380
h     0.04415594     0.67391257     0.23836347
h     0.95584401     0.32608738     0.76163654
h     0.67391415     0.04415783     0.26163571
h     0.32608580     0.95584213     0.73836431
o     0.27286134     0.28327346     0.16990054
o     0.72713861     0.71672649     0.83009948
o     0.28327378     0.27286290     0.33010002
o     0.71672617     0.72713705     0.66990000
h     0.11133753     0.17820660     0.13490677
h     0.88866242     0.82179336     0.86509325
h     0.17820466     0.11133570     0.36509401
h     0.82179529     0.88866425     0.63490600
o     0.66714202     0.48206541     0.25330653
o     0.33285793     0.51793455     0.74669349
o     0.48206632     0.66714853     0.24669734
o     0.51793363     0.33285142     0.75330267
h     0.54006713     0.43278623     0.27153967
h     0.45993282     0.56721373     0.72846034
h     0.43278367     0.54006017     0.22845943
h     0.56721628     0.45993978     0.77154059
o     0.16886322     0.01721285     0.92481164
o     0.83113673     0.98278710     0.07518838
o     0.01721472     0.16886815     0.57518749
o     0.98278523     0.83113180     0.42481252
o     0.27825098     0.90832211     0.31547941
o     0.72174897     0.09167785     0.68452061
o     0.90833054     0.27825422     0.18452116
o     0.09166941     0.72174573     0.81547886
h     0.42693247     0.97371822     0.31698307
h     0.57306748     0.02628174     0.68301695
h     0.97372251     0.42693869     0.18301684
h     0.02627744     0.57306127     0.81698318
h     0.44845731     0.13760459     0.30424780
h     0.55154264     0.86239537     0.69575222
h     0.13759731     0.44845226     0.19575176
h     0.86240264     0.55154770     0.80424826

K_POINTS automatic
2 2 2 1 1 1

CELL_PARAMETERS cubic
   21.105107000000    -0.068757000000     0.485100000000
  -19.986208000000     6.781043000000    -0.485107000000
   -2.950694000000     0.491843000000    35.141928000000
