&control
 title='crystal',
 prefix='crystal',
 pseudo_dir='.',
 calculation='vc-relax',
/
&system
 ibrav=0,
 celldm(1)=1.0,
 nat=    84,
 ntyp=  3,
 ecutwfc=60.0,
 ecutrho=600.0,
 xdm=.true.,
 xdm_a1=0.4073,
 xdm_a2=2.4150,
/
&electrons
 conv_thr = 1d-8,
/
&ions
/
&cell
/
ATOMIC_SPECIES
h      1.007940 h.UPF
c     12.010700 c.UPF
o     15.999400 o.UPF

ATOMIC_POSITIONS crystal
o     0.69865651     0.22610873     0.48796526
o     0.19865651     0.27389127     0.51203473
o     0.30134350     0.77389126     0.48796526
o     0.80134351     0.72610873     0.51203473
h     0.63309456     0.18945955     0.56982576
h     0.13309456     0.31054045     0.43017423
h     0.36690545     0.81054044     0.56982576
h     0.86690546     0.68945955     0.43017423
o     0.44662289     0.25299539     0.41782744
o     0.94662288     0.24700461     0.58217255
o     0.55337713     0.74700461     0.41782744
o     0.05337713     0.75299539     0.58217255
h     0.35836333     0.27091855     0.39616154
h     0.85836333     0.22908145     0.60383845
h     0.64163668     0.72908145     0.39616154
h     0.14163669     0.77091855     0.60383845
o     0.35977193     0.37081958     0.03005576
o     0.85977193     0.12918042     0.96994423
o     0.64022808     0.62918042     0.03005576
o     0.14022809     0.87081958     0.96994423
h     0.33789421     0.41284299     0.87679524
h     0.83789421     0.08715701     0.12320474
h     0.66210580     0.58715701     0.87679524
h     0.16210581     0.91284299     0.12320474
o     0.74880073     0.50647542     0.61057124
o     0.24880073     0.99352458     0.38942875
o     0.25119928     0.49352458     0.61057124
o     0.75119929     0.00647542     0.38942875
h     0.81819646     0.53457114     0.48865007
h     0.31819646     0.96542886     0.51134992
h     0.18180355     0.46542886     0.48865007
h     0.68180356     0.03457114     0.51134992
o     0.90937533     0.43189058     0.79609990
o     0.40937533     0.06810942     0.20390008
o     0.09062468     0.56810941     0.79609990
o     0.59062469     0.93189058     0.20390008
c     0.70141390     0.39491180     0.93742557
c     0.20141390     0.10508820     0.06257441
c     0.29858611     0.60508819     0.93742557
c     0.79858612     0.89491180     0.06257441
c     0.74247393     0.33289638     0.13592112
c     0.24247393     0.16710362     0.86407886
c     0.25752608     0.66710362     0.13592112
c     0.75752609     0.83289638     0.86407886
h     0.84171570     0.32155059     0.16687389
h     0.34171570     0.17844941     0.83312609
h     0.15828431     0.67844941     0.16687389
h     0.65828432     0.82155059     0.83312609
c     0.65590583     0.28507082     0.29200210
c     0.15590583     0.21492918     0.70799789
c     0.34409418     0.71492918     0.29200210
c     0.84409419     0.78507082     0.70799789
c     0.52691417     0.29950112     0.25459480
c     0.02691416     0.20049888     0.74540519
c     0.47308585     0.70049888     0.25459480
c     0.97308585     0.79950112     0.74540519
c     0.48624091     0.36140809     0.05093536
c     0.98624090     0.13859191     0.94906463
c     0.51375911     0.63859190     0.05093536
c     0.01375911     0.86140809     0.94906463
c     0.57308128     0.40785254     0.88989741
c     0.07308128     0.09214746     0.11010258
c     0.42691873     0.59214745     0.88989741
c     0.92691874     0.90785254     0.11010258
h     0.54218216     0.45187708     0.71765671
h     0.04218216     0.04812292     0.28234328
h     0.45781785     0.54812292     0.71765671
h     0.95781786     0.95187708     0.28234328
c     0.79463077     0.44428273     0.77851169
c     0.29463077     0.05571727     0.22148830
c     0.20536924     0.55571727     0.77851169
c     0.70536925     0.94428273     0.22148830
o     0.07174425     0.40811780     0.32872017
o     0.57174425     0.09188220     0.67127981
o     0.92825576     0.59188220     0.32872017
o     0.42825577     0.90811780     0.67127981
h     0.02829542     0.41591339     0.12406010
h     0.52829541     0.08408661     0.87593989
h     0.97170460     0.58408661     0.12406010
h     0.47170460     0.91591339     0.87593989
h     0.00513479     0.41682587     0.49180174
h     0.50513478     0.08317413     0.50819825
h     0.99486523     0.58317413     0.49180174
h     0.49486523     0.91682587     0.50819825

K_POINTS automatic
2 2 2 1 1 1

CELL_PARAMETERS cubic
   20.189528000000     0.000000000000     0.000000000000
    0.000000000000    31.615904000000     0.000000000000
    0.000000000000     0.000000000000     7.919165000000
