&control
 title='crystal',
 prefix='crystal',
 pseudo_dir='.',
 calculation='vc-relax',
/
&system
 ibrav=0,
 celldm(1)=1.0,
 nat=   168,
 ntyp=  3,
 ecutwfc=60.0,
 ecutrho=600.0,
 xdm=.true.,
 xdm_a1=0.4073,
 xdm_a2=2.4150,
/
&electrons
 conv_thr = 1d-8,
/
&ions
/
&cell
/
ATOMIC_SPECIES
h      1.007940 h.UPF
c     12.010700 c.UPF
o     15.999400 o.UPF

ATOMIC_POSITIONS crystal
o     0.23078193     0.91036803     0.88406784
o     0.76921809     0.08963197     0.11593221
o     0.76921872     0.41036779     0.61593171
o     0.23078130     0.58963221     0.38406833
o     0.98382619     0.95670908     0.84132893
o     0.01617383     0.04329092     0.15867112
o     0.01617271     0.45670878     0.65867265
o     0.98382731     0.54329122     0.34132740
h     0.11231691     0.95932097     0.75575330
h     0.88768311     0.04067903     0.24424675
h     0.88768077     0.45932069     0.74424747
h     0.11231925     0.54067931     0.25575258
o     0.51014322     0.96913396     0.33569704
o     0.48985680     0.03086604     0.66430300
o     0.48985688     0.46913373     0.16430311
o     0.51014314     0.53086627     0.83569694
h     0.44676739     0.96323775     0.44108144
h     0.55323263     0.03676224     0.55891861
h     0.55323118     0.46323750     0.05891868
h     0.44676884     0.53676250     0.94108137
o     0.64614940     0.91661390     0.52388460
o     0.35385062     0.08338610     0.47611545
o     0.35384956     0.41661387     0.97611557
o     0.64615046     0.58338613     0.02388448
h     0.69168459     0.89631257     0.58218192
h     0.30831543     0.10368743     0.41781812
h     0.30831503     0.39631262     0.91781784
h     0.69168499     0.60368738     0.08218221
o     0.99096243     0.86931393     0.42994280
o     0.00903759     0.13068607     0.57005725
o     0.00903507     0.36931400     0.07005715
o     0.99096495     0.63068600     0.92994289
h     0.12936853     0.85536839     0.38568631
h     0.87063149     0.14463161     0.61431373
h     0.87063061     0.35536857     0.11431405
h     0.12936941     0.64463143     0.88568600
c     0.94925738     0.92675064     0.08316087
c     0.05074264     0.07324936     0.91683917
c     0.05074304     0.42675062     0.41683998
c     0.94925698     0.57324938     0.58316006
c     0.77962789     0.95051245     0.13651497
c     0.22037213     0.04948755     0.86348508
c     0.22037295     0.45051238     0.36348602
c     0.77962707     0.54948762     0.63651403
h     0.72763411     0.97225470     0.06513965
h     0.27236591     0.02774530     0.93486040
h     0.27236764     0.47225453     0.43486191
h     0.72763238     0.52774547     0.56513814
c     0.67908467     0.94618655     0.28369526
c     0.32091535     0.05381345     0.71630479
c     0.32091540     0.44618648     0.21630515
c     0.67908462     0.55381352     0.78369490
c     0.74928786     0.91867056     0.38110194
c     0.25071216     0.08132944     0.61889811
c     0.25071142     0.41867055     0.11889809
c     0.74928860     0.58132945     0.88110196
c     0.92239257     0.89523249     0.32820304
c     0.07760745     0.10476751     0.67179700
c     0.07760635     0.39523254     0.17179684
c     0.92239367     0.60476745     0.82820321
c     0.01805897     0.89923132     0.17923540
c     0.98194105     0.10076868     0.82076465
c     0.98194086     0.39923139     0.32076480
c     0.01805916     0.60076861     0.67923525
h     0.15000236     0.88088393     0.13902857
h     0.84999766     0.11911606     0.86097148
h     0.84999729     0.38088405     0.36097151
h     0.15000273     0.61911595     0.63902853
c     0.06728469     0.92994056     0.93002085
c     0.93271533     0.07005944     0.06997920
c     0.93271567     0.42994046     0.56998013
c     0.06728435     0.57005954     0.43001992
o     0.36419680     0.83286106     0.30477409
o     0.63580322     0.16713894     0.69522596
o     0.63580251     0.33286100     0.19522615
o     0.36419751     0.66713900     0.80477389
o     0.56359578     0.78415154     0.32801226
o     0.43640424     0.21584846     0.67198779
o     0.43640401     0.28415162     0.17198699
o     0.56359601     0.71584838     0.82801305
h     0.46925136     0.78351336     0.42882914
h     0.53074866     0.21648664     0.57117090
h     0.53074831     0.28351348     0.07117065
h     0.46925171     0.71648652     0.92882940
o     0.04926822     0.77119392     0.84267419
o     0.95073180     0.22880608     0.15732586
o     0.95073132     0.27119424     0.65732544
o     0.04926870     0.72880576     0.34267460
h     0.09638091     0.75381535     0.92769722
h     0.90361911     0.24618465     0.07230283
h     0.90361904     0.25381566     0.57230271
h     0.09638098     0.74618434     0.42769734
o     0.92339242     0.82327667     0.65339720
o     0.07660760     0.17672333     0.34660285
o     0.07660737     0.32327696     0.84660256
o     0.92339265     0.67672304     0.15339749
h     0.88069041     0.84362012     0.59474733
h     0.11930961     0.15637988     0.40525272
h     0.11930881     0.34362036     0.90525251
h     0.88069121     0.65637964     0.09474754
o     0.59101480     0.87148094     0.74861097
o     0.40898522     0.12851906     0.25138908
o     0.40898506     0.37148114     0.75138794
o     0.59101496     0.62851886     0.24861211
h     0.45878913     0.88595590     0.79384061
h     0.54121089     0.11404410     0.20615944
h     0.54121095     0.38595590     0.70615811
h     0.45878907     0.61404410     0.29384193
c     0.61939951     0.81505025     0.09644587
c     0.38060051     0.18494974     0.90355418
c     0.38060038     0.31505020     0.40355380
c     0.61939964     0.68494980     0.59644625
c     0.78471232     0.79077273     0.04544628
c     0.21528770     0.20922727     0.95455377
c     0.21528752     0.29077285     0.45455371
c     0.78471250     0.70922715     0.54544634
h     0.83498333     0.76943869     0.12068094
h     0.16501669     0.23056131     0.87931911
h     0.16501615     0.26943886     0.37931904
h     0.83498387     0.73056114     0.62068100
c     0.88747934     0.79400809     0.89803980
c     0.11252068     0.20599191     0.10196025
c     0.11252039     0.29400829     0.60195994
c     0.88747963     0.70599171     0.39804011
c     0.82211945     0.82142424     0.79843113
c     0.17788057     0.17857576     0.20156891
c     0.17788011     0.32142443     0.70156885
c     0.82211991     0.67857557     0.29843120
c     0.65428407     0.84549860     0.85029972
c     0.34571595     0.15450139     0.14970033
c     0.34571600     0.34549880     0.64970038
c     0.65428402     0.65450120     0.35029967
c     0.55660101     0.84238698     0.99934802
c     0.44339901     0.15761302     0.00065203
c     0.44339889     0.34238695     0.50065160
c     0.55660113     0.65761305     0.49934844
h     0.42969409     0.86135517     0.03806463
h     0.57030593     0.13864483     0.96193542
h     0.57030535     0.36135512     0.46193488
h     0.42969467     0.63864488     0.53806517
c     0.50372669     0.81199303     0.25030911
c     0.49627333     0.18800697     0.74969093
c     0.49627330     0.31199310     0.24969091
c     0.50372672     0.68800690     0.75030914
o     0.26062210     0.77596506     0.55769253
o     0.73937792     0.22403494     0.44230752
o     0.73937833     0.27596520     0.94230726
o     0.26062169     0.72403480     0.05769279
h     0.33443623     0.76803030     0.67406180
h     0.66556379     0.23196970     0.32593825
h     0.66556397     0.26803041     0.82593824
h     0.33443605     0.73196959     0.17406181
h     0.12492669     0.79329638     0.57296768
h     0.87507333     0.20670362     0.42703237
h     0.87507338     0.29329649     0.92703172
h     0.12492664     0.70670351     0.07296833
o     0.36181746     0.96955552     0.64702187
o     0.63818256     0.03044448     0.35297818
o     0.63817855     0.46955564     0.85297701
o     0.36182147     0.53044436     0.14702304
h     0.55446695     0.96032859     0.71277329
h     0.44553307     0.03967141     0.28722676
h     0.44552935     0.46032883     0.78722604
h     0.55447067     0.53967117     0.21277400
h     0.39733761     0.99256700     0.66060004
h     0.60266241     0.00743300     0.33940001
h     0.60265939     0.49256707     0.83939894
h     0.39734063     0.50743293     0.16060111

K_POINTS automatic
2 2 2 1 1 1

CELL_PARAMETERS cubic
    8.555951000000     0.000008000000    -0.121826000000
    0.000078000000    80.673155000000     0.000016000000
   -3.615566000000    -0.000001000000    14.831178000000
