&control
 title='crystal',
 prefix='crystal',
 pseudo_dir='.',
 calculation='vc-relax',
/
&system
 ibrav=0,
 celldm(1)=1.0,
 nat=    42,
 ntyp=  3,
 ecutwfc=60.0,
 ecutrho=600.0,
 xdm=.true.,
 xdm_a1=0.4073,
 xdm_a2=2.4150,
/
&electrons
 conv_thr = 1d-8,
/
&ions
/
&cell
/
ATOMIC_SPECIES
h      1.007940 h.UPF
c     12.010700 c.UPF
o     15.999400 o.UPF

ATOMIC_POSITIONS crystal
c     0.26524088     0.68761894     0.45295649
c     0.73475914     0.31238112     0.54704353
c     0.16441202     0.49792021     0.59836358
c     0.83558799     0.50207985     0.40163643
c     0.18163142     0.37407147     0.65196527
c     0.81836859     0.62592860     0.34803474
c     0.29861495     0.43651686     0.55796936
c     0.70138507     0.56348320     0.44203065
c     0.39917785     0.62657620     0.40887356
c     0.60082216     0.37342386     0.59112645
c     0.38161209     0.75149891     0.36485215
c     0.61838793     0.24850115     0.63514787
h     0.07388477     0.44819682     0.66725635
h     0.92611525     0.55180325     0.33274367
h     0.45948239     0.89850860     0.25140602
h     0.54051763     0.10149147     0.74859399
c     0.25235444     0.82297813     0.37065570
c     0.74764558     0.17702194     0.62934431
o     0.13896466     0.74832472     0.44985547
o     0.86103535     0.25167534     0.55014454
h     0.14023620     0.84874139     0.36021735
h     0.85976382     0.15125867     0.63978266
o     0.08813637     0.18591466     0.79243182
o     0.91186365     0.81408540     0.20756819
h     0.01065362     0.14562210     0.80103242
h     0.98934640     0.85437796     0.19896759
o     0.51187411     0.67875565     0.30607452
o     0.48812590     0.32124442     0.69392550
h     0.57622754     0.80619638     0.12710890
h     0.42377247     0.19380369     0.87289111
o     0.31019312     0.30702190     0.60690665
o     0.68980690     0.69297816     0.39309336
h     0.39510117     0.36414586     0.53424515
h     0.60489885     0.63585421     0.46575486
o     0.33908611     0.99175221     0.23731206
o     0.66091391     0.00824785     0.76268796
o     0.12287290     0.98368494     0.22633179
o     0.87712712     0.01631512     0.77366822
h     0.11084268     0.05303919     0.45162222
h     0.88915734     0.94696087     0.54837779
h     0.19174721     0.08410299     0.97358263
h     0.80825280     0.91589708     0.02641738

K_POINTS automatic
2 2 2 1 1 1

CELL_PARAMETERS cubic
   29.383637000000     0.469617000000    -0.113919000000
  -11.077251000000    13.694152000000     0.510501000000
    2.935121000000     1.082213000000     6.000306000000
