&control
 title='crystal',
 prefix='crystal',
 pseudo_dir='.',
 calculation='vc-relax',
/
&system
 ibrav=0,
 celldm(1)=1.0,
 nat=    84,
 ntyp=  3,
 ecutwfc=60.0,
 ecutrho=600.0,
 xdm=.true.,
 xdm_a1=0.4073,
 xdm_a2=2.4150,
/
&electrons
 conv_thr = 1d-8,
/
&ions
/
&cell
/
ATOMIC_SPECIES
h      1.007940 h.UPF
c     12.010700 c.UPF
o     15.999400 o.UPF

ATOMIC_POSITIONS crystal
o     0.28429074     0.25042626     0.84054247
o     0.71570912     0.74957374     0.15945753
o     0.28429402     0.24956954     0.34054136
o     0.71570585     0.75043047     0.65945864
o     0.04397020     0.40665961     0.90389624
o     0.95602966     0.59334039     0.09610376
o     0.04397348     0.09333619     0.40389513
o     0.95602638     0.90666382     0.59610487
o     0.22399116     0.41174247     0.08368365
o     0.77600870     0.58825753     0.91631635
o     0.22399444     0.08825333     0.58368254
o     0.77600542     0.91174668     0.41631745
h     0.28057227     0.40329231     0.14849017
h     0.71942759     0.59670769     0.85150983
h     0.28057555     0.09670349     0.64848906
h     0.71942431     0.90329652     0.35151094
o     0.03464000     0.01452305     0.11017159
o     0.96535986     0.98547695     0.88982841
o     0.03464327     0.48547274     0.61017048
o     0.96535659     0.51452726     0.38982951
h     0.24105575     0.97079394     0.16298967
h     0.75894411     0.02920606     0.83701033
h     0.24105903     0.52920186     0.66298856
h     0.75894083     0.47079815     0.33701144
o     0.02350072     0.08441352     0.22937829
o     0.97649914     0.91558648     0.77062171
o     0.02350400     0.41558228     0.72937718
o     0.97649586     0.58441773     0.27062282
c     0.69302302     0.17059207     0.08211534
c     0.30697685     0.82940793     0.91788466
c     0.69302629     0.32940372     0.58211423
c     0.30697357     0.67059628     0.41788577
c     0.60009607     0.17089061     0.98988972
c     0.39990379     0.82910939     0.01011028
c     0.60009935     0.32910519     0.48988861
c     0.39990051     0.67089482     0.51011139
h     0.70533675     0.10986651     0.96536166
h     0.29466312     0.89013349     0.03463834
h     0.70534002     0.39012928     0.46536055
h     0.29465984     0.60987072     0.53463945
c     0.38127835     0.25071181     0.93114648
c     0.61872152     0.74928819     0.06885352
c     0.38128162     0.24928398     0.43114537
c     0.61871824     0.75071602     0.56885463
c     0.25752196     0.33153069     0.96412630
c     0.74247790     0.66846931     0.03587370
c     0.25752524     0.16846510     0.46412519
c     0.74247462     0.83153490     0.53587481
c     0.35506480     0.33093990     0.05698470
c     0.64493506     0.66906010     0.94301530
c     0.35506807     0.16905589     0.55698359
c     0.64493179     0.83094411     0.44301641
c     0.56793657     0.25056977     0.11536291
c     0.43206329     0.74943023     0.88463709
c     0.56793985     0.24942602     0.61536180
c     0.43206001     0.75057398     0.38463820
h     0.63297298     0.24899621     0.18624104
h     0.36702688     0.75100379     0.81375895
h     0.63297625     0.25099958     0.68623993
h     0.36702361     0.74900043     0.31376006
c     0.92745778     0.08830606     0.14603807
c     0.07254208     0.91169394     0.85396193
c     0.92746105     0.41168974     0.64603696
c     0.07253881     0.58831027     0.35396304
h     0.97314618     0.46009398     0.93327668
h     0.02685368     0.53990602     0.06672332
h     0.97314946     0.03990182     0.43327557
h     0.02685041     0.96009819     0.56672443
h     0.17733347     0.31711106     0.80790798
h     0.82266639     0.68288894     0.19209201
h     0.17733675     0.18288473     0.30790688
h     0.82266312     0.81711527     0.69209312
o     0.34382621     0.08418122     0.75389344
o     0.65617365     0.91581878     0.24610655
o     0.34382949     0.41581457     0.25389233
o     0.65617037     0.58418543     0.74610766
h     0.15774365     0.03001276     0.74795754
h     0.84225621     0.96998724     0.25204246
h     0.15774693     0.46998304     0.24795643
h     0.84225293     0.53001697     0.75204357
h     0.29723653     0.14510498     0.78167727
h     0.70276333     0.85489502     0.21832272
h     0.29723981     0.35489081     0.28167616
h     0.70276006     0.64510919     0.71832383

K_POINTS automatic
2 2 2 1 1 1

CELL_PARAMETERS cubic
    7.550193000000     0.000001000000     0.252353000000
   -0.000011000000    24.782903000000    -0.000001000000
  -17.989328000000    -0.000010000000    26.530222000000
