&control
 title='crystal',
 prefix='crystal',
 pseudo_dir='.',
 calculation='vc-relax',
/
&system
 ibrav=0,
 celldm(1)=1.0,
 nat=    42,
 ntyp=  3,
 ecutwfc=60.0,
 ecutrho=600.0,
 xdm=.true.,
 xdm_a1=0.4073,
 xdm_a2=2.4150,
/
&electrons
 conv_thr = 1d-8,
/
&ions
/
&cell
/
ATOMIC_SPECIES
h      1.007940 h.UPF
c     12.010700 c.UPF
o     15.999400 o.UPF

ATOMIC_POSITIONS crystal
o     0.39159631     0.36693796     0.62359747
o     0.60840371     0.86693797     0.37640256
o     0.53039648     0.55548111     0.56486607
o     0.46960354     0.05548112     0.43513395
o     0.73624148     0.16460075     0.82994378
o     0.26375854     0.66460076     0.17005625
o     0.94850511     0.32989189     0.49824543
o     0.05149491     0.82989190     0.50175460
o     0.97107345     0.56966780     0.63594125
o     0.02892657     0.06966780     0.36405878
c     0.64005367     0.42353257     0.22543850
c     0.35994635     0.92353258     0.77456153
c     0.63707843     0.30516129     0.15024536
c     0.36292158     0.80516130     0.84975467
c     0.74521717     0.27884665     0.90521266
c     0.25478285     0.77884666     0.09478737
c     0.85815068     0.36719476     0.73085104
c     0.14184934     0.86719477     0.26914899
c     0.86096180     0.48517356     0.80995525
c     0.13903822     0.98517357     0.19004478
c     0.75344275     0.51277658     0.05541777
c     0.24655727     0.01277659     0.94458226
c     0.51876758     0.45659928     0.48467480
c     0.48123244     0.95659929     0.51532523
h     0.32032928     0.39465934     0.79608566
h     0.67967074     0.89465935     0.20391437
h     0.55368019     0.23423628     0.27984883
h     0.44631983     0.73423629     0.72015120
h     0.81497187     0.15962581     0.65333990
h     0.18502815     0.65962582     0.34666013
h     0.03614647     0.39066763     0.37295460
h     0.96385355     0.89066764     0.62704543
h     0.91979857     0.64943108     0.70090221
h     0.08020145     0.14943109     0.29909782
h     0.75261764     0.60418814     0.11771662
h     0.24738238     0.10418815     0.88228341
o     0.23434049     0.43170019     0.09191631
o     0.76565953     0.93170020     0.90808372
h     0.36996986     0.40884055     0.10919154
h     0.63003016     0.90884056     0.89080849
h     0.24247487     0.52038694     0.08396281
h     0.75752515     0.02038695     0.91603722

K_POINTS automatic
2 2 2 1 1 1

CELL_PARAMETERS cubic
   12.516137000000     0.000000000000    -0.181165000000
    0.000000000000    21.106438000000     0.000000000000
    5.258566000000     0.000000000000    10.373470000000
