&control
 title='crystal',
 prefix='crystal',
 pseudo_dir='.',
 calculation='vc-relax',
/
&system
 ibrav=0,
 celldm(1)=1.0,
 nat=    84,
 ntyp=  3,
 ecutwfc=60.0,
 ecutrho=600.0,
 xdm=.true.,
 xdm_a1=0.4073,
 xdm_a2=2.4150,
/
&electrons
 conv_thr = 1d-8,
/
&ions
/
&cell
/
ATOMIC_SPECIES
h      1.007940 h.UPF
c     12.010700 c.UPF
o     15.999400 o.UPF

ATOMIC_POSITIONS crystal
c     0.27722058     0.25171998     0.03110156
c     0.72277936     0.74828001     0.96889856
c     0.32294352     0.01099933     0.84910208
c     0.67705641     0.98900067     0.15089805
c     0.27696682     0.09623210     0.88281548
c     0.72303311     0.90376789     0.11718465
c     0.18960388     0.41950691     0.08969770
c     0.81039605     0.58049308     0.91030243
c     0.14123600     0.65890994     0.27671794
c     0.85876394     0.34109005     0.72328218
c     0.18431448     0.57624760     0.24866125
c     0.81568545     0.42375239     0.75133887
h     0.39297593     0.76047213     0.68458247
h     0.60702401     0.23952787     0.31541766
h     0.14474667     0.76116291     0.39734218
h     0.85525327     0.23883709     0.60265794
c     0.32045680     0.17716037     0.00895814
c     0.67954313     0.82283963     0.99104199
o     0.41223529     0.86913749     0.79447772
o     0.58776464     0.13086250     0.20552241
h     0.43466416     0.85192275     0.80079375
h     0.56533578     0.14807724     0.19920637
o     0.31462486     0.86671410     0.71818656
o     0.68537508     0.13328590     0.28181356
h     0.28724604     0.95453844     0.73953928
h     0.71275389     0.04546156     0.26046085
o     0.05047616     0.96538715     0.48194239
o     0.94952377     0.03461284     0.51805773
h     0.03128594     0.12760055     0.58665331
h     0.96871399     0.87239945     0.41334682
o     0.15165943     0.49153864     0.10750470
o     0.84834050     0.50846135     0.89249543
h     0.08709231     0.72513991     0.26659283
h     0.91290762     0.27486009     0.73340729
o     0.27300619     0.38796750     0.18385097
o     0.72699374     0.61203250     0.81614915
c     0.27964196     0.53336424     0.52651276
c     0.72035798     0.46663576     0.47348736
c     0.32281269     0.32269656     0.34931072
c     0.67718724     0.67730344     0.65068941
c     0.27510063     0.09826840     0.38630302
c     0.72489931     0.90173160     0.61369711
c     0.18839849     0.07796285     0.59192445
c     0.81160144     0.92203715     0.40807568
c     0.14277533     0.29394945     0.77382249
c     0.85722460     0.70605055     0.22617763
c     0.18765590     0.52102591     0.74238015
c     0.81234403     0.47897409     0.25761997
h     0.39222256     0.33573432     0.18595481
h     0.60777738     0.66426568     0.81404532
h     0.15015489     0.69162377     0.88722548
h     0.84984504     0.30837623     0.11277465
c     0.32443359     0.77734257     0.50138612
c     0.67556634     0.22265743     0.49861400
o     0.41578094     0.77777075     0.28757490
o     0.58421899     0.22222924     0.71242522
h     0.43898955     0.95438328     0.29234092
h     0.56101039     0.04561672     0.70765920
o     0.31030371     0.89756631     0.22634300
o     0.68969622     0.10243368     0.77365712
h     0.28251395     0.73092004     0.24835209
h     0.71748598     0.26907996     0.75164804
o     0.05265387     0.26342772     0.97786875
o     0.94734606     0.73657228     0.02213137
h     0.03490769     0.40353056     0.07977562
h     0.96509225     0.59646944     0.92022451
o     0.14839494     0.85163810     0.61358343
o     0.85160500     0.14836190     0.38641669
h     0.08449264     0.86657683     0.77142546
h     0.91550729     0.13342317     0.22857466
o     0.27850700     0.98083930     0.67347767
o     0.72149293     0.01916069     0.32652246
o     0.50237112     0.21338503     0.24531983
o     0.49762882     0.78661497     0.75468029
h     0.42457131     0.44957142     0.43404364
h     0.57542863     0.55042858     0.56595649
h     0.58005148     0.16163905     0.05695513
h     0.41994845     0.83836095     0.94304499
o     0.00248267     0.54600921     0.24520609
o     0.99751726     0.45399079     0.75479403
h     0.90204462     0.54451303     0.44148917
h     0.09795531     0.45548697     0.55851095
h     0.10309596     0.36218723     0.04866059
h     0.89690398     0.63781277     0.95133953

K_POINTS automatic
2 2 2 1 1 1

CELL_PARAMETERS cubic
   69.193488000000     0.305607000000    -0.102840000000
   -6.754334000000    10.416632000000     0.008451000000
   36.465635000000    -6.046754000000     7.104945000000
