&control
 title='crystal',
 prefix='crystal',
 pseudo_dir='.',
 calculation='vc-relax',
/
&system
 ibrav=0,
 celldm(1)=1.0,
 nat=    21,
 ntyp=  3,
 ecutwfc=60.0,
 ecutrho=600.0,
 xdm=.true.,
 xdm_a1=0.4073,
 xdm_a2=2.4150,
/
&electrons
 conv_thr = 1d-8,
/
&ions
/
&cell
/
ATOMIC_SPECIES
h      1.007940 h.UPF
c     12.010700 c.UPF
o     15.999400 o.UPF

ATOMIC_POSITIONS crystal
o     0.04260007     0.83673055     0.03844391
o     0.60706689     0.73369824     0.94110599
o     0.16867171     0.70376037     0.43286365
o     0.52177831     0.31792901     0.46419454
o     0.84514294     0.03788848     0.29251904
c     0.85190787     0.83190687     0.92863022
c     0.04756946     0.80554025     0.69063857
c     0.68960504     0.08594858     0.69028679
c     0.85737901     0.00956068     0.45097365
c     0.68996278     0.14225397     0.53302686
c     0.03215398     0.83788911     0.52938582
c     0.86800790     0.92121743     0.76844880
o     0.48901650     0.32731444     0.13949381
h     0.58879610     0.61489440     0.03511418
h     0.96487324     0.92352957     0.24692520
h     0.51489257     0.32238971     0.34776029
h     0.28869165     0.58350926     0.48967193
h     0.54967717     0.17422474     0.75032061
h     0.18260186     0.67270307     0.75142432
h     0.62907098     0.20640190     0.16342380
h     0.33429403     0.16873031     0.08425832

K_POINTS automatic
2 2 2 1 1 1

CELL_PARAMETERS cubic
   10.087795000000     0.293769000000     0.406852000000
   -1.604866000000     8.082503000000    -0.326276000000
   -3.726599000000    -1.732924000000    15.660228000000
