&control
 title='crystal',
 prefix='crystal',
 pseudo_dir='.',
 calculation='vc-relax',
/
&system
 ibrav=0,
 celldm(1)=1.0,
 nat=    80,
 ntyp=  4,
 ecutwfc=60.0,
 ecutrho=600.0,
 xdm=.true.,
 xdm_a1=0.4073,
 xdm_a2=2.4150,
/
&electrons
 conv_thr = 1d-8,
/
&ions
/
&cell
/
ATOMIC_SPECIES
h      1.007940 h.UPF
c     12.010700 c.UPF
n     14.006700 n.UPF
o     15.999400 o.UPF

ATOMIC_POSITIONS crystal
n     0.14913389     0.99584382     0.98899326
n     0.64913385     0.50415606     0.01100676
n     0.85086705     0.49584437     0.51100623
n     0.35086707     0.00415552     0.48899374
c     0.13031733     0.88464495     0.85295249
c     0.63031729     0.61535493     0.14704752
c     0.86968361     0.38464550     0.64704700
c     0.36968362     0.11535439     0.35295297
c     0.26319120     0.79683888     0.84334624
c     0.76319116     0.70316100     0.15665378
c     0.73680973     0.29683944     0.65665325
c     0.23680975     0.20316046     0.34334672
o     0.35115355     0.80191669     0.96481586
o     0.85115351     0.69808319     0.03518416
o     0.64884739     0.30191725     0.53518363
o     0.14884741     0.19808265     0.46481634
n     0.27525044     0.71594649     0.69603848
n     0.77525040     0.78405339     0.30396153
n     0.72475049     0.21594705     0.80396101
n     0.22475051     0.28405285     0.19603897
c     0.38940649     0.61746840     0.67769145
c     0.88940645     0.88253148     0.32230857
c     0.61059445     0.11746895     0.82230804
c     0.11059446     0.38253094     0.17769193
c     0.35311743     0.50534740     0.53822714
c     0.85311739     0.99465248     0.46177287
c     0.64688350     0.00534795     0.96177235
c     0.14688352     0.49465194     0.03822762
c     0.52840018     0.68496205     0.62245316
c     0.02840014     0.81503782     0.37754685
c     0.47160076     0.18496261     0.87754633
c     0.97160077     0.31503728     0.12245364
o     0.63677392     0.62317370     0.67853602
o     0.13677388     0.87682618     0.32146400
o     0.36322701     0.12317426     0.82146347
o     0.86322703     0.37682564     0.17853650
o     0.53106663     0.78814673     0.51485515
o     0.03106659     0.71185315     0.48514486
o     0.46893430     0.28814728     0.98514434
o     0.96893432     0.21185261     0.01485564
h     0.15233763     0.95149623     0.11844645
h     0.65233759     0.54850365     0.88155356
h     0.84766330     0.45149678     0.38155303
h     0.34766332     0.04850311     0.61844694
h     0.24043142     0.04990988     0.95768376
h     0.74043137     0.45009000     0.04231625
h     0.75956952     0.54991044     0.54231573
h     0.25956954     0.95008946     0.45768424
h     0.07171590     0.07400405     0.98863923
h     0.57171586     0.42599583     0.01136079
h     0.92828504     0.57400461     0.51136026
h     0.42828506     0.92599529     0.48863971
h     0.04219621     0.81776368     0.89033271
h     0.54219617     0.68223620     0.10966730
h     0.95780473     0.31776423     0.60966678
h     0.45780475     0.18223566     0.39033319
h     0.10713201     0.93375968     0.72363599
h     0.60713197     0.56624019     0.27636402
h     0.89286893     0.43376024     0.77636350
h     0.39286895     0.06623965     0.22363647
h     0.19371430     0.71146514     0.60569012
h     0.69371426     0.78853474     0.39430990
h     0.80628664     0.21146569     0.89430937
h     0.30628665     0.28853420     0.10569060
h     0.40637213     0.56676340     0.80793765
h     0.90637209     0.93323648     0.19206236
h     0.59362881     0.06676395     0.69206184
h     0.09362883     0.43323594     0.30793813
h     0.33316906     0.55460162     0.40771037
h     0.83316902     0.94539825     0.59228964
h     0.66683188     0.05460218     0.09228912
h     0.16683190     0.44539771     0.90771086
h     0.43890767     0.43065725     0.52560825
h     0.93890763     0.06934263     0.47439176
h     0.56109327     0.93065781     0.97439124
h     0.06109328     0.56934209     0.02560873
h     0.26042964     0.44725621     0.57953474
h     0.76042960     0.05274367     0.42046527
h     0.73957130     0.94725676     0.92046475
h     0.23957132     0.55274313     0.07953522

K_POINTS automatic
2 2 2 1 1 1

CELL_PARAMETERS cubic
   18.256936000000     0.000002000000    -0.000010000000
    0.000002000000    17.971175000000    -0.000001000000
   -0.000008000000     0.000000000000    14.101093000000
