&control
 title='crystal',
 prefix='crystal',
 pseudo_dir='.',
 calculation='vc-relax',
/
&system
 ibrav=0,
 celldm(1)=1.0,
 nat=    44,
 ntyp=  5,
 ecutwfc=60.0,
 ecutrho=600.0,
 xdm=.true.,
 xdm_a1=0.4073,
 xdm_a2=2.4150,
/
&electrons
 conv_thr = 1d-8,
/
&ions
/
&cell
/
ATOMIC_SPECIES
h      1.007940 h.UPF
c     12.010700 c.UPF
n     14.006700 n.UPF
o     15.999400 o.UPF
s     32.065000 s.UPF

ATOMIC_POSITIONS crystal
s     0.26582933     0.95538746     0.03544401
s     0.04461549     0.73417552     0.53544743
n     0.30501536     0.80848601     0.01310686
n     0.19151304     0.69498408     0.51310671
o     0.97430611     0.74681203     0.03496876
o     0.25318480     0.02568945     0.53496844
o     0.43850671     0.12312844     0.15866892
o     0.87687558     0.56149768     0.65866678
o     0.07381858     0.55514702     0.92608238
o     0.44485270     0.92618119     0.42608156
c     0.07393612     0.52827411     0.07407782
c     0.47172722     0.92606590     0.57407797
c     0.12861921     0.43291853     0.13354997
c     0.56708184     0.87138090     0.63355007
c     0.95407971     0.22867950     0.23850364
c     0.77131855     0.04591885     0.73850306
c     0.00042991     0.13502642     0.29837595
c     0.86497510     0.99957235     0.79837711
c     0.22023932     0.24485856     0.25308871
c     0.75514137     0.77975910     0.75308915
c     0.39447606     0.44855230     0.14782906
c     0.55144582     0.60552166     0.64782789
c     0.34899857     0.54274493     0.08779679
c     0.45725491     0.65100236     0.58779627
c     0.42778569     0.16626572     0.88490643
c     0.83373362     0.57221341     0.38490570
h     0.91213566     0.44711869     0.12441251
h     0.55288231     0.08786517     0.62441174
h     0.78155985     0.14214990     0.27284657
h     0.85784979     0.21844012     0.77284691
h     0.86483244     0.97683309     0.38040676
h     0.02316495     0.13516574     0.88040668
h     0.25647674     0.17199043     0.29982873
h     0.82800819     0.74352295     0.79982820
h     0.56811339     0.53636206     0.11410307
h     0.46363795     0.43188740     0.61410280
h     0.48446634     0.70241306     0.00650321
h     0.29758682     0.51553389     0.50650260
h     0.30100357     0.03034938     0.79511531
h     0.96964957     0.69899571     0.29511561
h     0.43129186     0.28259155     0.89481270
h     0.71740774     0.56870764     0.39481315
h     0.63996815     0.30917316     0.88078586
h     0.69082734     0.36003255     0.38078624

K_POINTS automatic
2 2 2 1 1 1

CELL_PARAMETERS cubic
   18.101765000000    -0.011305000000     0.202082000000
  -15.663320000000     9.073809000000    -0.202076000000
   -1.169991000000     0.314819000000    18.219099000000
