&control
 title='crystal',
 prefix='crystal',
 pseudo_dir='.',
 calculation='vc-relax',
/
&system
 ibrav=0,
 celldm(1)=1.0,
 nat=    88,
 ntyp=  4,
 ecutwfc=60.0,
 ecutrho=600.0,
 xdm=.true.,
 xdm_a1=0.4073,
 xdm_a2=2.4150,
/
&electrons
 conv_thr = 1d-8,
/
&ions
/
&cell
/
ATOMIC_SPECIES
h      1.007940 h.UPF
c     12.010700 c.UPF
n     14.006700 n.UPF
o     15.999400 o.UPF

ATOMIC_POSITIONS crystal
n     0.51344632     0.21796558     0.08596935
n     0.48655367     0.78203442     0.91403064
n     0.01344628     0.28203442     0.58596933
n     0.98655371     0.71796558     0.41403066
o     0.93831627     0.29043929     0.31319686
o     0.06168372     0.70956070     0.68680313
o     0.43831624     0.20956071     0.81319684
o     0.56168375     0.79043929     0.18680315
h     0.96773884     0.28581819     0.41350010
h     0.03226115     0.71418181     0.58649989
h     0.46773881     0.21418181     0.91350008
h     0.53226118     0.78581819     0.08649991
c     0.56975288     0.22014395     0.34217536
c     0.43024711     0.77985604     0.65782463
c     0.06975284     0.27985605     0.84217534
c     0.93024715     0.72014395     0.15782465
h     0.59531622     0.22105736     0.45123534
h     0.40468377     0.77894264     0.54876465
h     0.09531618     0.27894264     0.95123532
h     0.90468381     0.72105736     0.04876467
c     0.47923729     0.35080157     0.29347052
c     0.52076270     0.64919842     0.70652947
c     0.97923726     0.14919843     0.79347050
c     0.02076273     0.85080157     0.20652949
h     0.58926983     0.42886097     0.32307936
h     0.41073016     0.57113902     0.67692063
h     0.08926980     0.07113903     0.82307934
h     0.91073019     0.92886097     0.17692065
h     0.32912474     0.36929116     0.33937979
h     0.67087525     0.63070883     0.66062020
h     0.82912470     0.13070884     0.83937977
h     0.17087529     0.86929116     0.16062022
c     0.41770364     0.11017778     0.29923401
c     0.58229635     0.88982221     0.70076598
c     0.91770360     0.38982222     0.79923399
c     0.08229639     0.61017778     0.20076600
h     0.26600600     0.12439401     0.34521927
h     0.73399399     0.87560598     0.65478072
h     0.76600597     0.37560599     0.84521925
h     0.23399402     0.62439401     0.15478074
h     0.48206059     0.01574694     0.33202930
h     0.51793940     0.98425305     0.66797069
h     0.98206055     0.48425306     0.83202928
h     0.01793944     0.51574694     0.16797071
c     0.44519405     0.34461708     0.13948338
c     0.55480594     0.65538292     0.86051661
c     0.94519402     0.15538292     0.63948336
c     0.05480597     0.84461708     0.36051663
h     0.27803505     0.35766255     0.10974413
h     0.72196494     0.64233745     0.89025586
h     0.77803502     0.14233745     0.60974411
h     0.22196497     0.85766255     0.39025588
h     0.53483891     0.42069469     0.09028190
h     0.46516108     0.57930530     0.90971809
h     0.03483888     0.07930531     0.59028188
h     0.96516112     0.92069469     0.40971811
c     0.38775603     0.11277238     0.14470823
c     0.61224396     0.88722761     0.85529176
c     0.88775600     0.38722762     0.64470821
c     0.11224400     0.61277238     0.35529178
h     0.43852624     0.02052164     0.10208418
h     0.56147375     0.97947835     0.89791581
h     0.93852620     0.47947836     0.60208415
h     0.06147379     0.52052164     0.39791583
h     0.22199341     0.12880548     0.11278684
h     0.77800658     0.87119451     0.88721315
h     0.72199337     0.37119452     0.61278682
h     0.27800662     0.62880548     0.38721317
c     0.78151187     0.19566877     0.27798243
c     0.21848812     0.80433123     0.72201756
c     0.28151183     0.30433123     0.77798241
c     0.71848816     0.69566877     0.22201758
h     0.83828658     0.09830318     0.30921439
h     0.16171341     0.90169681     0.69078560
h     0.33828654     0.40169682     0.80921437
h     0.66171345     0.59830318     0.19078562
c     0.73911327     0.19834050     0.12442682
c     0.26088672     0.80165949     0.87557317
c     0.23911324     0.30165950     0.62442679
c     0.76088675     0.69834050     0.37557319
h     0.82838825     0.27935027     0.08388105
h     0.17161174     0.72064972     0.91611894
h     0.32838821     0.22064973     0.58388103
h     0.67161178     0.77935027     0.41611896
h     0.79095437     0.10818193     0.07760043
h     0.20904562     0.89181806     0.92239956
h     0.29095434     0.39181807     0.57760041
h     0.70904565     0.60818193     0.42239958

K_POINTS automatic
2 2 2 1 1 1

CELL_PARAMETERS cubic
   11.992397000000     0.000000000000     0.014412000000
    0.000000000000    19.453175000000     0.000000000000
   -0.943843000000     0.000000000000    18.906541000000
