memory 2 GB
set_num_threads(6)

molecule c10h8_c10h8_tc_1 {
0 1
C 0.000000 2.432586 3.307294
C 0.000000 1.241615 4.003478
C 0.000000 0.000000 3.316361
C 0.000000 0.000000 1.883640
C 0.000000 1.241615 1.196523
C 0.000000 2.432586 1.892707
H 0.000000 -1.240768 5.092688
H 0.000000 3.377142 3.846550
H 0.000000 1.240768 5.092688
C 0.000000 -1.241615 4.003478
C 0.000000 -1.241615 1.196523
H 0.000000 1.240768 0.107313
H 0.000000 3.377142 1.353451
C 0.000000 -2.432586 1.892707
C 0.000000 -2.432586 3.307294
H 0.000000 -1.240768 0.107313
H 0.000000 -3.377142 1.353451
H 0.000000 -3.377142 3.846550
units angstrom
no_reorient
symmetry c1
}

set scf {
  scf_type df
  dft_spherical_points 590
  dft_radial_points 99
}

set {
 basis aug-cc-pvtz
 puream false
 writer_file_label c10h8_c10h8_tc_1
 molden_write true
}

energy('b86bpbe')
