%nprocs=6
%mem=4GB
#p pbepbe aug-cc-pvtz output=wfx scf=(conver=6) int=(grid=ultrafine)

title

0 1
H	3.377142 -1.246551 -2.600000
C	2.432586 -0.707295 -2.600000
C	1.241615 -1.403478 -2.600000
C	2.432586 0.707295 -2.600000
C	0.000000 -0.716361 -2.600000
H	1.240767 -2.492688 -2.600000
C	1.241615 1.403478 -2.600000
H	3.377142 1.246551 -2.600000
C	0.000000 0.716361 -2.600000
C	-1.241615 -1.403478 -2.600000
H	1.240767 2.492688 -2.600000
C	-1.241615 1.403478 -2.600000
H	-1.240767 -2.492688 -2.600000
C	-2.432586 -0.707295 -2.600000
C	-2.432586 0.707295 -2.600000
H	-1.240767 2.492688 -2.600000
H	-3.377142 -1.246551 -2.600000
H	-3.377142 1.246551 -2.600000

c10h8_c10h8_tc_2.wfx


