memory 2 GB
set_num_threads(6)

molecule c10h8_c10h8_t_2 {
0 1
H 3.377142 -1.246549 -2.500000
C 2.432586 -0.707293 -2.500000
C 1.241615 -1.403477 -2.500000
C 2.432586 0.707293 -2.500000
C 0.000000 -0.716360 -2.500000
H 1.240768 -2.492687 -2.500000
C 1.241615 1.403477 -2.500000
H 3.377142 1.246549 -2.500000
C 0.000000 0.716360 -2.500000
C -1.241615 -1.403477 -2.500000
H 1.240768 2.492687 -2.500000
C -1.241615 1.403477 -2.500000
H -1.240768 -2.492687 -2.500000
C -2.432586 -0.707293 -2.500000
C -2.432586 0.707293 -2.500000
H -1.240768 2.492687 -2.500000
H -3.377142 -1.246549 -2.500000
H -3.377142 1.246549 -2.500000
units angstrom
no_reorient
symmetry c1
}

set scf {
  scf_type df
  dft_spherical_points 590
  dft_radial_points 99
}

set {
 basis aug-cc-pvtz
 puream false
 writer_file_label c10h8_c10h8_t_2
 molden_write true
}

energy('b86bpbe')
