memory 2 GB
set_num_threads(6)

molecule c10h8_c10h8_pc_2 {
0 1
H -1.246549 -3.377143 -1.800000
C -0.707293 -2.432587 -1.800000
C -1.403477 -1.241616 -1.800000
C 0.707293 -2.432587 -1.800000
C -0.716360 0.000000 -1.800000
H -2.492687 -1.240767 -1.800000
C 1.403477 -1.241616 -1.800000
H 1.246549 -3.377143 -1.800000
C 0.716360 0.000000 -1.800000
C -1.403477 1.241616 -1.800000
H 2.492687 -1.240767 -1.800000
C 1.403477 1.241616 -1.800000
H -2.492687 1.240767 -1.800000
C -0.707293 2.432587 -1.800000
C 0.707293 2.432587 -1.800000
H 2.492687 1.240767 -1.800000
H -1.246549 3.377143 -1.800000
H 1.246549 3.377143 -1.800000
units angstrom
no_reorient
symmetry c1
}

set scf {
  scf_type df
  dft_spherical_points 590
  dft_radial_points 99
}

set {
 basis aug-cc-pvtz
 puream false
 writer_file_label c10h8_c10h8_pc_2
 molden_write true
}

energy('b86bpbe')
