memory 2 GB
set_num_threads(6)

molecule c10h8_c10h8_t_1 {
0 1
C -2.432586 0.000000 3.207294
C -1.241615 0.000000 3.903478
C 0.000000 0.000000 3.216361
C 0.000000 0.000000 1.783640
C -1.241615 0.000000 1.096523
C -2.432586 0.000000 1.792707
H 1.240768 0.000000 4.992688
H -3.377142 0.000000 3.746550
H -1.240768 0.000000 4.992688
C 1.241615 0.000000 3.903478
C 1.241615 0.000000 1.096523
H -1.240768 0.000000 0.007313
H -3.377142 0.000000 1.253451
C 2.432586 0.000000 1.792707
C 2.432586 0.000000 3.207294
H 1.240768 0.000000 0.007313
H 3.377142 0.000000 1.253451
H 3.377142 0.000000 3.746550
units angstrom
no_reorient
symmetry c1
}

set scf {
  scf_type df
  dft_spherical_points 590
  dft_radial_points 99
}

set {
 basis aug-cc-pvtz
 puream false
 writer_file_label c10h8_c10h8_t_1
 molden_write true
}

energy('b86bpbe')
