%nprocs=6
%mem=4GB
#p pbepbe aug-cc-pvtz output=wfx scf=(conver=6) int=(grid=ultrafine)

title

0 1
H	3.377142 -1.246549 -2.500000
C	2.432586 -0.707293 -2.500000
C	1.241615 -1.403477 -2.500000
C	2.432586 0.707293 -2.500000
C	0.000000 -0.716360 -2.500000
H	1.240768 -2.492687 -2.500000
C	1.241615 1.403477 -2.500000
H	3.377142 1.246549 -2.500000
C	0.000000 0.716360 -2.500000
C	-1.241615 -1.403477 -2.500000
H	1.240768 2.492687 -2.500000
C	-1.241615 1.403477 -2.500000
H	-1.240768 -2.492687 -2.500000
C	-2.432586 -0.707293 -2.500000
C	-2.432586 0.707293 -2.500000
H	-1.240768 2.492687 -2.500000
H	-3.377142 -1.246549 -2.500000
H	-3.377142 1.246549 -2.500000

c10h8_c10h8_t_2.wfx


