memory 2 GB
set_num_threads(6)

molecule c10h8_c10h8_p_2 {
0 1
H 1.900000 -3.377142 -1.246549
C 1.900000 -2.432586 -0.707293
C 1.900000 -1.241615 -1.403477
C 1.900000 -2.432586 0.707293
C 1.900000 0.000000 -0.716360
H 1.900000 -1.240768 -2.492687
C 1.900000 -1.241615 1.403477
H 1.900000 -3.377142 1.246549
C 1.900000 0.000000 0.716360
C 1.900000 1.241615 -1.403477
H 1.900000 -1.240768 2.492687
C 1.900000 1.241615 1.403477
H 1.900000 1.240768 -2.492687
C 1.900000 2.432586 -0.707293
C 1.900000 2.432586 0.707293
H 1.900000 1.240768 2.492687
H 1.900000 3.377142 -1.246549
H 1.900000 3.377142 1.246549
units angstrom
no_reorient
symmetry c1
}

set scf {
  scf_type df
  dft_spherical_points 590
  dft_radial_points 99
}

set {
 basis aug-cc-pvtz
 puream false
 writer_file_label c10h8_c10h8_p_2
 molden_write true
}

energy('b86bpbe')
