memory 2 GB
set_num_threads(6)

molecule c10h8_c10h8_tc_2 {
0 1
H 3.377142 -1.246551 -2.600000
C 2.432586 -0.707295 -2.600000
C 1.241615 -1.403478 -2.600000
C 2.432586 0.707295 -2.600000
C 0.000000 -0.716361 -2.600000
H 1.240767 -2.492688 -2.600000
C 1.241615 1.403478 -2.600000
H 3.377142 1.246551 -2.600000
C 0.000000 0.716361 -2.600000
C -1.241615 -1.403478 -2.600000
H 1.240767 2.492688 -2.600000
C -1.241615 1.403478 -2.600000
H -1.240767 -2.492688 -2.600000
C -2.432586 -0.707295 -2.600000
C -2.432586 0.707295 -2.600000
H -1.240767 2.492688 -2.600000
H -3.377142 -1.246551 -2.600000
H -3.377142 1.246551 -2.600000
units angstrom
no_reorient
symmetry c1
}

set scf {
  scf_type df
  dft_spherical_points 590
  dft_radial_points 99
}

set {
 basis aug-cc-pvtz
 puream false
 writer_file_label c10h8_c10h8_tc_2
 molden_write true
}

energy('b86bpbe')
