memory 2 GB
set_num_threads(6)

molecule c2h2_c2h2 {
0 1
C -0.412546 1.678175 -0.000000
C 0.412546 2.561627 -0.000000
H -1.132026 0.890809 -0.000000
H 1.134651 3.345770 -0.000000
C 0.412546 -1.678175 -0.000000
C -0.412546 -2.561627 -0.000000
H 1.132026 -0.890809 -0.000000
H -1.134651 -3.345770 -0.000000
units angstrom
no_reorient
symmetry c1
}

set scf {
  scf_type df
  dft_spherical_points 590
  dft_radial_points 99
}

set {
 basis aug-cc-pvtz
 puream false
 writer_file_label c2h2_c2h2
 molden_write true
}

energy('b86bpbe')
