memory 2 GB
set_num_threads(6)

molecule c2h2_c2h2_2 {
0 1
C 0.000004 -0.604204 0.000000
C 0.000004 0.604198 0.000000
H 0.006795 -1.670128 0.000000
H -0.006839 1.670163 -0.000000
units angstrom
no_reorient
symmetry c1
}

set scf {
  scf_type df
  dft_spherical_points 590
  dft_radial_points 99
}

set {
 basis aug-cc-pvtz
 puream false
 writer_file_label c2h2_c2h2_2
 molden_write true
}

energy('b86bpbe')
