memory 2 GB
set_num_threads(6)

molecule c2h4_c2h4_1 {
0 1
C -0.471925 -0.471925 -1.859111
C 0.471925 0.471925 -1.859111
H -0.872422 -0.872422 -0.936125
H 0.872422 0.872422 -0.936125
H -0.870464 -0.870464 -2.783308
H 0.870464 0.870464 -2.783308
units angstrom
no_reorient
symmetry c1
}

set scf {
  scf_type df
  dft_spherical_points 590
  dft_radial_points 99
}

set {
 basis aug-cc-pvtz
 puream false
 writer_file_label c2h4_c2h4_1
 molden_write true
}

energy('b86bpbe')
