memory 2 GB
set_num_threads(6)

molecule c6h6_hcn_2 {
0 1
N -0.0034118 3.5353926 0.0000000
C 0.0751963 2.3707040 0.0000000
H 0.1476295 1.3052847 0.0000000
units angstrom
no_reorient
symmetry c1
}

set scf {
  scf_type df
  dft_spherical_points 590
  dft_radial_points 99
}

set {
 basis aug-cc-pvtz
 puream false
 writer_file_label c6h6_hcn_2
 molden_write true
}

energy('b86bpbe')
