memory 2 GB
set_num_threads(6)

molecule c6h6_hcn_1 {
0 1
C -0.7097741 -0.9904230 1.2077018
C -1.4065340 -0.9653529 0.0000000
C -0.7097741 -0.9904230 -1.2077018
C 0.6839651 -1.0405105 -1.2078652
C 1.3809779 -1.0655522 0.0000000
C 0.6839651 -1.0405105 1.2078652
H -1.2499482 -0.9686280 2.1440507
H -2.4869197 -0.9237060 0.0000000
H -1.2499482 -0.9686280 -2.1440507
H 1.2242882 -1.0580753 -2.1442563
H 2.4615886 -1.1029818 0.0000000
H 1.2242882 -1.0580753 2.1442563
units angstrom
no_reorient
symmetry c1
}

set scf {
  scf_type df
  dft_spherical_points 590
  dft_radial_points 99
}

set {
 basis aug-cc-pvtz
 puream false
 writer_file_label c6h6_hcn_1
 molden_write true
}

energy('b86bpbe')
