memory 2 GB
set_num_threads(6)

molecule c6h6_c6h6_stack {
0 1
C 0.000000000000 1.950000000000 1.391500000000
H 0.000000000000 1.950000000000 2.471500000000
C 1.205074349366 1.950000000000 0.695750000000
H 2.140381785453 1.950000000000 1.235750000000
C 1.205074349366 1.950000000000 -0.695750000000
H 2.140381785453 1.950000000000 -1.235750000000
C -0.000000000000 1.950000000000 -1.391500000000
H -0.000000000000 1.950000000000 -2.471500000000
C -1.205074349366 1.950000000000 -0.695750000000
H -2.140381785453 1.950000000000 -1.235750000000
C -1.205074349366 1.950000000000 0.695750000000
H -2.140381785453 1.950000000000 1.235750000000
C -1.205074349366 -1.950000000000 -0.695750000000
H -2.140381785453 -1.950000000000 -1.235750000000
C -0.000000000000 -1.950000000000 -1.391500000000
H -0.000000000000 -1.950000000000 -2.471500000000
C 1.205074349366 -1.950000000000 -0.695750000000
H 2.140381785453 -1.950000000000 -1.235750000000
C 1.205074349366 -1.950000000000 0.695750000000
H 2.140381785453 -1.950000000000 1.235750000000
C -0.000000000000 -1.950000000000 1.391500000000
H -0.000000000000 -1.950000000000 2.471500000000
C -1.205074349366 -1.950000000000 0.695750000000
H -2.140381785453 -1.950000000000 1.235750000000
units angstrom
no_reorient
symmetry c1
}

set scf {
  scf_type df
  dft_spherical_points 590
  dft_radial_points 99
}

set {
 basis aug-cc-pvtz
 puream false
 writer_file_label c6h6_c6h6_stack
 molden_write true
}

energy('b86bpbe')
