memory 2 GB
set_num_threads(6)

molecule c6h6_c6h6_stack_2 {
0 1
C 0.000000 1.395671 -0.617158
C -1.208686 0.697835 -0.617158
C -1.208686 -0.697835 -0.617158
C -0.000000 -1.395671 -0.617158
C 1.208686 -0.697835 -0.617158
C 1.208686 0.697835 -0.617158
H 0.000000 2.479876 -0.616998
H -2.147636 1.239938 -0.616998
H -2.147636 -1.239938 -0.616998
H -0.000000 -2.479876 -0.616998
H 2.147636 -1.239938 -0.616998
H 2.147636 1.239938 -0.616998
units angstrom
no_reorient
symmetry c1
}

set scf {
  scf_type df
  dft_spherical_points 590
  dft_radial_points 99
}

set {
 basis aug-cc-pvtz
 puream false
 writer_file_label c6h6_c6h6_stack_2
 molden_write true
}

energy('b86bpbe')
