memory 2 GB
set_num_threads(6)

molecule c6h6_h2o_2 {
0 1
O -2.7885270 -0.2744854 0.0000000
H -2.6229114 -1.2190831 0.0000000
H -1.9015103 0.0979110 0.0000000
units angstrom
no_reorient
symmetry c1
}

set scf {
  scf_type df
  dft_spherical_points 590
  dft_radial_points 99
}

set {
 basis aug-cc-pvtz
 puream false
 writer_file_label c6h6_h2o_2
 molden_write true
}

energy('b86bpbe')
