memory 2 GB
set_num_threads(6)

molecule c6h6_nh3_1 {
0 1
C -0.7392810 0.5158785 -1.2071079
C -1.4261442 0.3965455 0.0000000
C -0.7392810 0.5158785 1.2071079
C 0.6342269 0.7546398 1.2070735
C 1.3210434 0.8737566 0.0000000
C 0.6342269 0.7546398 -1.2070735
H -1.2719495 0.4206316 -2.1432894
H -2.4902205 0.2052381 0.0000000
H -1.2719495 0.4206316 2.1432894
H 1.1668005 0.8474885 2.1436950
H 2.3863585 1.0596312 0.0000000
H 1.1668005 0.8474885 -2.1436950
units angstrom
no_reorient
symmetry c1
}

set scf {
  scf_type df
  dft_spherical_points 590
  dft_radial_points 99
}

set {
 basis aug-cc-pvtz
 puream false
 writer_file_label c6h6_nh3_1
 molden_write true
}

energy('b86bpbe')
