memory 2 GB
set_num_threads(6)

molecule c6h6_ch4_1 {
0 1
C 1.3932178 0.0362913 -0.6332803
C 0.7280364 -1.1884015 -0.6333017
C -0.6651797 -1.2247077 -0.6332803
C -1.3932041 -0.0362972 -0.6333017
C -0.7280381 1.1884163 -0.6332803
C 0.6651677 1.2246987 -0.6333017
H 2.4742737 0.0644484 -0.6317240
H 1.2929588 -2.1105409 -0.6317401
H -1.1813229 -2.1750081 -0.6317240
H -2.4742614 -0.0644647 -0.6317401
H -1.2929508 2.1105596 -0.6317240
H 1.1813026 2.1750056 -0.6317401
units angstrom
no_reorient
symmetry c1
}

set scf {
  scf_type df
  dft_spherical_points 590
  dft_radial_points 99
}

set {
 basis aug-cc-pvtz
 puream false
 writer_file_label c6h6_ch4_1
 molden_write true
}

energy('b86bpbe')
