%nprocs=6
%mem=4GB
#p pbepbe aug-cc-pvtz output=wfx scf=(conver=6) int=(grid=ultrafine)

title

0 1
C	0.000000000000 1.950000000000 1.391500000000
H	0.000000000000 1.950000000000 2.471500000000
C	1.205074349366 1.950000000000 0.695750000000
H	2.140381785453 1.950000000000 1.235750000000
C	1.205074349366 1.950000000000 -0.695750000000
H	2.140381785453 1.950000000000 -1.235750000000
C	-0.000000000000 1.950000000000 -1.391500000000
H	-0.000000000000 1.950000000000 -2.471500000000
C	-1.205074349366 1.950000000000 -0.695750000000
H	-2.140381785453 1.950000000000 -1.235750000000
C	-1.205074349366 1.950000000000 0.695750000000
H	-2.140381785453 1.950000000000 1.235750000000
C	-1.205074349366 -1.950000000000 -0.695750000000
H	-2.140381785453 -1.950000000000 -1.235750000000
C	-0.000000000000 -1.950000000000 -1.391500000000
H	-0.000000000000 -1.950000000000 -2.471500000000
C	1.205074349366 -1.950000000000 -0.695750000000
H	2.140381785453 -1.950000000000 -1.235750000000
C	1.205074349366 -1.950000000000 0.695750000000
H	2.140381785453 -1.950000000000 1.235750000000
C	-0.000000000000 -1.950000000000 1.391500000000
H	-0.000000000000 -1.950000000000 2.471500000000
C	-1.205074349366 -1.950000000000 0.695750000000
H	-2.140381785453 -1.950000000000 1.235750000000

c6h6_c6h6_stack.wfx


