memory 2 GB
set_num_threads(6)

molecule c6h6_h2o_1 {
0 1
C 0.7806117 -0.6098875 -1.2075426
C 0.4784039 0.7510406 -1.2079040
C 0.3276592 1.4318573 0.0000000
C 0.4784039 0.7510406 1.2079040
C 0.7806117 -0.6098875 1.2075426
C 0.9321510 -1.2899614 0.0000000
H 0.8966688 -1.1376051 -2.1441482
H 0.3573895 1.2782091 -2.1440546
H 0.0918593 2.4871407 0.0000000
H 0.3573895 1.2782091 2.1440546
H 0.8966688 -1.1376051 2.1441482
H 1.1690064 -2.3451668 0.0000000
units angstrom
no_reorient
symmetry c1
}

set scf {
  scf_type df
  dft_spherical_points 590
  dft_radial_points 99
}

set {
 basis aug-cc-pvtz
 puream false
 writer_file_label c6h6_h2o_1
 molden_write true
}

energy('b86bpbe')
