%nprocs=6
%mem=4GB
#p pbepbe aug-cc-pvtz output=wfx scf=(conver=6) int=(grid=ultrafine)

title

0 1
C	0.000000 0.000000 -2.000000
F	0.000000 0.000000 -3.315800
F	0.000000 -1.240548 -1.561400
F	-1.074346 0.620274 -1.561400
F	1.074346 0.620274 -1.561400

cf4_cf4_2.wfx


