memory 2 GB
set_num_threads(6)

molecule ch3cl_hcl {
0 1
C -1.495128 1.125799 -0.000002
Cl -1.402476 -0.662544 0.000139
H -0.481069 1.518361 -0.001216
H -2.027181 1.435163 0.895312
H -2.029240 1.434923 -0.894172
Cl 2.139608 0.037298 -0.000138
H 0.977002 -0.514054 0.000072
units angstrom
no_reorient
symmetry c1
}

set scf {
  scf_type df
  dft_spherical_points 590
  dft_radial_points 99
}

set {
 basis aug-cc-pvtz
 puream false
 writer_file_label ch3cl_hcl
 molden_write true
}

energy('b86bpbe')
