%nprocs=6
%mem=4GB
#p pbepbe aug-cc-pvtz output=wfx scf=(conver=6) int=(grid=ultrafine)

title

0 1
C	-0.000000 -0.000000 -1.126268
H	-0.000000 1.030970 -1.470596
H	0.892846 -0.515485 -1.470596
H	-0.892846 -0.515485 -1.470596
Cl	-0.000000 -0.000000 0.658206

ch3cl_hcl_1.wfx


