memory 2 GB
set_num_threads(6)

molecule ch3f_ch3f_1 {
0 1
C -1.667286 1.011264 0.000000
H -0.636246 1.361492 0.000000
H -2.182806 1.361493 0.892907
H -2.182806 1.361493 -0.892907
F -1.667286 -0.371736 0.000000
units angstrom
no_reorient
symmetry c1
}

set scf {
  scf_type df
  dft_spherical_points 590
  dft_radial_points 99
}

set {
 basis aug-cc-pvtz
 puream false
 writer_file_label ch3f_ch3f_1
 molden_write true
}

energy('b86bpbe')
