memory 2 GB
set_num_threads(6)

molecule ch3sh_hcl {
0 1
C -1.447648 1.155649 0.018513
S -1.414595 -0.659846 -0.083544
H -1.466284 1.516816 -1.009880
H -0.552971 1.535265 0.510012
H -2.344239 1.497733 0.531863
H -1.377361 -0.890921 1.238214
Cl 2.125766 0.024081 0.003156
H 0.922238 -0.444635 -0.098247
units angstrom
no_reorient
symmetry c1
}

set scf {
  scf_type df
  dft_spherical_points 590
  dft_radial_points 99
}

set {
 basis aug-cc-pvtz
 puream false
 writer_file_label ch3sh_hcl
 molden_write true
}

energy('b86bpbe')
