memory 2 GB
set_num_threads(6)

molecule ch4_nh3_2 {
0 1
N 0.000000 0.000000 1.906480
H 0.000000 0.969936 2.196615
H 0.839989 -0.484968 2.196615
H -0.839989 -0.484968 2.196615
units angstrom
no_reorient
symmetry c1
}

set scf {
  scf_type df
  dft_spherical_points 590
  dft_radial_points 99
}

set {
 basis aug-cc-pvtz
 puream false
 writer_file_label ch4_nh3_2
 molden_write true
}

energy('b86bpbe')
