memory 2 GB
set_num_threads(6)

molecule ch4_hf_1 {
0 1
C 0.000000 0.000000 -1.563190
H 0.000000 0.000000 -2.651172
H 0.000000 1.025759 -1.200529
H -0.888334 -0.512880 -1.200529
H 0.888334 -0.512880 -1.200529
units angstrom
no_reorient
symmetry c1
}

set scf {
  scf_type df
  dft_spherical_points 590
  dft_radial_points 99
}

set {
 basis aug-cc-pvtz
 puream false
 writer_file_label ch4_hf_1
 molden_write true
}

energy('b86bpbe')
