memory 2 GB
set_num_threads(6)

molecule ch4_c2h4_1 {
0 1
C 0.000000 2.584615 0.000000
H 1.025759 2.947276 0.000000
H -0.512880 2.947276 -0.888334
H -0.512880 2.947276 0.888334
H 0.000000 1.496633 0.000000
units angstrom
no_reorient
symmetry c1
}

set scf {
  scf_type df
  dft_spherical_points 590
  dft_radial_points 99
}

set {
 basis aug-cc-pvtz
 puream false
 writer_file_label ch4_c2h4_1
 molden_write true
}

energy('b86bpbe')
