%nprocs=6
%mem=4GB
#p pbepbe aug-cc-pvtz output=wfx scf=(conver=6) int=(grid=ultrafine)

title

0 1
C	0.000000 0.000000 -1.993520
H	0.000000 0.000000 -0.905538
H	0.000000 -1.025759 -2.356181
H	-0.888334 0.512880 -2.356181
H	0.888334 0.512880 -2.356181

ch4_nh3_1.wfx


