memory 2 GB
set_num_threads(6)

molecule ch4_c2h4_2 {
0 1
C 0.000000 -1.615385 0.665900
H -0.922200 -1.615385 1.231634
H 0.922200 -1.615385 1.231634
C 0.000000 -1.615385 -0.665900
H -0.922200 -1.615385 -1.231634
H 0.922200 -1.615385 -1.231634
units angstrom
no_reorient
symmetry c1
}

set scf {
  scf_type df
  dft_spherical_points 590
  dft_radial_points 99
}

set {
 basis aug-cc-pvtz
 puream false
 writer_file_label ch4_c2h4_2
 molden_write true
}

energy('b86bpbe')
