memory 2 GB
set_num_threads(6)

molecule co2_co2 {
0 1
C 1.550000 -0.900000 0.000000
O 1.550000 0.259600 0.000000
O 1.550000 -2.059600 0.000000
C -1.550000 0.900000 0.000000
O -1.550000 -0.259600 0.000000
O -1.550000 2.059600 0.000000
units angstrom
no_reorient
symmetry c1
}

set scf {
  scf_type df
  dft_spherical_points 590
  dft_radial_points 99
}

set {
 basis aug-cc-pvtz
 puream false
 writer_file_label co2_co2
 molden_write true
}

energy('b86bpbe')
