memory 2 GB
set_num_threads(6)

molecule h2s_h2s {
0 1
S -2.030996 0.103233 -0.000782
H -1.934020 -0.818462 0.969676
H -1.940450 -0.836616 -0.954299
S 2.079838 -0.085112 0.000181
H 2.339154 1.231019 -0.002214
H 0.753848 0.134121 -0.003537
units angstrom
no_reorient
symmetry c1
}

set scf {
  scf_type df
  dft_spherical_points 590
  dft_radial_points 99
}

set {
 basis aug-cc-pvtz
 puream false
 writer_file_label h2s_h2s
 molden_write true
}

energy('b86bpbe')
