memory 2 GB
set_num_threads(6)

molecule h2s_hcl_1 {
0 1
S 0.000000 -0.000000 0.103894
H -0.000000 0.961162 -0.831153
H -0.000000 -0.961162 -0.831153
units angstrom
no_reorient
symmetry c1
}

set scf {
  scf_type df
  dft_spherical_points 590
  dft_radial_points 99
}

set {
 basis aug-cc-pvtz
 puream false
 writer_file_label h2s_hcl_1
 molden_write true
}

energy('b86bpbe')
