memory 2 GB
set_num_threads(6)

molecule hcl_hcl_2 {
0 1
Cl 0.000000 0.000000 0.000000
H 0.000000 0.000000 1.27907275
units angstrom
no_reorient
symmetry c1
}

set scf {
  scf_type df
  dft_spherical_points 590
  dft_radial_points 99
}

set {
 basis aug-cc-pvtz
 puream false
 writer_file_label hcl_hcl_2
 molden_write true
}

energy('b86bpbe')
