memory 2 GB
set_num_threads(6)

molecule hcl_hcl {
0 1
Cl 1.860824 -0.065411 -0.000068
H 1.753941 1.210981 0.000341
Cl -1.925266 0.005571 -0.000097
H -0.658427 -0.193703 0.002476
units angstrom
no_reorient
symmetry c1
}

set scf {
  scf_type df
  dft_spherical_points 590
  dft_radial_points 99
}

set {
 basis aug-cc-pvtz
 puream false
 writer_file_label hcl_hcl
 molden_write true
}

energy('b86bpbe')
