%nprocs=6
%mem=4GB
#p pbepbe aug-cc-pvtz output=wfx scf=(conver=6) int=(grid=ultrafine)

title

0 1
C	0.000000 0.000000 -1.908042
H	0.000000 0.000000 -2.973042
N	0.000000 0.000000 -0.755442
H	0.000000 0.000000 1.144558
F	0.000000 0.000000 2.062758

hcn_hf.wfx


