memory 2 GB
set_num_threads(6)

molecule hcn_ch3sh {
0 1
C 1.996443 0.057185 -0.006483
N 2.980218 0.658345 0.109450
H 1.072341 -0.485189 -0.106416
S -1.514399 -0.799994 -0.116979
C -1.570144 1.012974 0.011607
H -1.554579 -1.052600 1.200492
H -1.545560 1.392381 -1.010196
H -0.708661 1.402553 0.553097
H -2.493145 1.339923 0.486654
units angstrom
no_reorient
symmetry c1
}

set scf {
  scf_type df
  dft_spherical_points 590
  dft_radial_points 99
}

set {
 basis aug-cc-pvtz
 puream false
 writer_file_label hcn_ch3sh
 molden_write true
}

energy('b86bpbe')
