memory 2 GB
set_num_threads(6)

molecule hcn_hf {
0 1
C 0.000000 0.000000 -1.908042
H 0.000000 0.000000 -2.973042
N 0.000000 0.000000 -0.755442
H 0.000000 0.000000 1.144558
F 0.000000 0.000000 2.062758
units angstrom
no_reorient
symmetry c1
}

set scf {
  scf_type df
  dft_spherical_points 590
  dft_radial_points 99
}

set {
 basis aug-cc-pvtz
 puream false
 writer_file_label hcn_hf
 molden_write true
}

energy('b86bpbe')
