%nprocs=6
%mem=4GB
#p pbepbe aug-cc-pvtz output=wfx scf=(conver=6) int=(grid=ultrafine)

title

0 1
F	0.000000 0.000000 0.000000
H	0.000000 0.000000 0.92073754

hf_hf_1.wfx


