memory 2 GB
set_num_threads(6)

molecule nh3_nh3_2 {
0 1
N 1.578718 0.046611 0.000000
H 2.158621 -0.136396 -0.809565
H 0.849471 -0.658193 0.000000
H 2.158621 -0.136396 0.809565
units angstrom
no_reorient
symmetry c1
}

set scf {
  scf_type df
  dft_spherical_points 590
  dft_radial_points 99
}

set {
 basis aug-cc-pvtz
 puream false
 writer_file_label nh3_nh3_2
 molden_write true
}

energy('b86bpbe')
