memory 2 GB
set_num_threads(6)

molecule nh3_h2o_2 {
0 1
O 0.000000 0.000000 0.000000
H 0.000000 0.000000 0.961831
H 0.933579 0.000000 -0.231409
units angstrom
no_reorient
symmetry c1
}

set scf {
  scf_type df
  dft_spherical_points 590
  dft_radial_points 99
}

set {
 basis aug-cc-pvtz
 puream false
 writer_file_label nh3_h2o_2
 molden_write true
}

energy('b86bpbe')
