%nprocs=6
%mem=4GB
#p pbepbe aug-cc-pvtz output=wfx scf=(conver=6) int=(grid=ultrafine)

title

0 1
O	0.000000 0.000000 0.000000
H	0.000000 0.000000 0.961831
H	0.933579 0.000000 -0.231409

nh3_h2o_2.wfx


