memory 2 GB
set_num_threads(6)

molecule nh3_h2o_1 {
0 1
N 0.000000 0.000000 0.115013
H 0.000000 0.939752 -0.268364
H 0.813850 -0.469876 -0.268364
H -0.813850 -0.469876 -0.268364
units angstrom
no_reorient
symmetry c1
}

set scf {
  scf_type df
  dft_spherical_points 590
  dft_radial_points 99
}

set {
 basis aug-cc-pvtz
 puream false
 writer_file_label nh3_h2o_1
 molden_write true
}

energy('b86bpbe')
