memory 2 GB
set_num_threads(6)

molecule phenol_phenol_2 {
0 1
O 1.3531168 1.9382724 0.4723133
C 2.0369747 0.7865043 0.1495491
H 1.7842846 2.3487495 1.2297110
C 1.5904026 0.0696860 -0.9574153
C 2.2417367 -1.1069765 -1.3128110
C 3.3315674 -1.5665603 -0.5748636
C 3.7696838 -0.8396901 0.5286439
C 3.1224836 0.3383498 0.8960491
H 0.7445512 0.4367983 -1.5218583
H 1.8921463 -1.6649726 -2.1701843
H 3.8330227 -2.4811537 -0.8566666
H 4.6137632 -1.1850101 1.1092635
H 3.4598854 0.9030376 1.7569489
units angstrom
no_reorient
symmetry c1
}

set scf {
  scf_type df
  dft_spherical_points 590
  dft_radial_points 99
}

set {
 basis aug-cc-pvtz
 puream false
 writer_file_label phenol_phenol_2
 molden_write true
}

energy('b86bpbe')
