memory 2 GB
set_num_threads(6)

molecule pyrazine_pyrazine_1 {
0 1
C -1.2471894 -1.1718212 -0.6961388
C -1.2471894 -1.1718212 0.6961388
N -0.2589510 -1.7235771 1.4144796
C 0.7315327 -2.2652221 0.6967288
C 0.7315327 -2.2652221 -0.6967288
N -0.2589510 -1.7235771 -1.4144796
H -2.0634363 -0.7223199 -1.2472797
H -2.0634363 -0.7223199 1.2472797
H 1.5488004 -2.7128282 1.2475604
H 1.5488004 -2.7128282 -1.2475604
units angstrom
no_reorient
symmetry c1
}

set scf {
  scf_type df
  dft_spherical_points 590
  dft_radial_points 99
}

set {
 basis aug-cc-pvtz
 puream false
 writer_file_label pyrazine_pyrazine_1
 molden_write true
}

energy('b86bpbe')
