memory 2 GB
set_num_threads(6)

molecule sih4_ch4_2 {
0 1
C -0.000000 -0.000000 -2.442892
H -0.000000 1.026075 -2.081127
H -0.888607 -0.513037 -2.081127
H 0.888607 -0.513038 -2.081127
H -0.000000 -0.000000 -3.530874
units angstrom
no_reorient
symmetry c1
}

set scf {
  scf_type df
  dft_spherical_points 590
  dft_radial_points 99
}

set {
 basis aug-cc-pvtz
 puream false
 writer_file_label sih4_ch4_2
 molden_write true
}

energy('b86bpbe')
