%nprocs=6
%mem=4GB
#p pbepbe aug-cc-pvtz output=wfx scf=(conver=6) int=(grid=ultrafine)

title

0 1
C	-0.000000 -0.000000 -2.442892
H	-0.000000 1.026075 -2.081127
H	-0.888607 -0.513037 -2.081127
H	0.888607 -0.513038 -2.081127
H	-0.000000 -0.000000 -3.530874

sih4_ch4_2.wfx


