memory 2 GB
set_num_threads(6)

molecule sih4_hf_2 {
0 1
F 0.000000 0.000000 -2.088636
H 0.000000 0.000000 -3.006836
units angstrom
no_reorient
symmetry c1
}

set scf {
  scf_type df
  dft_spherical_points 590
  dft_radial_points 99
}

set {
 basis aug-cc-pvtz
 puream false
 writer_file_label sih4_hf_2
 molden_write true
}

energy('b86bpbe')
