memory 2 GB
set_num_threads(6)

molecule uracil_uracil_hb_1 {
0 1
O -1.4663316 1.0121693 0.0000000
C -0.6281464 1.9142678 0.0000000
N 0.7205093 1.6882688 0.0000000
C 1.6367290 2.7052764 0.0000000
C 1.2769036 4.0061763 0.0000000
C -0.1286005 4.3621549 0.0000000
N -0.9777230 3.2396433 0.0000000
O -0.5972229 5.4864066 0.0000000
H 2.0103504 4.7938642 0.0000000
H 1.0232515 0.7061820 0.0000000
H -1.9700268 3.4323850 0.0000000
H 2.6690620 2.3883417 0.0000000
units angstrom
no_reorient
symmetry c1
}

set scf {
  scf_type df
  dft_spherical_points 590
  dft_radial_points 99
}

set {
 basis aug-cc-pvtz
 puream false
 writer_file_label uracil_uracil_hb_1
 molden_write true
}

energy('b86bpbe')
