&control
 title='crystal',
 prefix='crystal',
 pseudo_dir='.',
 calculation='vc-relax',
/
&system
 ibrav=0,
 celldm(1)=1.0,
 nat=    60,
 ntyp=  3,
 ecutwfc=60.0,
 ecutrho=600.0,
 xdm=.true.,
 xdm_a1=0.4073,
 xdm_a2=2.4150,
/
&electrons
 conv_thr = 1d-8,
/
&ions
/
&cell
/
ATOMIC_SPECIES
h      1.007940 h.UPF
c     12.010700 c.UPF
o     15.999400 o.UPF

ATOMIC_POSITIONS crystal
o     0.73634899     0.53480747     0.49348163
o     0.26365101     0.03480749     0.50651836
o     0.95581186     0.82158435     0.42916020
o     0.04418814     0.32158436     0.57083979
o     0.10537016     0.79758822     0.67951040
o     0.89462985     0.29758824     0.32048959
c     0.86533237     0.82609075     0.89273724
c     0.13466764     0.32609076     0.10726274
c     0.89611015     0.68640388     0.72660375
c     0.10388985     0.18640390     0.27339624
c     0.76384773     0.65656026     0.62205727
c     0.23615228     0.15656028     0.37794271
c     0.67249392     0.79276944     0.71466083
c     0.32750608     0.29276946     0.28533916
c     0.71835531     0.01314943     0.67810332
c     0.28164470     0.51314945     0.32189666
c     0.84301375     0.03922768     0.81130710
c     0.15698625     0.53922770     0.18869289
c     0.72707566     0.75869956     0.92745564
c     0.27292435     0.25869958     0.07254434
c     0.71650529     0.53956473     0.99074269
c     0.28349471     0.03956475     0.00925729
c     0.66566827     0.89130957     0.07113596
c     0.33433173     0.39130959     0.92886403
c     0.53301345     0.75225320     0.65741321
c     0.46698655     0.25225322     0.34258678
c     0.98774134     0.77370256     0.59457969
c     0.01225866     0.27370258     0.40542030
h     0.93480777     0.81583414     0.01732911
h     0.06519224     0.31583416     0.98267087
h     0.93497127     0.54034916     0.77644468
h     0.06502873     0.04034918     0.22355531
h     0.64304253     0.11721132     0.71346921
h     0.35695747     0.61721134     0.28653077
h     0.73273398     0.03797217     0.52827286
h     0.26726603     0.53797219     0.47172712
h     0.83114389     0.14624229     0.92625284
h     0.16885612     0.64624231     0.07374714
h     0.92256475     0.09470004     0.73652978
h     0.07743525     0.59470006     0.26347020
h     0.75100255     0.43076819     0.89062847
h     0.24899745     0.93076821     0.10937151
h     0.77123397     0.51675105     0.12777749
h     0.22876603     0.01675107     0.87222250
h     0.61669683     0.50159634     0.00745624
h     0.38330318     0.00159635     0.99254375
h     0.56958002     0.83564385     0.09122344
h     0.43041999     0.33564386     0.90877654
h     0.65753015     0.05028345     0.03052224
h     0.34246985     0.55028347     0.96947774
h     0.72280003     0.88273173     0.20884028
h     0.27719998     0.38273175     0.79115971
h     0.50673523     0.59737809     0.69116627
h     0.49326478     0.09737811     0.30883372
h     0.51136789     0.77260555     0.50392209
h     0.48863211     0.27260557     0.49607789
h     0.47159838     0.85601375     0.72803225
h     0.52840162     0.35601376     0.27196774
h     0.15913482     0.88020726     0.59601384
h     0.84086519     0.38020728     0.40398614

K_POINTS automatic
2 2 2 1 1 1

CELL_PARAMETERS cubic
   19.882243000000     0.000000000000    -0.038754000000
    0.000000000000    12.537886000000     0.000000000000
   -1.194941000000     0.000000000000    13.300569000000
