&control
 title='crystal',
 prefix='crystal',
 pseudo_dir='.',
 calculation='vc-relax',
/
&system
 ibrav=0,
 celldm(1)=1.0,
 nat=   104,
 ntyp=  4,
 ecutwfc=60.0,
 ecutrho=600.0,
 xdm=.true.,
 xdm_a1=0.4073,
 xdm_a2=2.4150,
/
&electrons
 conv_thr = 1d-8,
/
&ions
/
&cell
/
ATOMIC_SPECIES
h      1.007940 h.UPF
c     12.010700 c.UPF
n     14.006700 n.UPF
o     15.999400 o.UPF

ATOMIC_POSITIONS crystal
o     0.54748932     0.54898212     0.27947151
o     0.95251063     0.45101791     0.77947151
o     0.04750017     0.95101021     0.72053134
o     0.45249978     0.04898982     0.22053134
n     0.88437345     0.34811320     0.21004654
n     0.61562650     0.65188683     0.71004654
n     0.38438330     0.15188345     0.78995315
n     0.11561664     0.84811658     0.28995315
n     0.70139248     0.29175327     0.16322619
n     0.79860747     0.70824676     0.66322619
n     0.20138763     0.20822061     0.83677570
n     0.29861232     0.79177941     0.33677570
c     0.78979920     0.31755116     0.09328669
c     0.71020075     0.68244887     0.59328669
c     0.28978141     0.18239604     0.90671470
c     0.21021854     0.81760398     0.40671470
c     0.02896753     0.39048150     0.09506585
c     0.47103241     0.60951853     0.59506585
c     0.52895359     0.10947107     0.90493236
c     0.97104636     0.89052895     0.40493236
c     0.08410472     0.40835961     0.17115495
c     0.41589523     0.59164042     0.67115495
c     0.58411319     0.09163217     0.82884265
c     0.91588675     0.90836786     0.32884265
c     0.84299162     0.34807992     0.29186286
c     0.65700833     0.65192011     0.79186286
c     0.34299786     0.15191313     0.70813734
c     0.15700208     0.84808690     0.20813734
c     0.08142686     0.29001027     0.33341001
c     0.41857309     0.70998976     0.83341001
c     0.58142328     0.21000059     0.66658909
c     0.91857667     0.78999944     0.16658909
c     0.03713373     0.28957174     0.41862054
c     0.46286622     0.71042829     0.91862054
c     0.53713490     0.21042975     0.58137797
c     0.96286505     0.78957028     0.08137797
c     0.96559408     0.44188267     0.44701669
c     0.53440586     0.55811736     0.94701669
c     0.46559962     0.05811159     0.55298563
c     0.03440033     0.94188844     0.05298563
c     0.72836113     0.50003230     0.40512991
c     0.77163881     0.49996773     0.90512991
c     0.22836212     0.99996976     0.59487182
c     0.27163783     0.00003027     0.09487182
c     0.77098961     0.50152973     0.31965832
c     0.72901034     0.49847030     0.81965832
c     0.27099653     0.99845991     0.68034270
c     0.22900342     0.00154012     0.18034270
h     0.67723310     0.28167554     0.04509848
h     0.82276685     0.71832449     0.54509848
h     0.17722863     0.21827839     0.95490393
h     0.32277132     0.78172164     0.45490393
h     0.14670038     0.42601580     0.04805855
h     0.35329957     0.57398423     0.54805855
h     0.64669610     0.07394452     0.95193876
h     0.85330385     0.92605551     0.45193876
h     0.24932778     0.45620850     0.19980511
h     0.25067217     0.54379152     0.69980511
h     0.74934876     0.04380405     0.80019006
h     0.75065118     0.95619598     0.30019006
h     0.67672774     0.27541990     0.30100407
h     0.82327221     0.72458013     0.80100407
h     0.17672154     0.22456400     0.69899660
h     0.32327841     0.77543603     0.19899660
h     0.93667709     0.57410665     0.30727457
h     0.56332286     0.42589338     0.80727457
h     0.43668133     0.92588277     0.69272370
h     0.06331862     0.07411726     0.19272370
h     0.48161392     0.64141343     0.30256847
h     0.01838602     0.35858660     0.80256847
h     0.98160916     0.85858182     0.69743260
h     0.51839079     0.14141821     0.19743260
h     0.24696406     0.36071765     0.31997447
h     0.25303589     0.63928238     0.81997447
h     0.74697076     0.13930063     0.68002419
h     0.75302919     0.86069940     0.18002419
h     0.12873493     0.18036155     0.31295173
h     0.37126502     0.81963848     0.81295173
h     0.62871880     0.31965040     0.68704824
h     0.87128115     0.68034962     0.18704824
h     0.21164952     0.24920316     0.44709606
h     0.28835043     0.75079687     0.94709606
h     0.71164964     0.25080065     0.55290210
h     0.78835030     0.74919938     0.05290210
h     0.88122171     0.21216936     0.43258054
h     0.61877824     0.78783067     0.93258054
h     0.38121881     0.28782531     0.56741395
h     0.11878114     0.71217472     0.06741395
h     0.92874236     0.44115775     0.50804161
h     0.57125758     0.55884228     0.00804161
h     0.42875236     0.05883326     0.49196057
h     0.07124759     0.94116676     0.99196057
h     0.12909755     0.51652669     0.43726497
h     0.37090240     0.48347333     0.93726497
h     0.62909983     0.98347053     0.56273996
h     0.87090012     0.01652949     0.06273996
h     0.55871232     0.43160397     0.41777057
h     0.94128763     0.56839606     0.91777057
h     0.05872622     0.06840593     0.58223360
h     0.44127373     0.93159410     0.08223360
h     0.68223745     0.61158993     0.42325350
h     0.81776250     0.38841010     0.92325350
h     0.18222059     0.88841623     0.57674460
h     0.31777936     0.11158379     0.07674460

K_POINTS automatic
2 2 2 1 1 1

CELL_PARAMETERS cubic
    9.760819000000    -0.000050000000     0.000000000000
   -0.000088000000    17.318409000000     0.000000000000
    0.000000000000     0.000000000000    33.503095000000
