&control
 title='crystal',
 prefix='crystal',
 pseudo_dir='..',
 calculation='vc-relax',
 etot_conv_thr=1.0D-5,
/
&system
 ibrav=0,
 celldm(1)=1.0,
 nat=    88,
 ntyp=  4,
 ecutwfc=80.0,
 ecutrho=800.0,
 xdm=.true.,
 xdm_a1=0.6512,
 xdm_a2=1.4633,
/
&electrons
 conv_thr = 1d-8,
/
&ions
/
&cell
/
ATOMIC_SPECIES
h      1.007940 h.UPF
c     12.010700 c.UPF
n     14.006700 n.UPF
o     15.999400 o.UPF

ATOMIC_POSITIONS crystal
o        0.113066808   0.967467253   0.413031562
o        0.886933192   0.467467253   0.586968438
o        0.180584072   0.352200374   0.363241349
o        0.819415928   0.852200374   0.636758651
n        0.366054512   0.760196751   0.421096079
n        0.633945488   0.260196751   0.578903921
h        0.293612757   0.619916986   0.396386292
h        0.706387243   0.119916986   0.603613708
h        0.469129413   0.690553646   0.416778681
h        0.530870587   0.190553646   0.583221319
h        0.354222614   0.794182526   0.493471615
h        0.645777386   0.294182526   0.506528385
c        0.202683843   0.117866214   0.383530928
c        0.797316157   0.617866214   0.616469072
c        0.345749923   0.006772369   0.367100957
c        0.654250077   0.506772369   0.632899043
h        0.427716353   0.135564599   0.398413101
h        0.572283647   0.635564599   0.601586899
c        0.363605659   0.972780102   0.258071548
c        0.636394341   0.472780102   0.741928452
h        0.449253878   0.834874464   0.254634817
h        0.550746122   0.334874464   0.745365183
c        0.409695294   0.228208795   0.216792471
c        0.590304706   0.728208795   0.783207529
h        0.331038520   0.372689525   0.229147270
h        0.668961480   0.872689525   0.770852730
h        0.506248364   0.287865789   0.259669612
h        0.493751636   0.787865789   0.740330388
c        0.430888796   0.223014799   0.109095768
c        0.569111204   0.723014799   0.890904232
h        0.471365752   0.407120761   0.086340870
h        0.528634248   0.907120761   0.913659130
h        0.332756748   0.187461705   0.064054456
h        0.667243252   0.687461705   0.935945544
h        0.505039028   0.074393589   0.092141915
h        0.494960972   0.574393589   0.907858085
c        0.232790115   0.863080861   0.201211044
c        0.767209885   0.363080861   0.798788956
h        0.192987847   0.697729783   0.238302281
h        0.807012153   0.197729783   0.761697719
h        0.254495068   0.801206297   0.128733072
h        0.745504932   0.301206297   0.871266928
h        0.149565983   1.007004212   0.192562154
h        0.850434017   0.507004212   0.807437846
o        0.627173844   0.572790541   0.409393575
o        0.372826156   0.072790541   0.590606425
o        0.706894587   0.970677352   0.385108416
o        0.293105413   0.470677352   0.614891584
n        0.894525677   0.386663952   0.392179958
n        0.105474323   0.886663952   0.607820042
h        0.832630995   0.222913840   0.379137613
h        0.167369005   0.722913840   0.620862387
h        0.998109885   0.351510430   0.378803924
h        0.001890115   0.851510430   0.621196076
h        0.896477085   0.423186064   0.466788894
h        0.103522915   0.923186064   0.533211106
c        0.715869780   0.730758471   0.381154263
c        0.284130220   0.230758471   0.618845737
c        0.839206942   0.612496174   0.334371683
c        0.160793058   0.112496174   0.665628317
h        0.924194485   0.752347737   0.336981734
h        0.075805515   0.252347737   0.663018266
c        0.793749248   0.533085623   0.228614432
c        0.206250752   0.033085623   0.771385568
h        0.708864139   0.393263997   0.231381805
h        0.291135861   0.893263997   0.768618195
c        0.913156170   0.403240769   0.181328637
c        0.086843830   0.903240769   0.818671363
h        1.005409863   0.527262372   0.190012296
h       -0.005409863   0.027262372   0.809987704
h        0.943267049   0.226278436   0.220601566
h        0.056732951   0.726278436   0.779398434
c        0.877855992   0.342083874   0.073793507
c        0.122144008   0.842083874   0.926206493
h        0.958702164   0.221940819   0.046654017
h        0.041297836   0.721940819   0.953345983
h        0.869798370   0.516069598   0.029552273
h        0.130201630   1.016069598   0.970447727
h        0.778376451   0.239796093   0.060528872
h        0.221623549   0.739796093   0.939471128
c        0.738075553   0.764495703   0.169728257
c        0.261924447   0.264495703   0.830271743
h        0.663162210   0.873967790   0.207276206
h        0.336837790   0.373967790   0.792723794
h        0.686616070   0.705963100   0.099249505
h        0.313383930   0.205963100   0.900750495
h        0.823717491   0.893455866   0.156537997
h        0.176282509   0.393455866   0.843462003

K_POINTS automatic
4 4 4 1 1 1

CELL_PARAMETERS cubic
  18.233446336   0.000000000   0.070506896
   0.000000000   9.891328217   0.000000000
  -2.712922828   0.000000000  26.059514868
