&control
 title='crystal',
 prefix='crystal',
 pseudo_dir='.',
 calculation='vc-relax',
/
&system
 ibrav=0,
 celldm(1)=1.0,
 nat=   100,
 ntyp=  4,
 ecutwfc=60.0,
 ecutrho=600.0,
 xdm=.true.,
 xdm_a1=0.4073,
 xdm_a2=2.4150,
/
&electrons
 conv_thr = 1d-8,
/
&ions
/
&cell
/
ATOMIC_SPECIES
h      1.007940 h.UPF
c     12.010700 c.UPF
n     14.006700 n.UPF
o     15.999400 o.UPF

ATOMIC_POSITIONS crystal
o     0.08904446     0.56476676     0.17420316
o     0.91095551     0.43523325     0.82579683
o     0.41102840     0.06477910     0.32583152
o     0.58897157     0.93522091     0.67416847
o     0.18425284     0.48684345     0.56647363
o     0.81574712     0.51315656     0.43352637
o     0.31573480     0.98679766     0.93356717
o     0.68426516     0.01320234     0.06643282
n     0.93292375     0.59318333     0.27905694
n     0.06707622     0.40681668     0.72094306
n     0.56709845     0.09315480     0.22095559
n     0.43290152     0.90684520     0.77904441
h     0.92337047     0.57264520     0.34528971
h     0.07662950     0.42735481     0.65471028
h     0.57662318     0.07262669     0.15471589
h     0.42337678     0.92737331     0.84528411
n     0.22445690     0.54729708     0.42613213
n     0.77554306     0.45270293     0.57386787
n     0.27554561     0.04727574     0.07390796
n     0.72445436     0.95272426     0.92609204
c     0.07883785     0.55649387     0.25556767
c     0.92116211     0.44350614     0.74443233
c     0.42120608     0.05648741     0.24446513
c     0.57879388     0.94351259     0.75553486
c     0.23503812     0.49080865     0.33390687
c     0.76496185     0.50919135     0.66609312
c     0.26498387     0.99080460     0.16614182
c     0.73501610     0.00919540     0.83385817
h     0.22988093     0.33602731     0.33108919
h     0.77011904     0.66397270     0.66891081
h     0.27013676     0.83602028     0.16896378
h     0.72986321     0.16397972     0.83103621
c     0.19555658     0.42544668     0.49016176
c     0.80444339     0.57455332     0.50983824
c     0.30444764     0.92542657     0.00988550
c     0.69555233     0.07457344     0.99011450
c     0.77307090     0.63483706     0.20954613
c     0.22692907     0.36516294     0.79045387
c     0.72696549     0.13483609     0.29045041
c     0.27303448     0.86516392     0.70954959
h     0.67719069     0.67402553     0.24549698
h     0.32280928     0.32597448     0.75450302
h     0.82282024     0.17403945     0.25448700
h     0.17717973     0.82596056     0.74551300
h     0.72623533     0.51046484     0.16603714
h     0.27376464     0.48953517     0.83396286
h     0.77383573     0.01047080     0.33396139
h     0.22616423     0.98952921     0.66603861
h     0.78862390     0.75100704     0.16440178
h     0.21137607     0.24899297     0.83559822
h     0.71140357     0.25100265     0.33559285
h     0.28859640     0.74899736     0.66440715
c     0.40529342     0.54829420     0.31604234
c     0.59470655     0.45170580     0.68395766
c     0.09474523     0.04830877     0.18402244
c     0.90525473     0.95169124     0.81597755
h     0.51189163     0.47582977     0.36447926
h     0.48810834     0.52417024     0.63552073
h     0.98812821     0.97587001     0.13558943
h     0.01187176     0.02413000     0.86441057
h     0.42745586     0.70092927     0.32358421
h     0.57254410     0.29907074     0.67641579
h     0.07259726     0.20094967     0.17648572
h     0.92740270     0.79905033     0.82351427
h     0.40458820     0.50717974     0.24569995
h     0.59541177     0.49282026     0.75430004
h     0.09547046     0.00718857     0.25436703
h     0.90452950     0.99281144     0.74563296
c     0.24082063     0.74814494     0.45062421
c     0.75917934     0.25185507     0.54937578
c     0.25918112     0.24812948     0.04941346
c     0.74081884     0.75187053     0.95058654
h     0.12592838     0.79616494     0.46949022
h     0.87407158     0.20383507     0.53050978
h     0.37407182     0.29613769     0.03054113
h     0.62592815     0.70386231     0.96945886
h     0.25639267     0.83012134     0.39180513
h     0.74360730     0.16987867     0.60819486
h     0.24361433     0.33010897     0.10822974
h     0.75638563     0.66989103     0.89177026
h     0.35262053     0.77357262     0.50992562
h     0.64737943     0.22642739     0.49007437
h     0.14737722     0.27355760     0.99011213
h     0.85262274     0.72644241     0.00988786
c     0.17938278     0.21739123     0.46804989
c     0.82061719     0.78260877     0.53195011
c     0.32064156     0.71736824     0.03201208
c     0.67935841     0.28263177     0.96798792
h     0.17311571     0.14258744     0.53068613
h     0.82688425     0.85741257     0.46931386
h     0.32690292     0.64255274     0.96938020
h     0.67309704     0.35744727     0.03061980
h     0.28807485     0.16297505     0.44509808
h     0.71192512     0.83702495     0.55490192
h     0.21195851     0.66296050     0.05497351
h     0.78804146     0.33703951     0.94502648
h     0.06145527     0.18832957     0.41307104
h     0.93854470     0.81167044     0.58692896
h     0.43857627     0.68831894     0.08698923
h     0.56142369     0.31168107     0.91301077

K_POINTS automatic
2 2 2 1 1 1

CELL_PARAMETERS cubic
   15.259006000000     0.000153000000    -0.052427000000
    0.000135000000    13.379229000000     0.000138000000
   -7.603002000000     0.000205000000    27.334656000000
