&control
 title='crystal',
 prefix='crystal',
 pseudo_dir='.',
 calculation='vc-relax',
/
&system
 ibrav=0,
 celldm(1)=1.0,
 nat=    76,
 ntyp=  4,
 ecutwfc=60.0,
 ecutrho=600.0,
 xdm=.true.,
 xdm_a1=0.4073,
 xdm_a2=2.4150,
/
&electrons
 conv_thr = 1d-8,
/
&ions
/
&cell
/
ATOMIC_SPECIES
h      1.007940 h.UPF
c     12.010700 c.UPF
n     14.006700 n.UPF
o     15.999400 o.UPF

ATOMIC_POSITIONS crystal
c     0.45974178     0.46727865     0.71827565
c     0.95974180     0.03272135     0.28172434
c     0.04025824     0.53272136     0.21827566
c     0.54025825     0.96727865     0.78172433
c     0.19470240     0.39378376     0.63098474
c     0.69470242     0.10621624     0.36901525
c     0.30529762     0.60621625     0.13098475
c     0.80529763     0.89378376     0.86901524
c     0.36707336     0.39663089     0.41177120
c     0.86707338     0.10336911     0.58822879
c     0.13292665     0.60336911     0.91177121
c     0.63292666     0.89663090     0.08822878
c     0.49755792     0.33733713     0.36085155
c     0.99755794     0.16266287     0.63914844
c     0.00244210     0.66266287     0.86085156
c     0.50244211     0.83733714     0.13914843
c     0.69041464     0.34662965     0.16296465
c     0.19041466     0.15337035     0.83703534
c     0.80958538     0.65337036     0.66296466
c     0.30958539     0.84662965     0.33703533
c     0.32522366     0.28915648     0.27346831
c     0.82522368     0.21084353     0.72653168
c     0.17477636     0.71084353     0.77346832
c     0.67477637     0.78915648     0.22653167
n     0.52018447     0.44490799     0.49388332
n     0.02018449     0.05509201     0.50611667
n     0.97981555     0.55509201     0.99388333
n     0.47981556     0.94490800     0.00611666
o     0.54552740     0.50736344     0.84543163
o     0.04552742     0.99263656     0.15456836
o     0.95447262     0.49263657     0.34543164
o     0.45447263     0.00736344     0.65456835
o     0.26017382     0.43635997     0.80851952
o     0.76017384     0.06364003     0.19148047
o     0.23982620     0.56364003     0.30851953
o     0.73982621     0.93635998     0.69148046
o     0.02892409     0.36131956     0.66717291
o     0.52892411     0.13868044     0.33282708
o     0.47107593     0.63868044     0.16717292
o     0.97107594     0.86131957     0.83282707
h     0.66415201     0.46132952     0.39815800
h     0.16415203     0.03867048     0.60184199
h     0.83584801     0.53867049     0.89815801
h     0.33584802     0.96132952     0.10184198
h     0.26811949     0.40936798     0.24131789
h     0.76811951     0.09063202     0.75868210
h     0.23188053     0.59063202     0.74131790
h     0.73188054     0.90936798     0.25868209
h     0.58170110     0.32359964     0.53881912
h     0.08170112     0.17640037     0.46118087
h     0.91829892     0.67640037     0.03881913
h     0.41829893     0.82359964     0.96118086
h     0.78929067     0.30523705     0.13671552
h     0.28929069     0.19476295     0.86328447
h     0.71070934     0.69476295     0.63671553
h     0.21070935     0.80523706     0.36328446
h     0.81713572     0.38116615     0.21589619
h     0.31713574     0.11883385     0.78410380
h     0.68286429     0.61883385     0.71589620
h     0.18286430     0.88116615     0.28410379
h     0.61447412     0.35862210     0.97925803
h     0.11447414     0.14137790     0.02074196
h     0.88552590     0.64137791     0.47925804
h     0.38552591     0.85862210     0.52074195
h     0.18331260     0.28172488     0.40987239
h     0.68331262     0.21827512     0.59012760
h     0.31668742     0.71827513     0.90987240
h     0.81668743     0.78172488     0.09012759
h     0.41937950     0.24706956     0.24591715
h     0.91937952     0.25293044     0.75408284
h     0.08062052     0.75293044     0.74591716
h     0.58062053     0.74706957     0.25408283
h     0.24379727     0.30169073     0.09271921
h     0.74379729     0.19830928     0.90728078
h     0.25620275     0.69830928     0.59271922
h     0.75620276     0.80169073     0.40728077

K_POINTS automatic
2 2 2 1 1 1

CELL_PARAMETERS cubic
   10.715987000000     0.000000000000     0.000000000000
    0.000000000000    42.461801000000     0.000000000000
    0.000000000000     0.000000000000    10.003170000000
