&control
 title='crystal',
 prefix='crystal',
 pseudo_dir='.',
 calculation='vc-relax',
/
&system
 ibrav=0,
 celldm(1)=1.0,
 nat=    84,
 ntyp=  4,
 ecutwfc=60.0,
 ecutrho=600.0,
 xdm=.true.,
 xdm_a1=0.4073,
 xdm_a2=2.4150,
/
&electrons
 conv_thr = 1d-8,
/
&ions
/
&cell
/
ATOMIC_SPECIES
h      1.007940 h.UPF
c     12.010700 c.UPF
n     14.006700 n.UPF
o     15.999400 o.UPF

ATOMIC_POSITIONS crystal
o     0.00047661     0.14421375     0.63971442
o     0.99952343     0.85578627     0.36028558
o     0.00047659     0.35578626     0.13971442
o     0.99952344     0.64421377     0.86028557
o     0.09536394     0.86427802     0.61057572
o     0.90463610     0.13572200     0.38942428
o     0.09536392     0.63572199     0.11057572
o     0.90463611     0.36427803     0.88942428
o     0.41846632     0.93963312     0.62068806
o     0.58153371     0.06036690     0.37931194
o     0.41846631     0.56036688     0.12068806
o     0.58153373     0.43963314     0.87931193
o     0.44648114     0.84636048     0.78057044
o     0.55351890     0.15363954     0.21942956
o     0.44648112     0.65363953     0.28057044
o     0.55351891     0.34636049     0.71942955
n     0.76835053     0.72543158     0.57790583
n     0.23164950     0.27456844     0.42209416
n     0.76835052     0.77456842     0.07790583
n     0.23164952     0.22543160     0.92209416
n     0.82523458     0.44029131     0.57201730
n     0.17476545     0.55970871     0.42798269
n     0.82523457     0.05970870     0.07201730
n     0.17476547     0.94029132     0.92798269
c     0.97613134     0.97966383     0.61978863
c     0.02386870     0.02033620     0.38021137
c     0.97613132     0.52033618     0.11978863
c     0.02386871     0.47966384     0.88021136
c     0.78187856     0.91296225     0.61072397
c     0.21812147     0.08703777     0.38927603
c     0.78187855     0.58703776     0.11072397
c     0.21812149     0.41296226     0.88927602
h     0.70382532     0.99190630     0.55322460
h     0.29617472     0.00809372     0.44677540
h     0.70382530     0.50809371     0.05322460
h     0.29617473     0.49190631     0.94677539
c     0.70781010     0.93990454     0.71006919
c     0.29218994     0.06009548     0.28993081
c     0.70781008     0.56009547     0.21006919
c     0.29218995     0.43990455     0.78993080
h     0.77937511     0.85816240     0.76896534
h     0.22062492     0.14183762     0.23103466
h     0.77937510     0.64183761     0.26896534
h     0.22062493     0.35816241     0.73103465
h     0.72673360     0.08207357     0.73073370
h     0.27326644     0.91792645     0.26926630
h     0.72673358     0.41792644     0.23073370
h     0.27326645     0.58207358     0.76926629
c     0.51167796     0.90242844     0.70754467
c     0.48832207     0.09757158     0.29245533
c     0.51167795     0.59757157     0.20754467
c     0.48832209     0.40242846     0.79245532
c     0.69706120     0.66527575     0.48509749
c     0.30293884     0.33472427     0.51490250
c     0.69706118     0.83472426     0.98509749
c     0.30293885     0.16527576     0.01490250
h     0.62726567     0.75293039     0.43032557
h     0.37273437     0.24706963     0.56967442
h     0.62726565     0.74706961     0.93032557
h     0.37273438     0.25293041     0.06967442
c     0.73278295     0.48589029     0.48191567
c     0.26721709     0.51410973     0.51808432
c     0.73278293     0.01410972     0.98191567
c     0.26721710     0.98589030     0.01808432
h     0.70016097     0.38818172     0.42403155
h     0.29983906     0.61181830     0.57596845
h     0.70016096     0.11181829     0.92403155
h     0.29983908     0.88818174     0.07596844
c     0.84555991     0.58608891     0.62922116
c     0.15444012     0.41391111     0.37077884
c     0.84555990     0.91391110     0.12922116
c     0.15444013     0.08608892     0.87077884
h     0.91192551     0.59368336     0.70417817
h     0.08807453     0.40631666     0.29582183
h     0.91192549     0.90631665     0.20417817
h     0.08807454     0.09368337     0.79582182
h     0.28200851     0.91671127     0.62326923
h     0.71799152     0.08328875     0.37673077
h     0.28200850     0.58328873     0.12326923
h     0.71799153     0.41671129     0.87673076
h     0.87720798     0.31386603     0.59474958
h     0.12279206     0.68613399     0.40525042
h     0.87720796     0.18613398     0.09474958
h     0.12279207     0.81386604     0.90525041

K_POINTS automatic
2 2 2 1 1 1

CELL_PARAMETERS cubic
   14.372545000000     0.000000000000     0.022114000000
    0.000000000000    14.070670000000     0.000000000000
   -3.007103000000     0.000000000000    25.433597000000
