&control
 title='crystal',
 prefix='crystal',
 pseudo_dir='.',
 calculation='vc-relax',
/
&system
 ibrav=0,
 celldm(1)=1.0,
 nat=    60,
 ntyp=  4,
 ecutwfc=60.0,
 ecutrho=600.0,
 xdm=.true.,
 xdm_a1=0.4073,
 xdm_a2=2.4150,
/
&electrons
 conv_thr = 1d-8,
/
&ions
/
&cell
/
ATOMIC_SPECIES
h      1.007940 h.UPF
c     12.010700 c.UPF
n     14.006700 n.UPF
o     15.999400 o.UPF

ATOMIC_POSITIONS crystal
o     0.80265294     0.35189304     0.02039476
o     0.19734702     0.64810702     0.97960523
o     0.80263328     0.14810173     0.52038034
o     0.19736668     0.85189832     0.47961965
o     0.15217503     0.21427688     0.09954338
o     0.84782493     0.78572317     0.90045661
o     0.15213647     0.28569322     0.59952731
o     0.84786349     0.71430684     0.40047268
o     0.50013678     0.02755755     0.85632218
o     0.49986317     0.97244250     0.14367781
o     0.50013322     0.47248170     0.35633106
o     0.49986674     0.52751836     0.64366894
n     0.02827509     0.18011802     0.91536105
n     0.97172487     0.81988203     0.08463894
n     0.02824303     0.31989668     0.41536788
n     0.97175692     0.68010337     0.58463211
c     0.00911971     0.24282663     0.01651656
c     0.99088025     0.75717343     0.98348343
c     0.00914566     0.25717652     0.51651850
c     0.99085430     0.74282353     0.48348150
c     0.83311632     0.25031709     0.83667178
c     0.16688364     0.74968296     0.16332822
c     0.83311479     0.24973333     0.33665996
c     0.16688517     0.75026672     0.66334004
c     0.68406045     0.37191106     0.91029130
c     0.31593950     0.62808899     0.08970869
c     0.68406031     0.12810560     0.41027169
c     0.31593965     0.87189446     0.58972830
c     0.65130234     0.12119799     0.78122860
c     0.34869762     0.87880206     0.21877140
c     0.65129345     0.37886468     0.28123124
c     0.34870651     0.62113537     0.71876875
h     0.19046596     0.10875762     0.89488255
h     0.80953400     0.89124243     0.10511744
h     0.19047573     0.39127970     0.39488407
h     0.80952423     0.60872036     0.60511592
h     0.93449866     0.31521171     0.77108818
h     0.06550130     0.68478834     0.22891181
h     0.93449370     0.18486005     0.27107649
h     0.06550625     0.81514000     0.72892350
h     0.47110377     0.34330842     0.91415484
h     0.52889619     0.65669164     0.08584515
h     0.47109363     0.15670352     0.41413685
h     0.52890633     0.84329654     0.58586314
h     0.71046539     0.50059665     0.88637796
h     0.28953457     0.49940340     0.11362203
h     0.71046885     0.99943221     0.38635542
h     0.28953111     0.00056784     0.61364457
h     0.51006779     0.18533684     0.72509565
h     0.48993217     0.81466321     0.27490434
h     0.51005325     0.31473872     0.22509475
h     0.48994671     0.68526133     0.77490524
h     0.77258609     0.03904686     0.73155434
h     0.22741386     0.96095319     0.26844565
h     0.77257490     0.46103007     0.23156074
h     0.22742506     0.53896998     0.76843925
h     0.61755598     0.93757398     0.88605812
h     0.38244397     0.06242607     0.11394187
h     0.61755856     0.56246276     0.38606734
h     0.38244140     0.43753729     0.61393265

K_POINTS automatic
2 2 2 1 1 1

CELL_PARAMETERS cubic
    9.453653000000    -0.000025000000     0.030246000000
   -0.000043000000    15.314241000000     0.000380000000
   -0.941267000000     0.000549000000    23.073667000000
