&control
 title='crystal',
 prefix='crystal',
 pseudo_dir='.',
 calculation='vc-relax',
/
&system
 ibrav=0,
 celldm(1)=1.0,
 nat=    88,
 ntyp=  4,
 ecutwfc=60.0,
 ecutrho=600.0,
 xdm=.true.,
 xdm_a1=0.4073,
 xdm_a2=2.4150,
/
&electrons
 conv_thr = 1d-8,
/
&ions
/
&cell
/
ATOMIC_SPECIES
h      1.007940 h.UPF
c     12.010700 c.UPF
n     14.006700 n.UPF
o     15.999400 o.UPF

ATOMIC_POSITIONS crystal
c     0.38870888     0.12318214     0.11192471
c     0.61129111     0.87681793     0.88807531
c     0.11130814     0.62322028     0.88808381
c     0.88869186     0.37677979     0.11191622
c     0.29645972     0.93873542     0.15272718
c     0.70354028     0.06126465     0.84727285
c     0.20354161     0.43873329     0.84727343
c     0.79645839     0.56126678     0.15272659
c     0.30592802     0.05604450     0.24348523
c     0.69407197     0.94395556     0.75651480
c     0.19407229     0.55604597     0.75651521
c     0.80592771     0.44395409     0.24348482
c     0.20239660     0.91973836     0.28639092
c     0.79760340     0.08026171     0.71360911
c     0.29760328     0.41973434     0.71360901
c     0.70239671     0.58026573     0.28639102
c     0.21853879     0.04076680     0.37718418
c     0.78146120     0.95923327     0.62281584
c     0.28146041     0.54076392     0.62281546
c     0.71853958     0.45923615     0.37718457
c     0.10645206     0.92705987     0.41707583
c     0.89354794     0.07294020     0.58292420
c     0.39354859     0.42705591     0.58292426
c     0.60645140     0.57294416     0.41707577
n     0.14706925     0.94453850     0.09435458
n     0.85293075     0.05546157     0.90564545
n     0.35293100     0.44454516     0.90564726
n     0.64706899     0.55545491     0.09435276
o     0.51896016     0.05375166     0.12775737
o     0.48103983     0.94624841     0.87224266
o     0.98104137     0.55375301     0.87224719
o     0.01895862     0.44624705     0.12775284
o     0.33031221     0.33966523     0.06861633
o     0.66968779     0.66033484     0.93138370
o     0.16968869     0.83965452     0.93138142
o     0.83031131     0.16034555     0.06861861
h     0.09866762     0.14252163     0.09979034
h     0.90133238     0.85747844     0.90020969
h     0.40133353     0.64252703     0.90020970
h     0.59866647     0.35747304     0.09979032
h     0.33210617     0.71555527     0.15575684
h     0.66789382     0.28444480     0.84424319
h     0.16789360     0.21556057     0.84424401
h     0.83210639     0.78443950     0.15575602
h     0.41607917     0.02623023     0.28469710
h     0.58392083     0.97376984     0.71530293
h     0.08392114     0.52622510     0.71530408
h     0.91607886     0.47377497     0.28469595
h     0.28608908     0.28848020     0.23794773
h     0.71391092     0.71151986     0.76205230
h     0.21391179     0.78847779     0.76205255
h     0.78608820     0.21152228     0.23794747
h     0.09253899     0.95590876     0.24542603
h     0.90746101     0.04409130     0.75457400
h     0.40746057     0.45590701     0.75457303
h     0.59253942     0.54409306     0.24542699
h     0.08846994     0.77652882     0.11000448
h     0.91153005     0.22347125     0.88999555
h     0.41153134     0.27652988     0.88999224
h     0.58846865     0.72347018     0.11000779
h     0.32578456     0.99287555     0.42041212
h     0.67421544     0.00712452     0.57958791
h     0.17421564     0.49286869     0.57958752
h     0.82578436     0.50713138     0.42041251
h     0.21663709     0.68556900     0.29001765
h     0.78336291     0.31443107     0.70998238
h     0.28336137     0.18556747     0.70998121
h     0.71663862     0.81443260     0.29001882
h     0.21144434     0.27625668     0.37314613
h     0.78855566     0.72374339     0.62685389
h     0.28855622     0.77625249     0.62685412
h     0.71144378     0.22374758     0.37314591
h     0.99875910     0.98059670     0.37599262
h     0.00124089     0.01940337     0.62400741
h     0.50124083     0.48059527     0.62400736
h     0.49875916     0.51940479     0.37599266
h     0.11967016     0.01770576     0.48195174
h     0.88032984     0.98229431     0.51804829
h     0.38033071     0.51770137     0.51804807
h     0.61966929     0.48229870     0.48195196
h     0.11250327     0.69263357     0.42391845
h     0.88749673     0.30736650     0.57608158
h     0.38749668     0.19263040     0.57608081
h     0.61250332     0.80736967     0.42391922
h     0.14712051     0.91434728     0.02940266
h     0.85287949     0.08565279     0.97059737
h     0.35288375     0.41434569     0.97059603
h     0.64711625     0.58565437     0.02940400

K_POINTS automatic
2 2 2 1 1 1

CELL_PARAMETERS cubic
   18.616226000000    -0.000074000000    -0.397418000000
   -0.000032000000     8.814548000000    -0.000066000000
   -8.428542000000    -0.000201000000    29.192577000000
