&control
 title='crystal',
 prefix='crystal',
 pseudo_dir='.',
 calculation='vc-relax',
/
&system
 ibrav=0,
 celldm(1)=1.0,
 nat=    88,
 ntyp=  4,
 ecutwfc=60.0,
 ecutrho=600.0,
 xdm=.true.,
 xdm_a1=0.4073,
 xdm_a2=2.4150,
/
&electrons
 conv_thr = 1d-8,
/
&ions
/
&cell
/
ATOMIC_SPECIES
h      1.007940 h.UPF
c     12.010700 c.UPF
n     14.006700 n.UPF
o     15.999400 o.UPF

ATOMIC_POSITIONS crystal
o     0.36706354     0.64340438     0.41505034
o     0.63293645     0.14340438     0.58494965
o     0.27908406     0.26790981     0.36380374
o     0.72091593     0.76790981     0.63619626
n     0.11438495     0.85314441     0.42855154
n     0.88561504     0.35314441     0.57144845
h     0.18122591     0.99898568     0.41031123
h     0.81877408     0.49898568     0.58968876
h     0.00967460     0.92303653     0.42481041
h     0.99032539     0.42303653     0.57518958
h     0.14132230     0.79438240     0.49589752
h     0.85867769     0.29438240     0.50410247
c     0.26686713     0.50204463     0.38363994
c     0.73313286     0.00204463     0.61636006
c     0.12359955     0.62975874     0.36503980
c     0.87640044     0.12975874     0.63496019
h     0.04015455     0.49710441     0.38050566
h     0.95984544     0.99710441     0.61949433
c     0.10038749     0.72736893     0.26539436
c     0.89961250     0.22736893     0.73460563
h     0.00113015     0.83322521     0.26052895
h     0.99886983     0.33322521     0.73947104
h     0.18310071     0.86665834     0.25386205
h     0.81689928     0.36665834     0.74613794
c     0.09428598     0.52408816     0.18932166
c     0.90571401     0.02408816     0.81067833
h     0.19025214     0.40859926     0.19745763
h     0.80974785     0.90859926     0.80254237
c     0.96839969     0.34694086     0.19476845
c     0.03160030     0.84694086     0.80523154
h     0.96945959     0.19732823     0.14199855
h     0.03054039     0.69732823     0.85800145
h     0.87084006     0.45556674     0.18233141
h     0.12915992     0.95556674     0.81766858
h     0.96554176     0.25433418     0.26218916
h     0.03445823     0.75433418     0.73781084
c     0.08742595     0.65426238     0.09466180
c     0.91257403     0.15426238     0.90533819
h     0.17554624     0.78455204     0.08765833
h     0.82445375     0.28455204     0.91234167
h     0.99047436     0.76555155     0.08370676
h     0.00952563     0.26555155     0.91629323
h     0.08774628     0.51272544     0.03908601
h     0.91225371     0.01272544     0.96091398
o     0.15055961     0.53948589     0.58410591
o     0.84944037     0.03948589     0.41589408
o     0.23039672     0.14392715     0.61928521
o     0.76960326     0.64392715     0.38071478
n     0.41751339     0.73451335     0.59908967
n     0.58248660     0.23451335     0.40091032
h     0.35460352     0.88972344     0.61557618
h     0.64539647     0.38972344     0.38442382
h     0.52314355     0.77978882     0.61276722
h     0.47685644     0.27978882     0.38723277
h     0.40093911     0.70471694     0.52753016
h     0.59906087     0.20471694     0.47246983
c     0.24544145     0.38217413     0.61411368
c     0.75455854     0.88217413     0.38588631
c     0.38596963     0.49719317     0.65072407
c     0.61403036     0.99719317     0.34927592
h     0.46967997     0.36179797     0.63870482
h     0.53032002     0.86179797     0.36129517
c     0.38532163     0.56472699     0.75352997
c     0.61467836     0.06472699     0.24647002
h     0.47912321     0.68012800     0.77195593
h     0.52087678     0.18012800     0.22804407
h     0.29465163     0.68813281     0.76242414
h     0.70534836     0.18813281     0.23757585
c     0.38473478     0.33629043     0.81953139
c     0.61526521     0.83629043     0.18046860
h     0.30311389     0.20247154     0.79272889
h     0.69688609     0.70247154     0.20727110
c     0.52549253     0.19749735     0.82502360
c     0.47450746     0.69749735     0.17497640
h     0.52523076     0.03351001     0.87195912
h     0.47476923     0.53351001     0.12804087
h     0.60910658     0.32729081     0.85143905
h     0.39089341     0.82729081     0.14856094
h     0.55284562     0.12850403     0.75743214
h     0.44715437     0.62850403     0.24256785
c     0.34905708     0.42595149     0.91537285
c     0.65094291     0.92595149     0.08462715
h     0.24673572     0.52013207     0.91271425
h     0.75326427     0.02013207     0.08728574
h     0.42702708     0.56373222     0.94420626
h     0.57297291     0.06373222     0.05579373
h     0.34693984     0.26533900     0.96382218
h     0.65306015     0.76533900     0.03617781

K_POINTS automatic
2 2 2 1 1 1

CELL_PARAMETERS cubic
   18.126723000000     0.000000000000     0.002613000000
    0.000000000000     9.905633000000     0.000000000000
   -2.016063000000     0.000000000000    27.379333000000
