%nprocs=4
%mem=2GB
#p hf aug-cc-pvdz output=wfx scf=(conver=6) int=(grid=ultrafine)

title

0 1
  P    1.201269535  -0.204173999  -0.693599141
  H    0.007111355  -0.041005705   0.052498122
  H    1.148472001  -1.620791091  -0.659628284
  H    2.042957921  -0.122447272   0.444639236
  N   -2.433607904   0.492556623   1.299079280
  H   -3.186035755   0.696080218   0.653373948
  H   -2.708414193  -0.321383385   1.834279972
  H   -2.373176690   1.269975355   1.944411986

1.01_1.05_phosphine--ammonia.wfx


