%nprocs=4
%mem=2GB
#p hf aug-cc-pvdz output=wfx scf=(conver=6) int=(grid=ultrafine)

title

0 1
  P    1.201269535  -0.204173999  -0.693599141
  H    0.007111355  -0.041005705   0.052498122
  H    1.148472001  -1.620791091  -0.659628284
  H    2.042957921  -0.122447272   0.444639236
  N   -1.852484271   0.365517973   1.002274242
  H   -2.604912122   0.569041568   0.356568911
  H   -2.127290560  -0.448422035   1.537474935
  H   -1.792053057   1.142936705   1.647606948

1.01_0.80_phosphine--ammonia.wfx


