%nprocs=4
%mem=2GB
#p hf aug-cc-pvdz output=wfx scf=(conver=6) int=(grid=ultrafine)

title

0 1
  P    1.605548349  -0.390617824  -0.727405998
  H    0.882634510  -0.288173574   0.486365489
  H    2.871614111  -0.472756002  -0.095217766
  H    1.688520054   1.012884015  -0.909617199
  N   -1.210276855   0.061085714   1.252702023
  H   -1.410775299   0.741874467   1.972682503
  H   -1.747627442  -0.767154906   1.470503151
  C   -1.558553479   0.578432292  -0.070321102
  H   -1.315955482  -0.170122640  -0.823709911
  H   -2.611022383   0.855952729  -0.196693166
  H   -0.951679953   1.458020058  -0.282349121

1.02_0.85_phosphine--methylamine.wfx


