%nprocs=4
%mem=2GB
#p hf aug-cc-pvdz output=wfx scf=(conver=6) int=(grid=ultrafine)

title

0 1
  H   -1.587915175  -1.939285078   0.889921579
  H   -1.218712774  -3.419324543   0.000000000
  H   -1.587915175  -1.939285078  -0.889921579
  H    0.551358815  -0.628721581   0.000000000
  C   -1.108038693  -2.338224205   0.000000000
  S    0.680082860  -1.981329585   0.000000000
  H   -1.133628887   2.721222238   1.304969702
  H   -1.676170978   1.035742090   1.194122284
  H   -0.200614577   1.424653160   2.080108439
  H    1.802297260   1.987594533   0.882692364
  H    1.027594759   3.318108300   0.000000000
  H    1.802297260   1.987594533  -0.882692364
  H   -1.133628887   2.721222238  -1.304969702
  H   -0.200614577   1.424653160  -2.080108439
  C   -0.796443416   1.677612474   1.204540608
  N   -0.015317231   1.457996447   0.000000000
  C    1.213385577   2.232558658   0.000000000
  C   -0.796443416   1.677612474  -1.204540608
  H   -1.676170978   1.035742090  -1.194122284

1.08_1.05_methanethiol--trimethylamine.wfx


