%nprocs=4
%mem=2GB
#p hf aug-cc-pvdz output=wfx scf=(conver=6) int=(grid=ultrafine)

title

0 1
  H    0.008090959  -0.131663345  -0.010791431
  H    1.356736705   1.264750626  -0.257012778
  S    0.051756189   1.221663006   0.047664757
  N   -0.260147828  -3.378057560  -0.103281086
  H    0.260713877  -3.820287478   0.643424582
  H   -1.230574278  -3.645329711   0.003937639
  H    0.067139843  -3.769293083  -0.977494019

1.09_1.50_sulfane--ammonia.wfx


