%nprocs=4
%mem=2GB
#p hf aug-cc-pvdz output=wfx scf=(conver=6) int=(grid=ultrafine)

title

0 1
  H    0.415090735   0.448828599   0.000000000
  H    1.128098734   2.276704808   0.000000000
  S   -0.088230706   1.713031849   0.000000000

1.10_mon1_sulfane--methylamine.wfx


