%nprocs=4
%mem=2GB
#p hf aug-cc-pvdz output=wfx scf=(conver=6) int=(grid=ultrafine)

title

0 1
  H    0.415090735   0.448828599   0.000000000
  H    1.128098734   2.276704808   0.000000000
  S   -0.088230706   1.713031849   0.000000000
  N    0.675424378  -1.298633721   0.000000000
  H    1.167784892  -1.640085165   0.814448910
  H    1.167784892  -1.640085165  -0.814448910
  C   -0.720653542  -1.742149686   0.000000000
  H   -1.222811324  -1.337742945  -0.877537922
  H   -0.853049280  -2.828325522   0.000000000
  H   -1.222811324  -1.337742945   0.877537922

1.10_0.85_sulfane--methylamine.wfx


