%nprocs=4
%mem=2GB
#p hf aug-cc-pvdz output=wfx scf=(conver=6) int=(grid=ultrafine)

title

0 1
  H    1.217743030   0.788143311  -0.078965726
  H    1.906226285   2.113299383  -1.325472783
  S    1.841658755   1.977347311   0.007004422
  H   -1.960648500   0.368492765   1.150340177
  H   -2.211490012   0.474606261  -0.609428456
  H   -1.068684152   1.566255661   0.195021887
  C   -1.476658463   0.561522865   0.192056147
  N   -0.339890922  -0.348739219  -0.025187895
  N   -0.601678773  -1.545732352  -0.051565796
  N   -0.726019343  -2.666545331  -0.094361284

1.11_0.85_sulfane--methylazide.wfx


