%nprocs=4
%mem=2GB
#p hf aug-cc-pvdz output=wfx scf=(conver=6) int=(grid=ultrafine)

title

0 1
  H   -2.235525080   0.167866436   1.159830382
  H   -2.486366592   0.273979932  -0.599938251
  H   -1.343560732   1.365629332   0.204512092
  C   -1.751535043   0.360896536   0.201546352
  N   -0.614767502  -0.549365548  -0.015697690
  N   -0.876555353  -1.746358681  -0.042075591
  N   -1.000895923  -2.867171660  -0.084871079

1.11_mon2_sulfane--methylazide.wfx


