%nprocs=4
%mem=2GB
#p hf aug-cc-pvdz output=wfx scf=(conver=6) int=(grid=ultrafine)

title

0 1
  H    1.250211536   1.596045702   0.136912607
  H    3.150914906   1.841939977   0.530169019
  S    2.023375364   2.538594674   0.732605162

1.13_mon1_sulfane--pyridine.wfx


