%nprocs=4
%mem=2GB
#p hf aug-cc-pvdz output=wfx scf=(conver=6) int=(grid=ultrafine)

title

0 1
  H    1.250211536   1.596045702   0.136912607
  H    3.150914906   1.841939977   0.530169019
  S    2.023375364   2.538594674   0.732605162
  H   -1.737468999  -1.700234971  -2.370335300
  H   -0.199086642   0.249415615  -2.308152238
  C   -1.610187946  -2.018155132  -0.241476328
  C   -1.313587922  -1.371178520  -1.433042736
  C   -0.453678074  -0.281394616  -1.399430177
  N    0.100753781   0.172555116  -0.276033327
  C   -0.188480992  -0.453176086   0.864392646
  C   -1.036602489  -1.550671510   0.932434401
  H    0.279571293  -0.055416709   1.756513377
  H   -1.239328763  -2.022634044   1.882457920
  H   -2.275622156  -2.869711593  -0.228303622

1.13_0.90_sulfane--pyridine.wfx


