%nprocs=4
%mem=2GB
#p hf aug-cc-pvdz output=wfx scf=(conver=6) int=(grid=ultrafine)

title

0 1
  H    0.067192993   0.971773336   0.000000000
  H    1.323045348   2.486783412   0.000000000
  S   -0.009552849   2.340443353   0.000000000
  H    0.618642606  -2.372305581  -1.303193424
  H    0.200088668  -0.831806643  -2.080506414
  H    1.720269917  -0.985343562  -1.197590280
  H    1.720269917  -0.985343562   1.197590280
  H    0.618642606  -2.372305581   1.303193424
  H    0.200088668  -0.831806643   2.080506414
  H   -1.616650872  -2.163239148   0.000000000
  H   -1.868658907  -0.644416783   0.882788905
  C    0.671227524  -1.277257396  -1.205875462
  N    0.018740219  -0.795462729   0.000000000
  C    0.671227524  -1.277257396   1.205875462
  C   -1.405951464  -1.083177663   0.000000000
  H   -1.868658907  -0.644416783  -0.882788905

1.14_0.90_sulfane--trimethylamine.wfx


