%nprocs=4
%mem=2GB
#p hf aug-cc-pvdz output=wfx scf=(conver=6) int=(grid=ultrafine)

title

0 1
  H   -0.172375188  -0.888330607   0.000000000
  F    0.158810900  -1.799313584   0.000000000
  N   -0.677550498   0.747783965   0.000000000
  H   -1.256618992   0.915418441   0.813140199
  H   -1.256618992   0.915418441  -0.813140199
  C    0.497039759   1.633747515   0.000000000
  H    1.101565883   1.418634458   0.878043289
  H    1.101565883   1.418634458  -0.878043289
  H    0.243758446   2.695897463   0.000000000

1.16_1.05_hydrogenfluoride--methylamine.wfx


