%nprocs=4
%mem=2GB
#p hf aug-cc-pvdz output=wfx scf=(conver=6) int=(grid=ultrafine)

title

0 1
  H    0.047398582   2.376990287   0.000000000
  F    0.229305667   3.300103958   0.000000000
  H    1.206105534  -2.800112275  -0.895929680
  H    1.206105534  -2.800112275   0.895929680
  H    0.288023670  -4.045773762   0.000000000
  C    0.632473266  -3.019469190   0.000000000
  O   -0.588177376  -2.212568134   0.000000000
  C   -0.420559696  -0.947555263   0.000000000
  N   -0.308313140   0.198332016   0.000000000

1.18_1.25_hydrogenfluoride--methylcyanate.wfx


