%nprocs=4
%mem=2GB
#p hf aug-cc-pvdz output=wfx scf=(conver=6) int=(grid=ultrafine)

title

0 1
  H    1.277247878  -2.364380621  -0.895929680
  H    1.277247878  -2.364380621   0.895929680
  H    0.359166015  -3.610042108   0.000000000
  C    0.703615611  -2.583737536   0.000000000
  O   -0.517035031  -1.776836480   0.000000000
  C   -0.349417352  -0.511823609   0.000000000
  N   -0.237170796   0.634063670   0.000000000

1.18_mon2_hydrogenfluoride--methylcyanate.wfx


