%nprocs=4
%mem=2GB
#p hf aug-cc-pvdz output=wfx scf=(conver=6) int=(grid=ultrafine)

title

0 1
  H    0.047398582   2.376990287   0.000000000
  F    0.229305667   3.300103958   0.000000000
  H    1.334161754  -2.015795298  -0.895929680
  H    1.334161754  -2.015795298   0.895929680
  H    0.416079891  -3.261456785   0.000000000
  C    0.760529487  -2.235152213   0.000000000
  O   -0.460121155  -1.428251157   0.000000000
  C   -0.292503476  -0.163238286   0.000000000
  N   -0.180256920   0.982648993   0.000000000

1.18_0.80_hydrogenfluoride--methylcyanate.wfx


