%nprocs=4
%mem=2GB
#p hf aug-cc-pvdz output=wfx scf=(conver=6) int=(grid=ultrafine)

title

0 1
  H    0.047398582   2.376990287   0.000000000
  F    0.229305667   3.300103958   0.000000000
  H    1.248790940  -2.538673283  -0.895929680
  H    1.248790940  -2.538673283   0.895929680
  H    0.330709077  -3.784334770   0.000000000
  C    0.675158673  -2.758030198   0.000000000
  O   -0.545491969  -1.951129142   0.000000000
  C   -0.377874290  -0.686116271   0.000000000
  N   -0.265627734   0.459771008   0.000000000

1.18_1.10_hydrogenfluoride--methylcyanate.wfx


