%nprocs=4
%mem=2GB
#p hf aug-cc-pvdz output=wfx scf=(conver=6) int=(grid=ultrafine)

title

0 1
  H    1.537496885   0.303101283  -0.387122015
  F    2.479783008   0.237657304  -0.327727349

1.19_mon1_hydrogenfluoride--Nmethylacetamide.wfx


