%nprocs=4
%mem=2GB
#p hf aug-cc-pvdz output=wfx scf=(conver=6) int=(grid=ultrafine)

title

0 1
  H   -0.000000000   0.000000000  -2.212895458
  F   -0.000000000   0.000000000  -3.177886238
  H    0.000000000   2.147274954   2.812271718
  H    0.000000000   2.052423833   0.324921562
  C    0.000000000   0.000000000   3.008777838
  C    0.000000000   1.195194544   2.303328702
  C    0.000000000   1.147329140   0.917249076
  N    0.000000000   0.000000000   0.237767364
  C    0.000000000  -1.147329140   0.917249076
  C    0.000000000  -1.195194544   2.303328702
  H    0.000000000  -2.052423833   0.324921562
  H    0.000000000  -2.147274954   2.812271718
  H    0.000000000   0.000000000   4.089410048

1.20_1.50_hydrogenfluoride--pyridine.wfx


