%nprocs=4
%mem=2GB
#p hf aug-cc-pvdz output=wfx scf=(conver=6) int=(grid=ultrafine)

title

0 1
  H   -0.738366193   1.907946088  -1.278886190
  H   -0.184946611   0.424929615  -2.085097026
  H   -1.713274681   0.424930219  -1.202713111
  H   -1.713274681   0.424930219   1.202713111
  H   -0.738366193   1.907946088   1.278886190
  H   -0.184946611   0.424929615   2.085097026
  H    1.476737602   1.907943775   0.000000000
  H    1.898221004   0.424927601   0.882381628
  C   -0.697357579   0.813804977  -1.207858275
  N    0.000001216   0.374101766   0.000000000
  C   -0.697357579   0.813804977   1.207858275
  C    1.394719075   0.813803340   0.000000000
  H    1.898221004   0.424927601  -0.882381628

1.21_mon2_hydrogenfluoride--trimethylamine.wfx


