%nprocs=4
%mem=2GB
#p hf aug-cc-pvdz output=wfx scf=(conver=6) int=(grid=ultrafine)

title

0 1
  H    0.108442249  -1.774679671   0.000000000
 Cl   -0.147300079  -3.049197596   0.000000000
  H   -1.291354342   3.485534544  -0.895624011
  H   -1.291354342   3.485534544   0.895624011
  H   -0.482529613   4.804570119   0.000000000
  C   -0.737382593   3.752302582   0.000000000
  O    0.545991478   3.052583761   0.000000000
  C    0.483244255   1.776053405   0.000000000
  N    0.465877479   0.623600858   0.000000000

1.25_1.25_hydrogenchloride--methylcyanate.wfx


