%nprocs=4
%mem=2GB
#p hf aug-cc-pvdz output=wfx scf=(conver=6) int=(grid=ultrafine)

title

0 1
  H    0.108442249  -1.774679671   0.000000000
 Cl   -0.147300079  -3.049197596   0.000000000
  H   -1.420031025   2.622153553  -0.895624011
  H   -1.420031025   2.622153553   0.895624011
  H   -0.611206296   3.941189128   0.000000000
  C   -0.866059276   2.888921591   0.000000000
  O    0.417314795   2.189202770   0.000000000
  C    0.354567572   0.912672414   0.000000000
  N    0.337200796  -0.239780133   0.000000000

1.25_0.80_hydrogenchloride--methylcyanate.wfx


