%nprocs=4
%mem=2GB
#p hf aug-cc-pvdz output=wfx scf=(conver=6) int=(grid=ultrafine)

title

0 1
  H    1.028265062   0.532241587  -0.362285786
 Cl    2.047560612   1.348590584  -0.329954463
  C   -0.456288201  -1.252119709   1.886664809
  H   -0.793511256  -0.700745726   2.758431067
  H    0.631734211  -1.249689261   1.847874179
  H   -0.795422994  -2.284615970   1.983712369
  C   -1.076368098  -0.641074022   0.651052113
  O   -2.116087821  -0.021055868   0.663460314
  N   -0.349439375  -0.818189193  -0.514971038
  H    0.317469721  -1.573777074  -0.505531050
  C   -0.958661248  -0.505989352  -1.803769781
  H   -1.410105294   0.479240050  -1.747627938
  H   -0.185609514  -0.502656563  -2.567449878
  H   -1.734962951  -1.223468490  -2.071970731

1.26_1.00_hydrogenchloride--Nmethylacetamide.wfx


