%nprocs=4
%mem=2GB
#p hf aug-cc-pvdz output=wfx scf=(conver=6) int=(grid=ultrafine)

title

0 1
  H    0.000000000   0.000000000   1.625883667
 Cl    0.000000000   0.000000000   2.993344991
  H    0.000000000  -2.147713952  -2.629080778
  H    0.000000000  -2.051415327  -0.135550625
  C    0.000000000   0.000000000  -2.822881581
  C    0.000000000  -1.196403290  -2.118765350
  C    0.000000000  -1.149313355  -0.732832623
  N    0.000000000   0.000000000  -0.059835902
  C    0.000000000   1.149313355  -0.732832623
  C    0.000000000   1.196403290  -2.118765350
  H    0.000000000   2.051415327  -0.135550625
  H    0.000000000   2.147713952  -2.629080778
  H    0.000000000   0.000000000  -3.903459099

1.27_1.05_hydrogenchloride--pyridine.wfx


