%nprocs=4
%mem=2GB
#p hf aug-cc-pvdz output=wfx scf=(conver=6) int=(grid=ultrafine)

title

0 1
  H    0.000000000   0.000000000   1.625883667
 Cl    0.000000000   0.000000000   2.993344991
  H    0.000000000  -2.147713952  -3.351532022
  H    0.000000000  -2.051415327  -0.858001870
  C    0.000000000   0.000000000  -3.545332826
  C    0.000000000  -1.196403290  -2.841216594
  C    0.000000000  -1.149313355  -1.455283868
  N    0.000000000   0.000000000  -0.782287146
  C    0.000000000   1.149313355  -1.455283868
  C    0.000000000   1.196403290  -2.841216594
  H    0.000000000   2.051415327  -0.858001870
  H    0.000000000   2.147713952  -3.351532022
  H    0.000000000   0.000000000  -4.625910344

1.27_1.50_hydrogenchloride--pyridine.wfx


