%nprocs=4
%mem=2GB
#p hf aug-cc-pvdz output=wfx scf=(conver=6) int=(grid=ultrafine)

title

0 1
  N    0.000026391  -2.578593783   0.000000000
  H   -0.474353244  -2.931059587   0.821647420
  H   -0.474353244  -2.931059587  -0.821647420
  H    0.948782268  -2.931063413   0.000000000

1.28_mon2_hydrogenbromide--ammonia.wfx


