%nprocs=4
%mem=2GB
#p hf aug-cc-pvdz output=wfx scf=(conver=6) int=(grid=ultrafine)

title

0 1
  H    0.036809127   0.227480533  -0.084366851
 Br    0.024581402   1.675889392  -0.191628359
  H   -2.008198025  -3.281143338   1.391983410
  H   -2.128352110  -3.705014946  -0.335093715
  H   -2.431165853  -2.042019222   0.197958057
  C   -1.835372404  -2.930803420   0.374198580
  N   -0.431778480  -2.534703804   0.177466336
  N    0.419379252  -3.401052558   0.357809695
  N    1.280569715  -4.114237556   0.495258616

1.29_1.50_hydrogenbromide--methylazide.wfx


