%nprocs=4
%mem=2GB
#p hf aug-cc-pvdz output=wfx scf=(conver=6) int=(grid=ultrafine)

title

0 1
  H   -0.130828491   0.131510701  -0.431202063
  I    0.015068266  -0.015261633  -2.148009928
  N   -0.246220922   0.247649853   0.928211335
  H    0.043832241  -0.612938332   1.374893145
  H    0.337775759   1.003908915   1.261808831
  H   -1.207701731   0.439977372   1.178875180

1.32_0.85_hydrogeniodide--ammonia.wfx


