%nprocs=4
%mem=2GB
#p hf aug-cc-pvdz output=wfx scf=(conver=6) int=(grid=ultrafine)

title

0 1
  H    0.113038661   0.093971994  -0.503615560
  I   -0.411387200   0.368949864  -2.030082527

1.33_mon1_hydrogeniodide--methylazide.wfx


