%nprocs=4
%mem=2GB
#p hf aug-cc-pvdz output=wfx scf=(conver=6) int=(grid=ultrafine)

title

0 1
  H    0.113038661   0.093971994  -0.503615560
  I   -0.411387200   0.368949864  -2.030082527
  H   -0.706212047   1.623074966   2.007628032
  H   -0.969247716   0.058686540   2.820036942
  H   -1.682678078   0.368462184   1.227200977
  C   -0.819292767   0.549017374   1.858036974
  N    0.339355588  -0.019246181   1.149894196
  N    1.438428616   0.152642067   1.669354735
  N    2.494744202   0.248323788   2.050730138

1.33_0.85_hydrogeniodide--methylazide.wfx


