%nprocs=4
%mem=2GB
#p hf aug-cc-pvdz output=wfx scf=(conver=6) int=(grid=ultrafine)

title

0 1
  H    2.582377616  -1.165915846   0.813866905
  H    1.837728008  -2.002950431   2.183483678
  H    1.185001484  -0.448924302   1.646136014
  H    0.406958227  -1.368265596  -0.711452246
  C    1.643349606  -1.377172665   1.316463701
  S    0.519417506  -2.316211534   0.232847062
  H   -0.277048717   3.245297670  -1.421283503
  H   -1.325609570   0.021207282   0.692543617
  H   -1.397111646   1.623803169   1.475787436
  H   -2.583587489   1.204883020   0.255286985
  O    0.189899715   1.033605364  -1.135925443
  C   -0.648680633   1.638362672  -0.517146254
  O   -0.883134309   2.953741059  -0.726088384
  C   -1.542258430   1.074135460   0.546679322

2.02_1.05_methanethiol--aceticacid.wfx


