%nprocs=4
%mem=2GB
#p hf aug-cc-pvdz output=wfx scf=(conver=6) int=(grid=ultrafine)

title

0 1
  H    1.372511541  -0.064978654  -1.043237779
  H    2.272747724  -1.519531556  -0.584395577
  H    2.376209150  -0.068536694   0.423254912
  H   -0.247481371  -0.137544417   1.018760109
  C    1.720794748  -0.662912680  -0.206478858
  S    0.317023197  -1.324872175   0.748579721
  O   -0.908456708   2.316608258  -0.390886392
  H   -1.072930272   3.253120046  -0.264984275
  C   -1.641756994   1.859304712  -1.523832038
  H   -1.462669244   0.789608991  -1.598149018
  H   -2.715388442   2.023740096  -1.406609044
  H   -1.304247192   2.340048289  -2.445313566

2.03_1.25_methanethiol--methanol.wfx


