%nprocs=4
%mem=2GB
#p hf aug-cc-pvdz output=wfx scf=(conver=6) int=(grid=ultrafine)

title

0 1
  H    0.605915701   0.162904659  -0.307556747
  H    2.150876743   0.627823125   0.784025773
  S    1.243552707   1.292942979   0.054646191
  O   -1.110196066  -1.844613876  -0.495714126
  H   -1.396863330  -2.366572699  -1.247840332
  C   -2.231028822  -1.555734603   0.336433447
  H   -1.869418028  -0.909346046   1.131764281
  H   -3.016836102  -1.028703337  -0.209069853
  H   -2.646602920  -2.462790154   0.780741579

2.08_1.25_sulfane--methanol.wfx


