%nprocs=4
%mem=2GB
#p hf aug-cc-pvdz output=wfx scf=(conver=6) int=(grid=ultrafine)

title

0 1
  H    1.836567763   1.964089921  -0.037249760
  H    1.105589524   3.674202586  -0.595700393
  S    1.810688642   2.687869208  -1.168211245

2.10_mon1_sulfane--POCl3.wfx


