%nprocs=4
%mem=2GB
#p hf aug-cc-pvdz output=wfx scf=(conver=6) int=(grid=ultrafine)

title

0 1
  H    1.861655985   1.699138030   0.123706265
  H    2.120612929   0.282395216   1.402077528
  S    2.842429883   1.322894867   0.959929924

2.11_mon1_sulfane--trimethylphosphite.wfx


