%nprocs=4
%mem=2GB
#p hf aug-cc-pvdz output=wfx scf=(conver=6) int=(grid=ultrafine)

title

0 1
  H   -0.064731809   0.051850180  -1.624618161
  F    0.088838349   0.822032063  -2.190519980

2.12_mon1_hydrogenfluoride--acetamide.wfx


