%nprocs=4
%mem=2GB
#p hf aug-cc-pvdz output=wfx scf=(conver=6) int=(grid=ultrafine)

title

0 1
  H   -0.064731809   0.051850180  -1.624618161
  F    0.088838349   0.822032063  -2.190519980
  H    0.452923787   1.661481439   1.349913772
  H    0.370634521   1.661477747  -0.389075798
  H   -1.110040125  -1.269708168   1.892669006
  H    0.597144425  -1.669425871   1.811897962
  H    0.080301758  -0.192584633   2.650348316
  O   -0.203695873  -0.753297592  -0.577001160
  C   -0.010202228  -0.139536639   0.474929335
  N    0.297170349   1.169889602   0.491046099
  C   -0.112464533  -0.844390608   1.801673970

2.12_0.85_hydrogenfluoride--acetamide.wfx


