%nprocs=4
%mem=2GB
#p hf aug-cc-pvdz output=wfx scf=(conver=6) int=(grid=ultrafine)

title

0 1
  H   -0.172330123  -1.658470038  -0.378732490
  F    0.321641134  -2.414468754  -0.675442961

2.14_mon1_hydrogenfluoride--acetone.wfx


