%nprocs=4
%mem=2GB
#p hf aug-cc-pvdz output=wfx scf=(conver=6) int=(grid=ultrafine)

title

0 1
  H    0.576809073  -1.955916470   0.000000000
  F    0.003549381  -2.709931439   0.000000000
  H   -1.823403779   0.881886436   1.387041896
  H   -0.362638749   0.385787023   2.281766459
  H   -1.292140028  -0.838090168   1.372224497
  H   -1.292140028  -0.838090168  -1.372224497
  H   -0.362638749   0.385787023  -2.281766459
  H   -1.823403779   0.881886436  -1.387041896
  O    0.434124329   1.922322643   0.000000000
  S    0.065989087   0.533648326   0.000000000
  O    1.127543386  -0.464556927   0.000000000
  C   -0.977143662   0.201334240   1.404017025
  C   -0.977143662   0.201334240  -1.404017025

2.16_0.95_hydrogenfluoride--dimethylsulfone.wfx


