%nprocs=4
%mem=2GB
#p hf aug-cc-pvdz output=wfx scf=(conver=6) int=(grid=ultrafine)

title

0 1
  H    0.406762108   0.133290130  -1.762928283
  F    0.361002338   0.018437823  -2.690592045
  H   -0.621052063  -0.177134837   2.988646062
  H    1.136342548  -0.050362979   2.623988648
  H    0.109900261   1.391503497   2.496149643
  C    0.139233707   0.311391855   2.394215511
  N   -0.121253016  -0.001496485   0.956756738
  O    0.664856661   0.486540203   0.148994124
  O   -1.067468971  -0.699984610   0.676183387

2.17_1.10_hydrogenfluoride--nitromethane.wfx


