%nprocs=4
%mem=2GB
#p hf aug-cc-pvdz output=wfx scf=(conver=6) int=(grid=ultrafine)

title

0 1
  H    0.406762108   0.133290130  -1.762928283
  F    0.361002338   0.018437823  -2.690592045
  H   -0.679709916  -0.257418944   2.554118242
  H    1.077684695  -0.130647086   2.189460828
  H    0.051242408   1.311219390   2.061621823
  C    0.080575854   0.231107748   1.959687691
  N   -0.179910869  -0.081780592   0.522228918
  O    0.606198808   0.406256096  -0.285533696
  O   -1.126126824  -0.780268718   0.241655567

2.17_0.85_hydrogenfluoride--nitromethane.wfx


