%nprocs=4
%mem=2GB
#p hf aug-cc-pvdz output=wfx scf=(conver=6) int=(grid=ultrafine)

title

0 1
  H   -0.837394627  -0.292150111  -1.951062696
  F   -0.514885231   0.312438340  -2.596995252

2.19_mon1_hydrogenfluoride--phosphoricacid.wfx


