%nprocs=4
%mem=2GB
#p hf aug-cc-pvdz output=wfx scf=(conver=6) int=(grid=ultrafine)

title

0 1
  H   -0.837394627  -0.292150111  -1.951062696
  F   -0.514885231   0.312438340  -2.596995252
  H   -1.823258735  -1.107086356   0.574405623
  H    1.629454391  -1.624817592   1.358942424
  H    0.191893515   1.157473134  -0.660403898
  P    0.071494423  -0.165738616   1.055213334
  O   -0.349407201  -0.095776518   2.445825422
  O   -0.979377113  -0.996634114   0.122461000
  O    0.241057181   1.202655266   0.308513920
  O    1.439790181  -0.905855336   0.747460574

2.19_1.25_hydrogenfluoride--phosphoricacid.wfx


