%nprocs=4
%mem=2GB
#p hf aug-cc-pvdz output=wfx scf=(conver=6) int=(grid=ultrafine)

title

0 1
  H    0.245679854  -0.156030376  -1.895693416
  F    0.414251896   0.179912897  -2.746626711
  O   -0.037647282  -0.710254247  -0.454687621
  S   -0.148384867  -0.169990784   0.876922707
  O    0.026673154   1.237290151   1.066745484

2.20_0.85_hydrogenfluoride--SO2.wfx


