%nprocs=4
%mem=2GB
#p hf aug-cc-pvdz output=wfx scf=(conver=6) int=(grid=ultrafine)

title

0 1
  H    0.722076242   0.417041132  -2.292371636
  F    0.742303641   1.182336194  -2.864394339

2.21_mon1_hydrogenfluoride--trimethylphosphate.wfx


