%nprocs=4
%mem=2GB
#p hf aug-cc-pvdz output=wfx scf=(conver=6) int=(grid=ultrafine)

title

0 1
  H   -0.584351614  -1.027562335   0.000000000
 Cl   -0.012904668  -2.252533912   0.000000000
  H    1.979182506   1.654152571   0.000000000
  H    1.400779711   0.018682996   0.000000000
  H   -0.875078781   3.191914863  -0.877696901
  H   -0.875078781   3.191914863   0.877696901
  H    0.636261918   3.503532690   0.000000000
  O   -1.022136470   0.666043194   0.000000000
  C   -0.063251646   1.440287389   0.000000000
  N    1.211512700   1.010362581   0.000000000
  C   -0.287508794   2.929844698   0.000000000

2.22_1.10_hydrogenchloride--acetamide.wfx


