%nprocs=4
%mem=2GB
#p hf aug-cc-pvdz output=wfx scf=(conver=6) int=(grid=ultrafine)

title

0 1
  H   -0.307805313  -1.135862533   2.024535962
  H   -0.079998474  -2.716107648   1.239102070
  H    1.235987560  -1.514252673   1.225881103
  H   -0.307805313  -1.135862533  -2.024535962
  H   -0.079998474  -2.716107648  -1.239102070
  H    1.235987560  -1.514252673  -1.225881103
  C    0.151678069  -1.649636556   1.185132717
  O   -0.387370825  -1.083368988   0.000000000
  C    0.151678069  -1.649636556  -1.185132717

2.23_mon2_hydrogenchloride--dimethylether.wfx


