%nprocs=4
%mem=2GB
#p hf aug-cc-pvdz output=wfx scf=(conver=6) int=(grid=ultrafine)

title

0 1
  H   -0.210563935   0.623845157   0.000000000
 Cl    0.030262919   1.919061317   0.000000000
  H   -0.316645658  -1.221223240   2.024535962
  H   -0.088838818  -2.801468355   1.239102070
  H    1.227147216  -1.599613380   1.225881103
  H   -0.316645658  -1.221223240  -2.024535962
  H   -0.088838818  -2.801468355  -1.239102070
  H    1.227147216  -1.599613380  -1.225881103
  C    0.142837724  -1.734997263   1.185132717
  O   -0.396211170  -1.168729695   0.000000000
  C    0.142837724  -1.734997263  -1.185132717

2.23_1.05_hydrogenchloride--dimethylether.wfx


