%nprocs=4
%mem=2GB
#p hf aug-cc-pvdz output=wfx scf=(conver=6) int=(grid=ultrafine)

title

0 1
  H   -0.373384347  -1.562222782   0.000000000
 Cl    0.104536029  -2.797229754   0.000000000
  H    0.173554406   1.345930195  -2.279157595
  H    0.823842193   2.710891332  -1.337428233
  H   -0.927387377   2.315818207  -1.264879777
  H    0.173554406   1.345930195   2.279157595
  H   -0.927387377   2.315818207   1.264879777
  C    0.080183095   1.916749998  -1.359426576
  S    0.390469953   0.767623459   0.000000000
  O   -0.771763417  -0.185018660   0.000000000
  C    0.080183095   1.916749998   1.359426576
  H    0.823842193   2.710891332   1.337428233

2.25_0.85_hydrogenchloride--dimethylsulfoxide.wfx


