%nprocs=4
%mem=2GB
#p hf aug-cc-pvdz output=wfx scf=(conver=6) int=(grid=ultrafine)

title

0 1
  H   -0.130950748  -0.024654388   0.445363631
 Cl    0.439378631  -0.847372435   1.292470218
  O   -0.928187869   1.316911447  -1.118113394
  H   -0.769264804   2.239452567  -0.903237533
  C   -0.342576066   1.013496099  -2.388605479
  H    0.735334578   1.180645441  -2.382917180
  H   -0.534314061  -0.039177275  -2.573875020
  H   -0.802916443   1.603778749  -3.181326811

2.26_1.25_hydrogenchloride--methanol.wfx


