%nprocs=4
%mem=2GB
#p hf aug-cc-pvdz output=wfx scf=(conver=6) int=(grid=ultrafine)

title

0 1
  P    0.224812056   0.533931200   0.000000000
 Cl   -1.000526553   0.424664265   1.584057720
 Cl   -1.000526553   0.424664265  -1.584057720
 Cl    0.876992184   2.431864014   0.000000000
  O    1.295413087  -0.456401863   0.000000000

2.28_mon2_hydrogenchloride--POCl3.wfx


