%nprocs=4
%mem=2GB
#p hf aug-cc-pvdz output=wfx scf=(conver=6) int=(grid=ultrafine)

title

0 1
  H    0.164404635  -0.143388383  -1.463844896
 Cl    0.448835015   0.375928693  -2.606531987
  O   -0.738354383  -1.745068697   2.247446408
  S   -0.790632510  -1.217751936   3.585603172
  O   -0.477898996   0.163910432   3.796611812

2.29_2.00_hydrogenchloride--SO2.wfx


