%nprocs=4
%mem=2GB
#p hf aug-cc-pvdz output=wfx scf=(conver=6) int=(grid=ultrafine)

title

0 1
  H   -0.064352184  -0.188326900  -0.093549965
 Cl    0.085737575   0.878306338   0.638965120
  O   -0.213924241  -1.825994012  -1.294618237
  H   -0.332236639  -1.591372131  -2.219292529
  H    0.573859099  -2.375921489  -1.262288976

2.31_1.10_hydrogenchloride--water.wfx


