%nprocs=4
%mem=2GB
#p hf aug-cc-pvdz output=wfx scf=(conver=6) int=(grid=ultrafine)

title

0 1
  O   -0.200326781  -1.677115184  -1.185430212
  H   -0.318639179  -1.442493303  -2.110104504
  H    0.587456559  -2.227042661  -1.153100951

2.31_mon2_hydrogenchloride--water.wfx


