%nprocs=4
%mem=2GB
#p hf aug-cc-pvdz output=wfx scf=(conver=6) int=(grid=ultrafine)

title

0 1
  H   -0.064352184  -0.188326900  -0.093549965
 Cl    0.085737575   0.878306338   0.638965120
  O   -0.336301378  -3.165903468  -2.277310459
  H   -0.454613776  -2.931281587  -3.201984751
  H    0.451481962  -3.715830945  -2.244981198

2.31_2.00_hydrogenchloride--water.wfx


