%nprocs=4
%mem=2GB
#p hf aug-cc-pvdz output=wfx scf=(conver=6) int=(grid=ultrafine)

title

0 1
 Cl   -0.524799277  -1.643779867   2.364121247
  O   -1.716397937  -1.020849578   2.882376578
  O   -0.744956342  -2.607931092   1.329254358
  O    0.221311841  -0.364553124   1.441987824
  H   -0.050863577   0.456376975   1.881544257

2.33_mon2_hydrogenbromide--chloricacid.wfx


