%nprocs=4
%mem=2GB
#p hf aug-cc-pvdz output=wfx scf=(conver=6) int=(grid=ultrafine)

title

0 1
  H   -0.416205839  -0.700077117  -0.786781148
 Br    0.421428782  -1.879138177  -0.916206654
  H    1.916510953   2.107350220   0.897934397
  H    1.287011210   2.261510229  -0.763536416
  H    1.768418080   0.655027482  -0.153096375
  H    0.276026623  -0.616133262   1.767418313
  H   -1.194562121   0.147803205   2.429947596
  H    0.404862080   0.819776781   2.843244876
  O   -0.856152316   2.661770609   1.096430406
  S   -0.332232804   1.394401811   0.664705130
  O   -1.040461643   0.660758145  -0.371229310
  C    1.345934742   1.620392422   0.112525215
  C   -0.180728308   0.320037643   2.077152675

2.34_0.85_hydrogenbromide--dimethylsulfone.wfx


