%nprocs=4
%mem=2GB
#p hf aug-cc-pvdz output=wfx scf=(conver=6) int=(grid=ultrafine)

title

0 1
  H   -0.416205839  -0.700077117  -0.786781148
 Br    0.421428782  -1.879138177  -0.916206654
  H    1.953231883   2.027301087   0.873490171
  H    1.323732140   2.181461096  -0.787980642
  H    1.805139010   0.574978349  -0.177540601
  H    0.312747553  -0.696182395   1.742974087
  H   -1.157841191   0.067754072   2.405503370
  H    0.441583010   0.739727648   2.818800650
  O   -0.819431386   2.581721476   1.071986180
  S   -0.295511874   1.314352678   0.640260904
  O   -1.003740713   0.580709012  -0.395673536
  C    1.382655672   1.540343289   0.088080989
  C   -0.144007378   0.239988510   2.052708449

2.34_0.80_hydrogenbromide--dimethylsulfone.wfx


