%nprocs=4
%mem=2GB
#p hf aug-cc-pvdz output=wfx scf=(conver=6) int=(grid=ultrafine)

title

0 1
  H   -0.099736348  -0.509971450  -1.362657007
 Br    0.810684881   0.437116880  -1.936976715
  H   -2.763849712  -1.461829326   1.195747482
  H    0.172962916  -2.077796494   3.172636136
  H   -0.429631700   0.950527566   1.284313784
  P   -1.283462318  -0.621743894   2.522795550
  O   -2.202951254  -0.740120946   3.644416954
  O   -1.806099282  -1.359921098   1.183285600
  O   -0.960197614   0.856652400   2.089485150
  O    0.167245436  -1.249524324   2.682535580

2.38_1.50_hydrogenbromide--phosphoricacid.wfx


