%nprocs=4
%mem=2GB
#p hf aug-cc-pvdz output=wfx scf=(conver=6) int=(grid=ultrafine)

title

0 1
  H   -0.355325381  -0.589617444   0.000000000
 Br    0.180581142  -1.914407193   0.000000000
  O   -1.092234809   1.422653361   0.000000000
  S   -0.403141507   2.685708547   0.000000000
  O    1.029478064   2.691679296   0.000000000

2.39_1.00_hydrogenbromide--SO2.wfx


