%nprocs=4
%mem=2GB
#p hf aug-cc-pvdz output=wfx scf=(conver=6) int=(grid=ultrafine)

title

0 1
  H   -0.355325381  -0.589617444   0.000000000
 Br    0.180581142  -1.914407193   0.000000000
  O   -0.981698395   1.120812740   0.000000000
  S   -0.292605093   2.383867926   0.000000000
  O    1.140014478   2.389838675   0.000000000

2.39_0.85_hydrogenbromide--SO2.wfx


