%nprocs=4
%mem=2GB
#p hf aug-cc-pvdz output=wfx scf=(conver=6) int=(grid=ultrafine)

title

0 1
  H    0.511324563   0.178578017  -1.460319558
 Br   -0.091155493   0.016740429  -2.788376537

2.40_mon1_hydrogenbromide--trimethylphosphate.wfx


