%nprocs=4
%mem=2GB
#p hf aug-cc-pvdz output=wfx scf=(conver=6) int=(grid=ultrafine)

title

0 1
  O    0.055425224  -2.696716828   0.000000000
  H   -0.413786993  -3.038018863   0.766571910
  H   -0.413786993  -3.038018863  -0.766571910

2.41_mon2_hydrogenbromide--water.wfx


