%nprocs=4
%mem=2GB
#p hf aug-cc-pvdz output=wfx scf=(conver=6) int=(grid=ultrafine)

title

0 1
  H    0.041635603   0.232833156  -0.352100741
  I    0.315999267   1.350696445  -1.522499325
  H    0.754925166   0.735955585   2.998064469
  H   -0.084882777  -2.300424575   5.478877251
  H    1.344235390  -1.289708416   5.812705435
  H   -0.260369007  -0.629023554   6.072942948
  O   -0.105056107  -1.430293466   3.077226551
  C    0.299368495  -0.796047341   4.025888482
  O    0.785272032   0.450920619   3.926160954
  C    0.321346543  -1.296336159   5.438663733

2.42_2.00_hydrogeniodide--aceticacid.wfx


