%nprocs=4
%mem=2GB
#p hf aug-cc-pvdz output=wfx scf=(conver=6) int=(grid=ultrafine)

title

0 1
  H   -0.043982742  -0.193474314  -0.260336338
  I   -0.800444696  -0.505838751  -1.684073242

2.43_mon1_hydrogeniodide--acetone.wfx


