%nprocs=4
%mem=2GB
#p hf aug-cc-pvdz output=wfx scf=(conver=6) int=(grid=ultrafine)

title

0 1
  H   -0.220400800   0.435720945  -1.006476719
  I   -0.542220943  -0.870537170  -1.898724404

2.44_mon1_hydrogeniodide--bromicacid.wfx


