%nprocs=4
%mem=2GB
#p hf aug-cc-pvdz output=wfx scf=(conver=6) int=(grid=ultrafine)

title

0 1
  H   -0.790334198   0.049270830   0.350571802
  I    0.016018952   0.073690300   1.770702494

2.45_mon1_hydrogeniodide--dimethylsulfone.wfx


