%nprocs=4
%mem=2GB
#p hf aug-cc-pvdz output=wfx scf=(conver=6) int=(grid=ultrafine)

title

0 1
  H    0.556335727  -0.041805460   0.741131902
  I   -0.132136610   0.038478156  -0.745646310
  O    1.341915786  -0.294126694   3.442342370
  H    1.670490034  -1.189540542   3.556817350
  C    0.157947818  -0.121852977   4.225401700
  H   -0.172423364   0.900588053   4.067018936
  H   -0.635705930  -0.800626845   3.908570018
  H    0.363269336  -0.267582639   5.286626936

2.46_1.50_hydrogeniodide--methanol.wfx


