%nprocs=4
%mem=2GB
#p hf aug-cc-pvdz output=wfx scf=(conver=6) int=(grid=ultrafine)

title

0 1
  H    0.556335727  -0.041805460   0.741131902
  I   -0.132136610   0.038478156  -0.745646310
  O    0.975311758  -0.176376785   2.181777485
  H    1.303886007  -1.071790633   2.296252465
  C   -0.208656209  -0.004103068   2.964836814
  H   -0.539027391   1.018337962   2.806454050
  H   -1.002309958  -0.682876936   2.648005132
  H   -0.003334691  -0.149832730   4.026062051

2.46_0.80_hydrogeniodide--methanol.wfx


