%nprocs=4
%mem=2GB
#p hf aug-cc-pvdz output=wfx scf=(conver=6) int=(grid=ultrafine)

title

0 1
  C   -0.854208577  -0.544338858   2.596415922
  H    0.127328729  -0.176892078   2.303915833
  H   -1.043629029  -0.280554499   3.634306543
  H   -1.582535369  -0.047108700   1.958984447
  C   -0.917116391  -2.029440535   2.349158244
  O   -0.728651715  -2.524454694   1.235606810
  N   -1.192129798  -2.813912939   3.406597989
  H   -1.339123088  -2.385206719   4.301453441
  C   -1.277641253  -4.260152237   3.288776195
  H   -0.331125817  -4.675148508   2.947030086
  H   -1.521883328  -4.675309255   4.262006565
  H   -2.047817454  -4.541476964   2.573095524

2.47_mon2_hydrogeniodide--Nmethylacetamide.wfx


