%nprocs=4
%mem=2GB
#p hf aug-cc-pvdz output=wfx scf=(conver=6) int=(grid=ultrafine)

title

0 1
  H   -0.787863116   0.035223446   0.101035769
  I   -1.876331631  -0.028579213  -1.150515721

2.49_mon1_hydrogeniodide--trimethylphosphate.wfx


