%nprocs=4
%mem=2GB
#p hf aug-cc-pvdz output=wfx scf=(conver=6) int=(grid=ultrafine)

title

0 1
  H   -0.726733490  -1.763073899   1.698500682
  I   -1.111371368  -3.313841224   1.371626229

2.50_mon1_hydrogeniodide--trimethylphosphite.wfx


