%nprocs=4
%mem=2GB
#p hf aug-cc-pvdz output=wfx scf=(conver=6) int=(grid=ultrafine)

title

0 1
  H   -0.724097678  -0.806459658   0.719600863
  I    0.234343463   0.488298445   0.471807322
  O   -1.749122179  -2.402232947   0.946205075
  H   -1.912647862  -2.808334854   0.090454795
  H   -1.241240888  -3.047966889   1.445255449

2.51_0.95_hydrogeniodide--water.wfx


