%nprocs=4
%mem=2GB
#p hf aug-cc-pvdz output=wfx scf=(conver=6) int=(grid=ultrafine)

title

0 1
  H   -0.724097678  -0.806459658   0.719600863
  I    0.234343463   0.488298445   0.471807322

2.51_mon1_hydrogeniodide--water.wfx


