%nprocs=4
%mem=2GB
#p hf aug-cc-pvdz output=wfx scf=(conver=6) int=(grid=ultrafine)

title

0 1
  O   -1.803070837  -2.486221015   0.958131612
  H   -1.966596520  -2.892322922   0.102381332
  H   -1.295189546  -3.131954957   1.457181986

2.51_mon2_hydrogeniodide--water.wfx


