%nprocs=4
%mem=2GB
#p hf aug-cc-pvdz output=wfx scf=(conver=6) int=(grid=ultrafine)

title

0 1
  C   -0.445073206   3.291327787   0.000000000
  H   -0.876214391   2.317388004   0.000000000
  C    0.055104244   4.378112754   0.000000000
  H    0.495012170   5.343744939   0.000000000
  H   -2.878091122  -2.082107615   0.000000000
  H   -1.649347668  -2.983591100  -0.885880150
  H   -1.649347668  -2.983591100   0.885880150
  H    1.485851526   0.707670011   0.000000000
  H    1.927337710  -2.936152903  -0.874979008
  H    2.520805820  -0.424742467   0.877120118
  H    2.520805820  -0.424742467  -0.877120118
  H    0.502980470  -3.503703675   0.000000000
  H    1.927337710  -2.936152903   0.874979008
  P   -0.798210152  -0.830116855   0.000000000
  C    0.795151638  -1.349792130   0.000000000
  C    1.878878454  -0.306658057   0.000000000
  C    1.294958838  -2.761546582   0.000000000
  C   -1.830109284  -2.376222491   0.000000000

3.01_1.10_ethyne--phosphaalkene.wfx


