%nprocs=4
%mem=2GB
#p hf aug-cc-pvdz output=wfx scf=(conver=6) int=(grid=ultrafine)

title

0 1
  P   -0.000000232  -1.954011618   0.000000000
  H   -0.598123885  -2.711568021   1.035981141
  H   -0.598123885  -2.711568021  -1.035981141
  H    1.196247927  -2.711567850   0.000000000

3.02_mon2_ethyne--phosphine.wfx


