%nprocs=4
%mem=2GB
#p hf aug-cc-pvdz output=wfx scf=(conver=6) int=(grid=ultrafine)

title

0 1
  O   -1.121527761   1.783086118  -0.311869827
  H   -0.268081128   1.346485238  -0.222631995
  C   -1.800164383   1.203441979  -1.415625590
  H   -2.777600875   1.676680365  -1.474937109
  H   -1.272929749   1.377157168  -2.357630495
  H   -1.941017652   0.125968981  -1.289509094
  H   -1.254192985  -1.736982578   1.481733593
  H   -1.389022975   0.028911949   1.459921013
  H   -0.352535243  -0.767118225   2.651297186
  P    1.593863975  -0.635918539  -0.295775313
  C    0.412336546  -0.722866696   0.690514410
  C   -0.702752652  -0.805081261   1.618341690

3.15_0.95_methanol--phosphaalkyne.wfx


