%nprocs=4
%mem=2GB
#p hf aug-cc-pvdz output=wfx scf=(conver=6) int=(grid=ultrafine)

title

0 1
  O   -0.271575218   1.110211395  -3.064200559
  H   -0.986332430   1.012086923  -2.427321374
  C    0.429077994   2.310457451  -2.771994410
  H    1.262026818   2.370021875  -3.468780611
  H   -0.199707045   3.194721445  -2.906665004
  H    0.826346228   2.313877755  -1.753124728
  H    1.007509345  -0.435260261  -1.615708400
  H   -1.984084486   0.307487224   1.865127768
  C    1.396777525  -1.162924998   0.349806578
  C    0.638856268  -0.495636778  -0.599707990
  P   -0.885659482   0.265073328  -0.294391920
  C   -1.083729100  -0.065876924   1.393616912
  C   -0.179372963  -0.769402814   2.174709134
  C    1.008874593  -1.296029734   1.679201364
  H   -0.405410436  -0.918753797   3.223338910
  H    1.658609480  -1.832195779   2.356766276
  H    2.337991837  -1.604574541   0.046276518

3.16_0.85_methanol--phosphorine.wfx


