%nprocs=4
%mem=2GB
#p hf aug-cc-pvdz output=wfx scf=(conver=6) int=(grid=ultrafine)

title

0 1
  O   -0.055282958  -3.813648339   0.000000000
  H   -0.046670971  -2.851240870   0.000000000
  H    0.870130074  -4.069307195   0.000000000
  P    0.018971719   1.180290075  -1.103647172
  P   -1.127439565  -0.339112371   0.000000000
  P    1.085396824  -0.393973824   0.000000000
  P    0.018971719   1.180290075   1.103647172

3.20_0.95_water--P4.wfx


