%nprocs=4
%mem=2GB
#p hf aug-cc-pvdz output=wfx scf=(conver=6) int=(grid=ultrafine)

title

0 1
  P    0.744112094  -3.104102616  -0.148353380
  F    1.659188062  -2.295848043   0.879126275
  F    1.133200289  -2.338287709  -1.493177108
  H   -0.442119718  -2.346413712   0.100993132
  P    0.748859981   0.855410745   0.752052256
  P   -1.347201719   0.239652151   0.477567480
  P   -0.753145385   2.319673008   0.073504452
  P   -0.095133442   0.704889875  -1.274220262

3.21_0.95_phosphineF2--P4.wfx


