%nprocs=4
%mem=2GB
#p hf aug-cc-pvdz output=wfx scf=(conver=6) int=(grid=ultrafine)

title

0 1
  H    2.830340409  -2.003366876  -0.312303789
  H    3.414675953  -1.333093273   1.217360608
  H    2.499245547  -0.306007439   0.104991385
  H    0.250249400  -1.623277240   0.362177193
  C    2.602582633  -1.314174713   0.495435724
  S    1.098043907  -1.823588393   1.387326264
  H   -1.851119889   0.149830926   1.239953297
  H   -3.030754055   0.049116650  -0.066781515
  H   -2.567991319   1.633065674   0.584029758
  H    0.693083705   1.457163802   0.829836607
  H   -0.259921054   2.821742672   0.215766114
  H    1.095960738   2.181317572  -0.729798213
  H   -2.401675579   1.241526774  -2.683457978
  H   -0.853192592   2.041040113  -2.933004582
  H   -2.002639470   2.697424755  -1.752147949
  P   -0.830432559   0.692042267  -0.901251167
  C   -2.204012450   0.635812734   0.331498986
  C    0.274753587   1.913247822  -0.066207472
  C   -1.598124180   1.779773210  -2.182522331

3.23_1.05_methanethiol--trimethylphosphine.wfx


