%nprocs=4
%mem=2GB
#p hf aug-cc-pvdz output=wfx scf=(conver=6) int=(grid=ultrafine)

title

0 1
  H    0.020542336  -0.413691647  -0.573223040
  H    1.438772101  -0.686744351   0.722528447
  S    1.343149904  -0.651669470  -0.614618208
  H   -1.815306559  -3.478699633  -1.747247901
  H   -1.791024685  -3.711274299   0.003825598
  H   -0.393798541  -2.998150660  -0.812374410
  P   -2.639014290  -0.306926126  -0.423856874
  C   -2.046975001  -1.716085187  -0.618747532
  C   -1.484797135  -3.042755890  -0.802794858

3.24_0.90_sulfane--phosphaalkyne.wfx


