%nprocs=4
%mem=2GB
#p hf aug-cc-pvdz output=wfx scf=(conver=6) int=(grid=ultrafine)

title

0 1
  H    0.645614250   0.470582030   0.065841731
  H    1.602452768   1.491606756   1.413105006
  S    1.654629066   1.359580835   0.079663563
  P   -1.125304536  -0.944513228  -0.075646761
  H   -1.816941556  -1.037841402  -1.307603551
  H   -1.100509188  -2.344695021   0.133393140
  H   -2.302775951  -0.748833484   0.686120292

3.25_0.80_sulfane--phosphine.wfx


