%nprocs=4
%mem=2GB
#p hf aug-cc-pvdz output=wfx scf=(conver=6) int=(grid=ultrafine)

title

0 1
  H    0.645614250   0.470582030   0.065841731
  H    1.602452768   1.491606756   1.413105006
  S    1.654629066   1.359580835   0.079663563
  P   -1.568034232  -1.298287043  -0.111018884
  H   -2.259671252  -1.391615217  -1.342975674
  H   -1.543238884  -2.698468836   0.098021017
  H   -2.745505647  -1.102607299   0.650748169

3.25_1.00_sulfane--phosphine.wfx


