%nprocs=4
%mem=2GB
#p hf aug-cc-pvdz output=wfx scf=(conver=6) int=(grid=ultrafine)

title

0 1
  H    0.893794006   1.515332247  -0.345187693
  H    2.645035627   1.487578252  -1.194174060
  S    2.143912497   1.919000715  -0.027657068
  H   -2.447608211  -1.000955607  -1.519048829
  H   -3.037337533  -0.270936624  -0.029266367
  H   -2.295094194  -1.881483945   0.013360803
  H    0.421226649  -1.562895275  -1.840263484
  H    0.285001311  -2.384552026  -0.274121066
  H    1.540179829  -1.158857172  -0.539037565
  H   -1.152576680   0.380447344   2.129895146
  H    0.565493188   0.046867568   1.921225238
  H   -0.595535288  -1.294352630   1.952189372
  P   -0.613357576  -0.083114460  -0.201713740
  C   -2.252241826  -0.895761189  -0.452776920
  C    0.510676723  -1.435124192  -0.762247075
  C   -0.435079220  -0.265604422   1.625774127

3.27_0.85_sulfane--trimethylphosphine.wfx


