%nprocs=4
%mem=2GB
#p hf aug-cc-pvdz output=wfx scf=(conver=6) int=(grid=ultrafine)

title

0 1
  H   -0.024515893   2.370885834   0.000000000
  F   -0.344763424   3.255166431   0.000000000
  H    3.030501322  -0.090320240   0.000000000
  H    2.404908057  -1.480757121   0.886368272
  H    2.404908057  -1.480757121  -0.886368272
  H   -2.121467370   0.254913642   0.000000000
  H   -0.787417644  -3.170036842   0.875133540
  H   -2.505064424  -1.231581762  -0.877385818
  H   -2.505064424  -1.231581762   0.877385818
  H    0.735554105  -2.989528586   0.000000000
  H   -0.787417644  -3.170036842  -0.875133540
  P    0.611017741  -0.034049383   0.000000000
  C   -0.549614110  -1.237753086   0.000000000
  C   -1.995126006  -0.825810175   0.000000000
  C   -0.314888181  -2.716082338   0.000000000
  C    2.265257280  -0.863942386   0.000000000

3.28_1.10_hydrogenfluoride--phosphaalkene.wfx


