%nprocs=4
%mem=2GB
#p hf aug-cc-pvdz output=wfx scf=(conver=6) int=(grid=ultrafine)

title

0 1
  H   -0.024515893   2.370885834   0.000000000
  F   -0.344763424   3.255166431   0.000000000

3.28_mon1_hydrogenfluoride--phosphaalkene.wfx


