%nprocs=4
%mem=2GB
#p hf aug-cc-pvdz output=wfx scf=(conver=6) int=(grid=ultrafine)

title

0 1
  H    0.086945339   0.054117457  -0.739641941
  F   -0.023143367  -0.097459753  -1.657916584
  P    0.310627367   0.372960481   1.173578017
  H   -0.334351044  -0.441723299   2.129775832
  H    1.583764959   0.320113887   1.782125264
  H   -0.071348763   1.600866846   1.756975617

3.30_0.85_hydrogenfluoride--phosphine.wfx


