%nprocs=4
%mem=2GB
#p hf aug-cc-pvdz output=wfx scf=(conver=6) int=(grid=ultrafine)

title

0 1
  H   -0.000000000   0.000000000  -2.916476279
  F   -0.000000000   0.000000000  -3.853087078
  H    0.000000000  -2.329292782   0.619776806
  H    0.000000000   2.329292782   0.619776806
  C    0.000000000  -1.222321739   2.436503597
  C    0.000000000  -1.338333114   1.054839109
  P    0.000000000   0.000000000  -0.036254169
  C    0.000000000   1.338333114   1.054839109
  C    0.000000000   1.222321739   2.436503597
  C    0.000000000   0.000000000   3.100481261
  H    0.000000000   2.126697409   3.031824077
  H    0.000000000   0.000000000   4.181346811
  H    0.000000000  -2.126697409   3.031824077

3.31_1.25_hydrogenfluoride--phosphorine.wfx


