%nprocs=4
%mem=2GB
#p hf aug-cc-pvdz output=wfx scf=(conver=6) int=(grid=ultrafine)

title

0 1
  H    0.331345486   1.884346591   0.000000000
 Cl   -0.055022791   3.130768445   0.000000000
  H    2.978969896  -0.677113891   0.000000000
  H    2.075083076  -1.904781813   0.886439173
  H    2.075083076  -1.904781813  -0.886439173
  H   -1.998392250   0.723017625   0.000000000
  H   -1.386760293  -2.899896572   0.875104011
  H   -2.672782378  -0.655570364  -0.877293753
  H   -2.672782378  -0.655570364   0.877293753
  H    0.140869607  -3.034913784   0.000000000
  H   -1.386760293  -2.899896572  -0.875104011
  P    0.622658216  -0.111335376   0.000000000
  C   -0.758242314  -1.056701213   0.000000000
  C   -2.091176905  -0.360961166   0.000000000
  C   -0.831233879  -2.552036694   0.000000000
  C    2.067956830  -1.272327426   0.000000000

3.34_0.85_hydrogenchloride--phosphaalkene.wfx


