%nprocs=4
%mem=2GB
#p hf aug-cc-pvdz output=wfx scf=(conver=6) int=(grid=ultrafine)

title

0 1
  H    0.373563736   0.965915426   0.000000000
 Cl    0.159554978   2.242092151   0.000000000
  H   -2.272643625  -2.006168753  -0.883965785
  H   -1.935552679  -0.514224765   0.000000000
  H   -2.272643625  -2.006168753   0.883965785
  P    1.136123330  -2.266225559   0.000000000
  C   -0.365098068  -1.914365016   0.000000000
  C   -1.782329630  -1.595001601   0.000000000

3.35_1.25_hydrogenchloride--phosphaalkyne.wfx


