%nprocs=4
%mem=2GB
#p hf aug-cc-pvdz output=wfx scf=(conver=6) int=(grid=ultrafine)

title

0 1
  H    0.373563736   0.965915426   0.000000000
 Cl    0.159554978   2.242092151   0.000000000
  H   -2.516662695  -0.971883638  -0.883965785
  H   -2.179571749   0.520060350   0.000000000
  H   -2.516662695  -0.971883638   0.883965785
  P    0.892104260  -1.231940444   0.000000000
  C   -0.609117138  -0.880079901   0.000000000
  C   -2.026348700  -0.560716486   0.000000000

3.35_0.85_hydrogenchloride--phosphaalkyne.wfx


