%nprocs=4
%mem=2GB
#p hf aug-cc-pvdz output=wfx scf=(conver=6) int=(grid=ultrafine)

title

0 1
  H    0.000000010   0.579234249   0.000000000
 Cl    0.000000019   1.877115859   0.000000000
  P   -0.000000014  -1.389811295   0.000000000
  H   -0.602085102  -2.130377516   1.042841949
  H   -0.602085102  -2.130377516  -1.042841949
  H    1.204170161  -2.130377530   0.000000000

3.36_0.80_hydrogenchloride--phosphine.wfx


