%nprocs=4
%mem=2GB
#p hf aug-cc-pvdz output=wfx scf=(conver=6) int=(grid=ultrafine)

title

0 1
  H    0.000000000   0.000000000  -2.466595611
 Cl    0.000000000   0.000000000  -3.764119587
  H    0.000000000  -2.328087241   3.104439418
  H    0.000000000   2.328087241   3.104439418
  C    0.000000000  -1.221894466   4.920113677
  C    0.000000000  -1.336395966   3.538333033
  P    0.000000000   0.000000000   2.441567681
  C    0.000000000   1.336395966   3.538333033
  C    0.000000000   1.221894466   4.920113677
  C    0.000000000   0.000000000   5.584770473
  H    0.000000000   2.126635150   5.515090454
  H    0.000000000   0.000000000   6.665686156
  H    0.000000000  -2.126635150   5.515090454

3.37_2.00_hydrogenchloride--phosphorine.wfx


