%nprocs=4
%mem=2GB
#p hf aug-cc-pvdz output=wfx scf=(conver=6) int=(grid=ultrafine)

title

0 1
  H   -0.000000499   1.434839437   0.000000000
 Cl   -0.000001086   2.766485865   0.000000000
  H   -1.864508989  -0.858608071   1.468593928
  H   -0.339586593  -0.858608119   2.349008984
  H   -0.774557146  -2.253128905   1.341571094
  H   -1.864508989  -0.858608071  -1.468593928
  H   -0.774557146  -2.253128905  -1.341571094
  H   -0.339586593  -0.858608119  -2.349008984
  H    2.204094189  -0.858607843   0.880414679
  H    2.204094189  -0.858607843  -0.880414679
  H    1.549112933  -2.253128467   0.000000000
  P    0.000000656  -0.338435103   0.000000000
  C   -0.821113497  -1.166340425   1.422209664
  C   -0.821113497  -1.166340425  -1.422209664
  C    1.642227023  -1.166340113   0.000000000

3.38_0.80_hydrogenchloride--trimethylphosphine.wfx


