%nprocs=4
%mem=2GB
#p hf aug-cc-pvdz output=wfx scf=(conver=6) int=(grid=ultrafine)

title

0 1
  H    0.000000661   0.000004134   1.789318403
 Cl    0.000002844   0.000008017   3.109521237

3.39_mon1_hydrogenchloride--trimethylphosphite.wfx


