%nprocs=4
%mem=2GB
#p hf aug-cc-pvdz output=wfx scf=(conver=6) int=(grid=ultrafine)

title

0 1
  H   -0.337669649   0.185761799   0.000000000
 Br   -0.058551079   1.597089692   0.000000000
  H    2.247707557  -0.222847128   0.000000000
  H    2.542308214  -1.723864234  -0.884014065
  H    2.542308214  -1.723864234   0.884014065
  P   -0.874110873  -1.876557079   0.000000000
  C    0.638175458  -1.576029815   0.000000000
  C    2.063815826  -1.299082626   0.000000000

3.42_0.80_hydrogenbromide--phosphaalkyne.wfx


