%nprocs=4
%mem=2GB
#p hf aug-cc-pvdz output=wfx scf=(conver=6) int=(grid=ultrafine)

title

0 1
  H    0.000000003   0.241145066   0.000000000
 Br    0.000000014  -1.201897006   0.000000000
  P   -0.000000030   2.469314512   0.000000000
  H   -0.601940337   3.210833996  -1.042591202
  H   -0.601940337   3.210833996   1.042591202
  H    1.203880608   3.210834006   0.000000000

3.43_0.90_hydrogenbromide--phosphine.wfx


