%nprocs=4
%mem=2GB
#p hf aug-cc-pvdz output=wfx scf=(conver=6) int=(grid=ultrafine)

title

0 1
  H    0.000000003   0.241145066   0.000000000
 Br    0.000000014  -1.201897006   0.000000000
  P   -0.000000052   3.954760810   0.000000000
  H   -0.601940360   4.696280294  -1.042591202
  H   -0.601940360   4.696280294   1.042591202
  H    1.203880586   4.696280304   0.000000000

3.43_1.50_hydrogenbromide--phosphine.wfx


