%nprocs=4
%mem=2GB
#p hf aug-cc-pvdz output=wfx scf=(conver=6) int=(grid=ultrafine)

title

0 1
  H   -0.336905209   0.591160381  -0.639175257
 Br   -0.276912732   0.441172872  -2.106890034
  H    2.353905082   3.047872213   2.494952573
  H    1.251931579   2.847399863   1.116740108
  H    0.692351929   3.671894705   2.592140037
  H   -3.512055368   2.038338129   2.933371970
  H    0.307836280  -2.504085958   2.992971191
  H   -3.000913285   1.114335756   1.505284090
  H   -3.174088801   0.299144438   3.078302321
  H    0.650021095  -1.663635424   1.466142756
  O   -0.245545668  -0.544976244   2.990613065
  P   -0.324852478   0.828797592   2.147221317
  O    0.933233062   1.617857665   2.778869506
  C    1.322405931   2.872524663   2.205275301
  O   -1.533214239   1.562592618   2.926384706
  C   -2.883262187   1.224991166   2.584494645
  C    0.652726834  -1.573218890   2.553463613
  H    1.663004893  -1.357602553   2.897537348

3.46_1.25_hydrogenbromide--trimethylphosphite.wfx


