%nprocs=4
%mem=2GB
#p hf aug-cc-pvdz output=wfx scf=(conver=6) int=(grid=ultrafine)

title

0 1
  H    0.270599856   0.207966649  -1.311285943
 Br    0.722742179  -0.587188535  -2.409727359
  P   -0.051107590  -1.337231558   1.513977431
  P    0.727651395   0.684654392   1.133278530
  P   -1.366845588   0.183385683   0.621833033
  P   -0.755020023   0.367402204   2.726011032

3.47_0.90_hydrogenbromide--P4.wfx


