%nprocs=4
%mem=2GB
#p hf aug-cc-pvdz output=wfx scf=(conver=6) int=(grid=ultrafine)

title

0 1
  H   -1.280522383  -0.338883007   0.492192351
  I   -2.608311835  -0.179879694  -0.458617962

3.48_mon1_hydrogeniodide--phosphaalkene.wfx


