%nprocs=4
%mem=2GB
#p hf aug-cc-pvdz output=wfx scf=(conver=6) int=(grid=ultrafine)

title

0 1
  H   -1.280522383  -0.338883007   0.492192351
  I   -2.608311835  -0.179879694  -0.458617962
  H    1.549302804   2.393543170   3.444903532
  H   -0.095731381   1.780466652   3.276738581
  H    0.823802054   1.468242460   4.759398760
  H    1.753219368  -2.617880692   2.190494637
  H   -1.555028926  -1.360856074   3.535014480
  H    0.947935702  -3.299931714   3.611612095
  H    0.012648681  -2.932312592   2.172431704
  H   -0.845118978  -0.131931334   4.581118498
  H   -0.656548374  -1.849041470   4.958335972
  P    1.611523434   0.030707350   2.899545159
  C    0.557423256  -1.211108398   3.322320046
  C    0.845897142  -2.586356514   2.790420343
  C   -0.684353094  -1.114407250   4.149823579
  C    0.893073606   1.556679582   3.676045602

3.48_1.50_hydrogeniodide--phosphaalkene.wfx


