%nprocs=4
%mem=2GB
#p hf aug-cc-pvdz output=wfx scf=(conver=6) int=(grid=ultrafine)

title

0 1
  H   -0.000000075   0.857481123  -0.000000000
  I    0.000000184  -0.743998606   0.000000001
  P   -0.000000299   3.750118193  -0.000000002
  H   -0.597250539   4.492173400  -1.034468013
  H   -0.597250539   4.492173395   1.034468013
  H    1.194500693   4.492172947  -0.000000000

3.50_1.10_hydrogeniodide--phosphine.wfx


