%nprocs=4
%mem=2GB
#p hf aug-cc-pvdz output=wfx scf=(conver=6) int=(grid=ultrafine)

title

0 1
  H   -0.000000075   0.857481123  -0.000000000
  I    0.000000184  -0.743998606   0.000000001
  P   -0.000000279   3.487151187  -0.000000002
  H   -0.597250519   4.229206394  -1.034468013
  H   -0.597250519   4.229206389   1.034468013
  H    1.194500713   4.229205941   0.000000000

3.50_1.00_hydrogeniodide--phosphine.wfx


