%nprocs=4
%mem=2GB
#p hf aug-cc-pvdz output=wfx scf=(conver=6) int=(grid=ultrafine)

title

0 1
  P   -1.202593910  -0.933030889   2.432452847
  P   -0.391948776   0.434158081   3.964065526
  P    0.727867341   0.067088001   2.105389445
  P   -1.147148829   1.232605619   2.057405269

3.52_mon2_hydrogeniodide--P4.wfx


