%nprocs=4
%mem=2GB
#p hf aug-cc-pvdz output=wfx scf=(conver=6) int=(grid=ultrafine)

title

0 1
  C    2.106088099   0.342724641  -0.187886324
  H    1.150106433   0.623891613  -0.566455031
  C    3.169792657   0.011916680   0.248503367
  H    4.116618093  -0.276415848   0.631432631
  H   -1.428469122  -1.354338301   1.285591563
  H   -0.882268922   0.238811385   1.823147744
  H    0.279902710  -0.872953179   1.090113248
  H   -0.964316257  -0.835675840  -1.298183370
  C   -0.751587638  -0.533372750   1.069725966
  S   -1.158119048   0.245428754  -0.527937573

4.02_0.85_ethyne--methanethiol.wfx


