%nprocs=4
%mem=2GB
#p hf aug-cc-pvdz output=wfx scf=(conver=6) int=(grid=ultrafine)

title

0 1
  H   -0.883495618  -1.904220472   0.969418293
  H   -0.883495618  -1.904220472  -0.969418293
  S    0.042985742  -1.940805814   0.000000000

4.03_mon2_ethyne--sulfane.wfx


