%nprocs=4
%mem=2GB
#p hf aug-cc-pvdz output=wfx scf=(conver=6) int=(grid=ultrafine)

title

0 1
  H    0.389332314   2.344045487  -1.681806636
  H   -1.199874482   1.759198382  -2.182546842
  H    0.102187467   0.605834913  -1.868648370
  P   -1.170584739   1.341958558   1.328922668
  C   -0.748470102   1.455338816  -0.148161286
  C   -0.343502892   1.547672902  -1.539721749
  H    2.389005562  -2.677296802   1.407378679
  H    3.432431678  -4.096702833   1.215612939
  H    2.359848767  -3.978331187   2.617760864
  H    0.139705774  -4.045070426   1.113466523
  C    2.462294308  -3.749507602   1.561155158
  S    1.215584823  -4.639844523   0.575082928

4.07_2.00_phosphaalkyne--methanethiol.wfx


