%nprocs=4
%mem=2GB
#p hf aug-cc-pvdz output=wfx scf=(conver=6) int=(grid=ultrafine)

title

0 1
  N   -1.192510977   0.467715987   1.696995707
  H   -2.172046535   0.345116477   1.915530748
  H   -1.120999866   0.600682083   0.694198318
  C   -0.645496493   1.624452415   2.404823312
  H    0.409210908   1.732551388   2.153094081
  H   -1.139477257   2.577525758   2.182764643
  H   -0.706044357   1.456787331   3.479787128

4.11_mon1_methylamine--dimethylsulfide.wfx


