%nprocs=4
%mem=2GB
#p hf aug-cc-pvdz output=wfx scf=(conver=6) int=(grid=ultrafine)

title

0 1
  H    2.038603617   2.962592325  -1.626286155
  H    2.761496120   1.485545869  -2.299968662
  H    3.207265405   2.040698769  -0.663559839
  H    1.784020372  -0.396167861   1.979753297
  H    3.356919104  -0.034021992   1.221232544
  H    2.863644821  -1.717563061   1.479324853
  C    2.405593903   1.964120073  -1.392602144
  S    0.983627962   1.056123999  -0.709669458
  S    1.738257216  -0.826321729  -0.405219480
  C    2.511161980  -0.715274360   1.239676986

4.13_mon2_Nmethylacetamide--dimethyldisulfide.wfx


