%nprocs=4
%mem=2GB
#p hf aug-cc-pvdz output=wfx scf=(conver=6) int=(grid=ultrafine)

title

0 1
  C   -2.357909974  -0.530763153   1.513809691
  H   -2.458888135   0.431064781   2.014064114
  H   -1.435641500  -1.012326308   1.832243938
  H   -3.203687290  -1.144676848   1.817474716
  C   -2.435185383  -0.311941800   0.015927019
  O   -3.413586877   0.194331849  -0.508914794
  N   -1.352598404  -0.729166071  -0.688420318
  H   -0.532927623  -1.037959315  -0.184588744
  C   -1.265004923  -0.563272769  -2.123444472
  H   -2.264093859  -0.614295931  -2.546374380
  H   -0.831709133   0.401126684  -2.401752990
  H   -0.653370716  -1.357612024  -2.546241659

4.14_mon1_Nmethylacetamide--tetrahydrothiophene.wfx


