%nprocs=4
%mem=2GB
#p hf aug-cc-pvdz output=wfx scf=(conver=6) int=(grid=ultrafine)

title

0 1
  H   -3.864024261   2.696053474  -0.614944270
  H   -3.102262175   2.592674622   0.986878093
  H   -3.920212866   1.169812075   0.286026882
  H   -1.357468093  -1.481049494  -0.640773473
  H   -2.443367168  -1.273420645   0.762020355
  H   -0.763463269  -1.840391316   0.990670999
  C   -3.319864296   2.049494430   0.072096493
  S   -1.776791685   1.595474048  -0.779838826
  S   -0.783394225   0.488980538   0.634456649
  C   -1.420046734  -1.200116952   0.406048064

4.15_mon2_aceticacid--dimethyldisulfide.wfx


