%nprocs=4
%mem=2GB
#p hf aug-cc-pvdz output=wfx scf=(conver=6) int=(grid=ultrafine)

title

0 1
  H    1.015540508  -2.064302946  -0.263452316
  H    1.412213480  -3.507907961   0.683306271
  H    2.287767006  -1.999782097   0.978385091
  H    0.092274976  -0.709598095   1.832674891
  C    1.324423996  -2.425038093   0.712776929
  S    0.069414853  -2.045084238   1.979216362
  H   -2.773633264   0.408290284   0.694946120
  H   -1.723044818  -0.918904767   0.159028900
  H   -2.349526889   0.273503237  -1.021596164
  H    0.466814629   2.626573174  -2.277085237
  H   -0.547907752   1.288051387  -2.878143056
  H    1.188967559   1.314751364  -3.234668023
  C   -1.992248928   0.120098430  -0.007323851
  S   -0.573687714   1.203527388   0.349401324
  S    0.840311392   0.598756201  -1.005047603
  C    0.430234879   1.563128480  -2.493660760

4.22_0.90_methanethiol--dimethyldisulfide.wfx


