%nprocs=4
%mem=2GB
#p hf aug-cc-pvdz output=wfx scf=(conver=6) int=(grid=ultrafine)

title

0 1
  H    2.306558995  -2.057896803  -0.649523013
  H    3.320314379  -1.474712517   0.676413050
  H    2.523071192  -0.310830242  -0.388825854
  H    0.070026329  -1.019936544   0.360230349
  C    2.422497640  -1.277517784   0.096840229
  S    1.028657842  -1.283773896   1.270938462
  H    0.548050371   1.681262900  -0.124201604
  H   -0.364758378   2.959903985  -0.967522496
  H    0.650106686   1.840272093  -1.889860314
  H   -3.157654660   0.439463331   0.268038604
  H   -2.633720754   2.131077577   0.305928972
  H   -1.672859053   0.880069024   1.132517848
  C   -0.004847149   1.934642153  -1.027152635
  S   -1.381488453   0.783046198  -1.267985578
  C   -2.293035477   1.098404828   0.264675164

4.23_1.10_methanethiol--dimethylsulfide.wfx


