%nprocs=4
%mem=2GB
#p hf aug-cc-pvdz output=wfx scf=(conver=6) int=(grid=ultrafine)

title

0 1
  H   -1.906124517  -0.485265265   1.123824596
  H   -1.138153797  -2.000824356   0.187649890
  S   -1.752618370  -0.858875921  -0.155267952

4.27_mon2_sulfane--sulfane.wfx


