%nprocs=4
%mem=2GB
#p hf aug-cc-pvdz output=wfx scf=(conver=6) int=(grid=ultrafine)

title

0 1
  H    0.531398318   0.644987156  -0.290550534
  H    2.238797718   0.672661953   0.638139856
  S    1.602737688   1.457777873  -0.243491684
  H   -2.020325351  -0.560458419   1.130588725
  H   -1.252354631  -2.076017510   0.194414019
  S   -1.866819204  -0.934069075  -0.148503823

4.27_1.05_sulfane--sulfane.wfx


