%nprocs=4
%mem=2GB
#p hf aug-cc-pvdz output=wfx scf=(conver=6) int=(grid=ultrafine)

title

0 1
  H    0.531398318   0.644987156  -0.290550534
  H    2.238797718   0.672661953   0.638139856
  S    1.602737688   1.457777873  -0.243491684
  H   -1.791923683  -0.410072111   1.117060467
  H   -1.023952963  -1.925631202   0.180885761
  S   -1.638417536  -0.783682767  -0.162032081

4.27_0.95_sulfane--sulfane.wfx


