%nprocs=4
%mem=2GB
#p hf aug-cc-pvdz output=wfx scf=(conver=6) int=(grid=ultrafine)

title

0 1
  H    0.531398318   0.644987156  -0.290550534
  H    2.238797718   0.672661953   0.638139856
  S    1.602737688   1.457777873  -0.243491684
  H   -1.906124517  -0.485265265   1.123824596
  H   -1.138153797  -2.000824356   0.187649890
  S   -1.752618370  -0.858875921  -0.155267952

4.27_1.00_sulfane--sulfane.wfx


