%nprocs=4
%mem=2GB
#p hf aug-cc-pvdz output=wfx scf=(conver=6) int=(grid=ultrafine)

title

0 1
  H    0.234950421   1.503189900   0.000000000
  F   -0.110872131   2.385641816   0.000000000
  H   -1.040036229  -2.362175077  -1.349885935
  H   -0.475920011  -4.054948158  -1.377367227
  H    0.386270714  -2.811608611  -2.300256732
  H    0.386270714  -2.811608611   2.300256732
  H   -0.475920011  -4.054948158   1.377367227
  H   -1.040036229  -2.362175077   1.349885935
  C   -0.168704880  -3.011737291  -1.387514538
  S    0.945265001  -2.667813392   0.000000000
  C   -0.168704880  -3.011737291   1.387514538

4.30_2.00_hydrogenfluoride--dimethylsulfide.wfx


