%nprocs=4
%mem=2GB
#p hf aug-cc-pvdz output=wfx scf=(conver=6) int=(grid=ultrafine)

title

0 1
  H    0.234950421   1.503189900   0.000000000
  F   -0.110872131   2.385641816   0.000000000
  H   -1.395193519  -0.276673431  -1.349885935
  H   -0.831077301  -1.969446512  -1.377367227
  H    0.031113424  -0.726106965  -2.300256732
  H    0.031113424  -0.726106965   2.300256732
  H   -0.831077301  -1.969446512   1.377367227
  H   -1.395193519  -0.276673431   1.349885935
  C   -0.523862170  -0.926235645  -1.387514538
  S    0.590107711  -0.582311746   0.000000000
  C   -0.523862170  -0.926235645   1.387514538

4.30_1.00_hydrogenfluoride--dimethylsulfide.wfx


