%nprocs=4
%mem=2GB
#p hf aug-cc-pvdz output=wfx scf=(conver=6) int=(grid=ultrafine)

title

0 1
  H    0.234950421   1.503189900   0.000000000
  F   -0.110872131   2.385641816   0.000000000

4.30_mon1_hydrogenfluoride--dimethylsulfide.wfx


