%nprocs=4
%mem=2GB
#p hf aug-cc-pvdz output=wfx scf=(conver=6) int=(grid=ultrafine)

title

0 1
  H   -0.227014778   0.166887111  -1.353692766
  F   -0.474200276   0.715088217  -2.079126833
  H   -0.574424660   1.324576349   1.280483613
  H    1.168374828   1.165228026   1.536419454
  H    0.050755343   0.481175427   2.726641490
  H   -0.958415242  -1.301929825   0.972126630
  C    0.205979928   0.679666327   1.671014610
  S    0.292411134  -0.880904314   0.729965503

4.31_1.10_hydrogenfluoride--methanethiol.wfx


