%nprocs=4
%mem=2GB
#p hf aug-cc-pvdz output=wfx scf=(conver=6) int=(grid=ultrafine)

title

0 1
  H   -0.607657650   0.256546982   0.016152236
  F   -1.168363226   0.439472991  -0.706812055
  S    0.569811202   0.133255800   1.562834758
  P    0.124418458   2.109662402   2.181019601
  S   -2.495424561  -0.069497265   2.577826644
  S   -0.050638200  -0.207654887   4.703995544
  P   -0.309379582   1.860887861   4.376494532
  P   -2.004699445   1.956115785   2.897012763
  P   -0.645879382  -1.053785385   2.858270832

4.32_0.85_hydrogenfluoride--P4S3.wfx


