%nprocs=4
%mem=2GB
#p hf aug-cc-pvdz output=wfx scf=(conver=6) int=(grid=ultrafine)

title

0 1
  H   -0.607657650   0.256546982   0.016152236
  F   -1.168363226   0.439472991  -0.706812055

4.32_mon1_hydrogenfluoride--P4S3.wfx


