%nprocs=4
%mem=2GB
#p hf aug-cc-pvdz output=wfx scf=(conver=6) int=(grid=ultrafine)

title

0 1
  H    0.048002422   1.088734497   0.000000000
  F   -0.004908833   2.023879365   0.000000000
  H   -0.863050262  -1.492882494   0.970994567
  H   -0.863050262  -1.492882494  -0.970994567
  S    0.056649677  -1.381558786   0.000000000

4.33_1.10_hydrogenfluoride--sulfane.wfx


