%nprocs=4
%mem=2GB
#p hf aug-cc-pvdz output=wfx scf=(conver=6) int=(grid=ultrafine)

title

0 1
  H    0.048002422   1.088734497   0.000000000
  F   -0.004908833   2.023879365   0.000000000
  H   -0.861871091  -1.829740668   0.970994567
  H   -0.861871091  -1.829740668  -0.970994567
  S    0.057828848  -1.718416960   0.000000000

4.33_1.25_hydrogenfluoride--sulfane.wfx


