%nprocs=4
%mem=2GB
#p hf aug-cc-pvdz output=wfx scf=(conver=6) int=(grid=ultrafine)

title

0 1
  H   -0.328148919   0.674631615  -1.759528174
  F   -0.332598602   1.541791953  -2.147664879

4.34_mon1_hydrogenfluoride--tetrahydrothiophene.wfx


