%nprocs=4
%mem=2GB
#p hf aug-cc-pvdz output=wfx scf=(conver=6) int=(grid=ultrafine)

title

0 1
  H   -0.328148919   0.674631615  -1.759528174
  F   -0.332598602   1.541791953  -2.147664879
  H   -1.609075440  -0.805921677   1.343965162
  H   -2.082415055   0.456950902   0.197858294
  H   -0.693397286   1.210559229   2.357528364
  H    1.821365553   0.437745694  -0.536613996
  H   -0.195398123   1.841144451   0.787610316
  H    2.044661925  -1.183881782   0.133876435
  H    1.838424110   0.896200859   1.834057317
  H    0.980793897  -0.596339620   2.203355294
  S   -0.226301842  -0.842975408  -0.639852696
  C   -1.237946263  -0.037251854   0.669644625
  C   -0.298314463   0.932116334   1.380638999
  C    1.052027727   0.225443625   1.489260334
  C    1.381502682  -0.324413958   0.101615214

4.34_0.90_hydrogenfluoride--tetrahydrothiophene.wfx


