%nprocs=4
%mem=2GB
#p hf aug-cc-pvdz output=wfx scf=(conver=6) int=(grid=ultrafine)

title

0 1
  H   -0.947674337   2.752308068   0.000000000
  H    0.597453239   2.841782145   0.874524845
  H    0.597453239   2.841782145  -0.874524845
  H    1.658229874  -0.668852568   0.000000000
  H    2.145205969   0.799647878  -0.873839624
  C    0.087835741   2.429946127   0.000000000
  C    0.213392013   0.938507128   0.000000000
  S   -1.104764692  -0.021647325   0.000000000
  C    1.613681554   0.414196691   0.000000000
  H    2.145205969   0.799647878   0.873839624

4.35_mon2_hydrogenfluoride--thioacetone.wfx


