%nprocs=4
%mem=2GB
#p hf aug-cc-pvdz output=wfx scf=(conver=6) int=(grid=ultrafine)

title

0 1
  H   -0.191797763  -1.955532752   0.000000000
  F    0.331167063  -2.745939304   0.000000000

4.35_mon1_hydrogenfluoride--thioacetone.wfx


