%nprocs=4
%mem=2GB
#p hf aug-cc-pvdz output=wfx scf=(conver=6) int=(grid=ultrafine)

title

0 1
  H   -0.260682653   0.626538723  -1.615802087
 Cl    0.105810980   1.516702620  -2.497902669

4.36_mon1_hydrogenchloride--dimethyldisulfide.wfx


