%nprocs=4
%mem=2GB
#p hf aug-cc-pvdz output=wfx scf=(conver=6) int=(grid=ultrafine)

title

0 1
  H   -0.573885324   0.231715936  -0.009838134
 Cl   -1.310853354   0.724488426  -0.947943052
  S    0.681646825   0.016550696   1.670593378
  P    0.174624940   2.025557081   2.094633980
  S   -2.446354332  -0.154843479   2.474197038
  S   -0.172258293  -0.077411648   4.779875766
  P   -0.426783779   1.952271589   4.262999546
  P   -2.002166334   1.898855743   2.652862972
  P   -0.608213869  -1.078688571   2.966494014

4.39_0.85_hydrogenchloride--P4S3.wfx


