%nprocs=4
%mem=2GB
#p hf aug-cc-pvdz output=wfx scf=(conver=6) int=(grid=ultrafine)

title

0 1
  H   -0.573885324   0.231715936  -0.009838134
 Cl   -1.310853354   0.724488426  -0.947943052
  S    1.641759645  -0.147987430   2.955629241
  P    1.134737760   1.861018956   3.379669843
  S   -1.486241512  -0.319381604   3.759232901
  S    0.787854527  -0.241949774   6.064911629
  P    0.533329041   1.787733464   5.548035408
  P   -1.042053514   1.734317618   3.937898835
  P    0.351898951  -1.243226696   4.251529877

4.39_1.50_hydrogenchloride--P4S3.wfx


