%nprocs=4
%mem=2GB
#p hf aug-cc-pvdz output=wfx scf=(conver=6) int=(grid=ultrafine)

title

0 1
  H    0.870502757  -1.930871842   0.970324615
  H    0.870502757  -1.930871842  -0.970324615
  S   -0.054744354  -1.877356413   0.000000000

4.40_mon2_hydrogenchloride--sulfane.wfx


