%nprocs=4
%mem=2GB
#p hf aug-cc-pvdz output=wfx scf=(conver=6) int=(grid=ultrafine)

title

0 1
  H   -0.075747714   0.516968121   0.000000000
 Cl    0.002059029   1.812868211   0.000000000
  H    0.875753597  -2.529452976   0.970324615
  H    0.875753597  -2.529452976  -0.970324615
  S   -0.049493514  -2.475937546   0.000000000

4.40_1.25_hydrogenchloride--sulfane.wfx


