%nprocs=4
%mem=2GB
#p hf aug-cc-pvdz output=wfx scf=(conver=6) int=(grid=ultrafine)

title

0 1
  H   -0.218382161   0.191075287  -1.473719797
 Cl   -0.276261258   1.341645487  -2.138661144
  H   -1.610777474  -1.150185486   1.802193559
  H   -2.038715291  -0.063829550   0.472079777
  H   -0.867013510   1.003306126   2.639825342
  H    1.842959386   0.126417528  -0.016136119
  H   -0.310134641   1.501329044   1.043514633
  H    2.185807861  -1.380068769   0.847508244
  H    1.710184128   0.833137969   2.294854335
  H    0.940825287  -0.673510887   2.784922941
  S   -0.063267916  -1.356892937  -0.041991744
  C   -1.216980069  -0.450045248   1.069076297
  C   -0.390009018   0.654092038   1.724304351
  C    0.996655115   0.069009598   1.987575402
  C    1.446650635  -0.600042270   0.690102705

4.41_1.00_hydrogenchloride--tetrahydrothiophene.wfx


