%nprocs=4
%mem=2GB
#p hf aug-cc-pvdz output=wfx scf=(conver=6) int=(grid=ultrafine)

title

0 1
  H   -0.378300426   1.492799450   0.000000000
 Cl    0.152298446   2.699176240   0.000000000
  H    1.592223846   0.199384631   0.000000000
  H    2.160757706  -1.237581656   0.874053685
  H    2.160757706  -1.237581656  -0.874053685
  H   -0.815873335  -3.363244429   0.000000000
  H    0.731810166  -3.364464239  -0.874658941
  C    1.607922804  -0.884194574   0.000000000
  C    0.238611255  -1.485762008   0.000000000
  S   -1.129445545  -0.600475483   0.000000000
  C    0.199586106  -2.982410156   0.000000000
  H    0.731810166  -3.364464239   0.874658941

4.42_1.00_hydrogenchloride--thioacetone.wfx


