%nprocs=4
%mem=2GB
#p hf aug-cc-pvdz output=wfx scf=(conver=6) int=(grid=ultrafine)

title

0 1
  H   -0.378300426   1.492799450   0.000000000
 Cl    0.152298446   2.699176240   0.000000000
  H    1.742452870   0.618039618   0.000000000
  H    2.310986730  -0.818926669   0.874053685
  H    2.310986730  -0.818926669  -0.874053685
  H   -0.665644311  -2.944589442   0.000000000
  H    0.882039190  -2.945809252  -0.874658941
  C    1.758151828  -0.465539587   0.000000000
  C    0.388840279  -1.067107021   0.000000000
  S   -0.979216521  -0.181820496   0.000000000
  C    0.349815130  -2.563755169   0.000000000
  H    0.882039190  -2.945809252   0.874658941

4.42_0.80_hydrogenchloride--thioacetone.wfx


