%nprocs=4
%mem=2GB
#p hf aug-cc-pvdz output=wfx scf=(conver=6) int=(grid=ultrafine)

title

0 1
  H   -0.341594984   0.208126873  -0.915648439
 Br    0.140219177   1.167610147  -1.896611081
  H    1.802166859  -2.415002144   3.143655104
  H    0.147920290  -2.943192659   2.769175005
  H    0.429729930  -1.398118386   3.617699245
  H   -0.463956191   1.570055356   1.212619982
  H   -1.127320618   0.754103031   2.657835512
  H   -2.194991376   1.176024310   1.303449904
  C    0.803887746  -2.082945734   2.862044226
  S    0.992357641  -1.247284528   1.256385388
  S   -0.941628758  -0.760473510   0.772447989
  C   -1.192189551   0.852422382   1.578384593

4.43_0.90_hydrogenbromide--dimethyldisulfide.wfx


