%nprocs=4
%mem=2GB
#p hf aug-cc-pvdz output=wfx scf=(conver=6) int=(grid=ultrafine)

title

0 1
  H    1.284292549   0.953586753   1.489821387
  H    0.617616642   1.378951842   3.091185412
  H    0.387518144   2.466846008   1.710319196
  H   -1.655612736  -1.646832625   1.925506135
  H   -0.594024594  -1.060591122   3.218797095
  H    0.080982940  -1.469179772   1.616555577
  C    0.458086620   1.426534494   2.016638539
  S   -1.107915475   0.632669071   1.575279742
  C   -0.773080667  -1.052321879   2.146307054

4.44_mon2_hydrogenbromide--dimethylsulfide.wfx


