%nprocs=4
%mem=2GB
#p hf aug-cc-pvdz output=wfx scf=(conver=6) int=(grid=ultrafine)

title

0 1
  H   -0.513232116   0.204990711  -0.024081129
 Br   -1.319093678   0.779092326  -1.062312847
  S    0.790421335  -0.010044809   1.807849938
  P    0.253186077   1.999926609   2.183691830
  S   -2.355615875  -0.199413336   2.535312506
  S   -0.142789994  -0.059191207   4.895765216
  P   -0.403477562   1.958574798   4.336823152
  P   -1.935660664   1.861447665   2.687271891
  P   -0.520982245  -1.095429490   3.088946844

4.46_0.90_hydrogenbromide--P4S3.wfx


