%nprocs=4
%mem=2GB
#p hf aug-cc-pvdz output=wfx scf=(conver=6) int=(grid=ultrafine)

title

0 1
  H   -0.513232116   0.204990711  -0.024081129
 Br   -1.319093678   0.779092326  -1.062312847
  S    0.862846526  -0.021991227   1.909623886
  P    0.325611268   1.987980191   2.285465778
  S   -2.283190684  -0.211359754   2.637086454
  S   -0.070364803  -0.071137625   4.997539164
  P   -0.331052371   1.946628380   4.438597100
  P   -1.863235473   1.849501247   2.789045839
  P   -0.448557054  -1.107375908   3.190720792

4.46_0.95_hydrogenbromide--P4S3.wfx


