%nprocs=4
%mem=2GB
#p hf aug-cc-pvdz output=wfx scf=(conver=6) int=(grid=ultrafine)

title

0 1
  H   -0.872539168  -2.707925253   0.970143953
  H   -0.872539168  -2.707925253  -0.970143953
  S    0.054134324  -2.686941273   0.000000000

4.47_mon2_hydrogenbromide--sulfane.wfx


