%nprocs=4
%mem=2GB
#p hf aug-cc-pvdz output=wfx scf=(conver=6) int=(grid=ultrafine)

title

0 1
  H   -0.462973966   0.619411228   0.000000000
 Br    0.064311133   1.992874943   0.000000000
  H    1.388216332  -1.116837304   0.000000000
  H    1.992966345  -2.538747194   0.874089504
  H    1.992966345  -2.538747194  -0.874089504
  H   -0.927496380  -4.740645793   0.000000000
  H    0.619724423  -4.701576006  -0.874715038
  C    1.431403752  -2.199620535   0.000000000
  C    0.078505772  -2.836565632   0.000000000
  S   -1.312758590  -1.988156427   0.000000000
  C    0.077777095  -4.333630672   0.000000000
  H    0.619724423  -4.701576006   0.874715038

4.48_1.25_hydrogenbromide--thioacetone.wfx


