%nprocs=4
%mem=2GB
#p hf aug-cc-pvdz output=wfx scf=(conver=6) int=(grid=ultrafine)

title

0 1
  H    0.178549809  -0.167929679   0.498312747
  I   -0.746689416  -1.212497957  -0.380656784
  H    1.882566496  -2.213545091   3.702365314
  H    1.797216033  -1.849942879   1.965996508
  H    0.334024916  -1.745532076   2.976564208
  H   -0.774243251   1.895171880   3.515161854
  H   -1.275071315   0.467737252   2.562364479
  H   -1.280562204   2.075984724   1.818322482
  C    1.408250958  -1.590636336   2.945416833
  S    1.843477851   0.121016693   3.384757414
  S    0.934500864   1.251570825   1.933422413
  C   -0.773230077   1.430904093   2.534052036

4.49_0.95_hydrogeniodide--dimethyldisulfide.wfx


