%nprocs=4
%mem=2GB
#p hf aug-cc-pvdz output=wfx scf=(conver=6) int=(grid=ultrafine)

title

0 1
  H    0.540227290   0.348824840   0.000000000
  I   -0.099753736  -1.210693140   0.000000000

4.50_mon1_hydrogeniodide--dimethylsulfide.wfx


