%nprocs=4
%mem=2GB
#p hf aug-cc-pvdz output=wfx scf=(conver=6) int=(grid=ultrafine)

title

0 1
  H   -0.146792520  -0.151826058  -0.121559827
  I   -0.961031022  -0.352091381  -1.542289963
  H   -1.217495955  -1.261875499   3.296672173
  H   -0.353257244  -2.327114048   2.178361767
  H   -1.636364215  -1.278620022   1.559235958
  H   -0.300287017   0.975211039   2.149519642
  C   -0.833282783  -1.358471135   2.286259090
  S    0.458807381  -0.115427631   1.964122252

4.51_0.95_hydrogeniodide--methanethiol.wfx


