%nprocs=4
%mem=2GB
#p hf aug-cc-pvdz output=wfx scf=(conver=6) int=(grid=ultrafine)

title

0 1
  H   -0.146792520  -0.151826058  -0.121559827
  I   -0.961031022  -0.352091381  -1.542289963
  H   -1.313116992  -1.267622619   2.967353950
  H   -0.448878281  -2.332861168   1.849043544
  H   -1.731985252  -1.284367142   1.229917735
  H   -0.395908054   0.969463919   1.820201419
  C   -0.928903820  -1.364218255   1.956940867
  S    0.363186344  -0.121174751   1.634804029

4.51_0.80_hydrogeniodide--methanethiol.wfx


