%nprocs=4
%mem=2GB
#p hf aug-cc-pvdz output=wfx scf=(conver=6) int=(grid=ultrafine)

title

0 1
  S    0.958389271  -0.140495428   2.099302226
  P    0.476078852   1.899148182   2.360999103
  S   -2.215904592  -0.193386389   2.719231424
  S   -0.087124330  -0.011916734   5.151011821
  P   -0.257469396   1.983848782   4.488530146
  P   -1.731960146   1.857786451   2.788673685
  P   -0.430803017  -1.119558280   3.379295253

4.52_mon2_hydrogeniodide--P4S3.wfx


