%nprocs=4
%mem=2GB
#p hf aug-cc-pvdz output=wfx scf=(conver=6) int=(grid=ultrafine)

title

0 1
  H    0.244290487  -0.614757218   0.391420786
  I    0.741799833  -1.826332334  -0.568126761

4.54_mon1_hydrogeniodide--thioacetone.wfx


