%nprocs=4
%mem=2GB
#p hf aug-cc-pvdz output=wfx scf=(conver=6) int=(grid=ultrafine)

title

0 1
  H    1.673954987   0.824171775  -3.384233625
  H    0.491243020  -0.020783658  -4.411849019
  H    0.895895173  -0.665342365  -2.783400184
  H   -2.718682998   0.462803775  -2.218829196
  H   -1.542198085  -0.879053235  -2.201063529
  C    0.765645875   0.227680285  -3.388368144
  S   -0.535139500   1.256797028  -2.660462487
  O   -0.177839506   1.449109181  -1.220004042
  C   -1.859897064   0.022286000  -2.717903134
  H   -2.101688064  -0.184495386  -3.758628650
  P   -0.080300164  -0.297437718   0.605291413
  F    0.378856527  -1.284092209   1.798865151
  F    0.308787382  -1.296841223  -0.605339759
  H    1.129811920   0.445516016   0.592585774

5.03_0.95_dimethylsulfoxide--phosphineF2.wfx


