%nprocs=4
%mem=2GB
#p hf aug-cc-pvdz output=wfx scf=(conver=6) int=(grid=ultrafine)

title

0 1
  C   -0.045358139   2.459433130   0.000000000
  H    0.597315397   1.582811146   0.000000000
  H   -0.673508224   2.451908275   0.888289198
  H   -0.673508224   2.451908275  -0.888289198
  H    0.564968051   3.359502566   0.000000000
  H   -1.217494612  -0.580393877   0.000000000
  H   -0.970216978  -2.107376980  -0.893116157
  H   -0.970216978  -2.107376980   0.893116157
  C   -0.708608712  -1.542372332   0.000000000
  F    0.664485946  -1.319713481   0.000000000

5.05_1.10_methane--methylfluoride.wfx


