%nprocs=4
%mem=2GB
#p hf aug-cc-pvdz output=wfx scf=(conver=6) int=(grid=ultrafine)

title

0 1
  H   -1.223601026  -0.316528002   0.000000000
  H   -0.976323391  -1.843511105  -0.893116157
  H   -0.976323391  -1.843511105   0.893116157
  C   -0.714715126  -1.278506457   0.000000000
  F    0.658379532  -1.055847606   0.000000000

5.05_mon2_methane--methylfluoride.wfx


