%nprocs=4
%mem=2GB
#p hf aug-cc-pvdz output=wfx scf=(conver=6) int=(grid=ultrafine)

title

0 1
  H    2.082290409  -1.425410896  -0.581971671
  H    2.562434913  -0.072698240   0.451167331
  H    1.302812415   0.163830224  -0.774579257
  H   -0.456148576  -1.394422235   0.387771694
  C    1.727208388  -0.538873935  -0.064845335
  S    0.508337021  -0.974080128   1.219416136
  H   -0.776709112   1.395177443   0.428269652
  H   -0.849366337   2.616719761  -0.880008891
  H   -2.300982211   1.661113294  -0.468980641
  C   -1.214516263   1.651289415  -0.534275913
  F   -0.836598940   0.678107046  -1.460856754

5.06_0.90_methanethiol--methylfluoride.wfx


