%nprocs=4
%mem=2GB
#p hf aug-cc-pvdz output=wfx scf=(conver=6) int=(grid=ultrafine)

title

0 1
  H   -1.724348231  -0.027355360  -1.474026193
  H   -1.296435492  -1.415159708  -2.484097898
  H   -1.572301525   0.160027650  -3.243538945
  H    0.527790206   1.283050936  -1.949835639
  C   -1.185008230  -0.341291707  -2.362021642
  S    0.601246922  -0.037729081  -2.172892147
  P    1.522480153  -0.932697910   3.259931078
  F    0.484875611   0.288514810   3.339821793
  F    1.601601194  -1.240233924   4.835108292
  H    2.700525880  -0.130631608   3.222182741

5.07_2.00_methanethiol--phosphineF2.wfx


