%nprocs=4
%mem=2GB
#p hf aug-cc-pvdz output=wfx scf=(conver=6) int=(grid=ultrafine)

title

0 1
  P    0.564103646  -0.571899841   0.544513041
  F   -0.823498597  -0.924141487  -0.197956373
  F    0.316843513  -1.439783397   1.871021776
  H    0.115932876   0.658356630   1.103256132

5.08_mon2_methylcyanate--phosphineF2.wfx


