%nprocs=4
%mem=2GB
#p hf aug-cc-pvdz output=wfx scf=(conver=6) int=(grid=ultrafine)

title

0 1
  P    0.032192208  -0.835906733   1.058489272
  F    1.160664999  -1.158553200   2.145410089
  F    1.000205784  -0.457192289  -0.169872541
  H   -0.183118091   0.509254479   1.477567215

5.09_mon2_nitromethane--phosphineF2.wfx


