%nprocs=4
%mem=2GB
#p hf aug-cc-pvdz output=wfx scf=(conver=6) int=(grid=ultrafine)

title

0 1
  N   -0.123190330   2.110527190   0.000000000
  H    0.558813216   1.361103936   0.000000000
  H    0.057236894   2.684121101  -0.813985719
  H    0.057236894   2.684121101   0.813985719
  H   -0.932169560  -1.477574607   0.893151234
  H   -1.278493050   0.036636178   0.000000000
  H   -0.932169560  -1.477574607  -0.893151234
  C   -0.716534700  -0.894167569   0.000000000
  F    0.646636078  -0.579652783   0.000000000

5.14_0.85_ammonia--methylfluoride.wfx


