%nprocs=4
%mem=2GB
#p hf aug-cc-pvdz output=wfx scf=(conver=6) int=(grid=ultrafine)

title

0 1
  N   -0.123190330   2.110527190   0.000000000
  H    0.558813216   1.361103936   0.000000000
  H    0.057236894   2.684121101  -0.813985719
  H    0.057236894   2.684121101   0.813985719

5.14_mon1_ammonia--methylfluoride.wfx


