%nprocs=4
%mem=2GB
#p hf aug-cc-pvdz output=wfx scf=(conver=6) int=(grid=ultrafine)

title

0 1
  H   -0.620679901  -1.970809340  -1.868138198
  H   -0.976057184  -0.402013231  -1.078584291
  H    0.225882669  -0.493437247  -2.406193643
  C   -0.211898613  -1.011871746  -1.555020137
  F    0.799186157  -1.249825869  -0.618722579

5.15_mon2_methylamine--methylfluoride.wfx


