%nprocs=4
%mem=2GB
#p hf aug-cc-pvdz output=wfx scf=(conver=6) int=(grid=ultrafine)

title

0 1
  N   -0.762680266   0.657120961   1.269302631
  H   -0.160490256  -0.155763922   1.265651164
  H   -1.193948935   0.709510332   2.182080338
  C    0.012763010   1.865373931   0.988817467
  H   -0.654275639   2.726515138   0.961290449
  H    0.811540614   2.078466282   1.708394270
  H    0.470675110   1.775094247   0.004516708
  H   -0.572696080  -2.025512437  -1.962356885
  H   -0.928073363  -0.456716328  -1.172802978
  H    0.273866490  -0.548140344  -2.500412330
  C   -0.163914792  -1.066574843  -1.649238824
  F    0.847169978  -1.304528966  -0.712941266

5.15_1.05_methylamine--methylfluoride.wfx


