%nprocs=4
%mem=2GB
#p hf aug-cc-pvdz output=wfx scf=(conver=6) int=(grid=ultrafine)

title

0 1
  N   -0.762680266   0.657120961   1.269302631
  H   -0.160490256  -0.155763922   1.265651164
  H   -1.193948935   0.709510332   2.182080338
  C    0.012763010   1.865373931   0.988817467
  H   -0.654275639   2.726515138   0.961290449
  H    0.811540614   2.078466282   1.708394270
  H    0.470675110   1.775094247   0.004516708
  H   -0.668663722  -1.916106243  -1.773919511
  H   -1.024041005  -0.347310134  -0.984365604
  H    0.177898848  -0.438734150  -2.311974956
  C   -0.259882434  -0.957168649  -1.460801450
  F    0.751202336  -1.195122772  -0.524503892

5.15_0.95_methylamine--methylfluoride.wfx


