%nprocs=4
%mem=2GB
#p hf aug-cc-pvdz output=wfx scf=(conver=6) int=(grid=ultrafine)

title

0 1
  H    0.809308419  -3.180450558  -0.894521766
  H    1.329977441  -1.713206274   0.000000000
  H    0.809308419  -3.180450558   0.894521766
  C    0.673826885  -2.578143488   0.000000000
  F   -0.656572350  -2.107610108   0.000000000

5.19_mon2_aceticacid--methylfluoride.wfx


