%nprocs=4
%mem=2GB
#p hf aug-cc-pvdz output=wfx scf=(conver=6) int=(grid=ultrafine)

title

0 1
  H   -0.770163454   1.601593004   0.225053304
  H   -1.585668217   1.153332027  -3.663993548
  H   -2.823459128   1.891023938  -2.616371242
  H   -1.379769092   2.802466091  -3.019864446
  O   -0.427866501   0.216490318  -1.584002927
  C   -1.067650204   1.243768147  -1.602530185
  O   -1.237699597   2.015255504  -0.519423979
  C   -1.755721195   1.801712721  -2.812151365
  P    0.460753469  -0.969376108   0.508404593
  F    0.150946236   0.485824731   1.168032129
  F    1.393837915  -1.508439076   1.697339293
  H    1.534443894  -0.524377583  -0.310482688

5.20_0.90_aceticacid--phosphineF2.wfx


