%nprocs=4
%mem=2GB
#p hf aug-cc-pvdz output=wfx scf=(conver=6) int=(grid=ultrafine)

title

0 1
  C    0.266056613  -1.684037468  -0.039182722
  F   -0.951179170  -1.132339733   0.043815691
  F    0.827608255  -1.337097449  -1.179815132
  F    0.131624795  -3.003973359   0.007485666
  F    0.999988864  -1.278883413   0.978739628

5.21_mon2_aceticacid--tetraFmethane.wfx


