%nprocs=4
%mem=2GB
#p hf aug-cc-pvdz output=wfx scf=(conver=6) int=(grid=ultrafine)

title

0 1
  H   -1.279912467   1.621696748   0.793655612
  H    0.411460731   2.167517780   0.592680002
  H   -0.373056800   1.194004864  -0.688801193
  C   -0.304293716   1.376760731   0.380543873
  F    0.148627948   0.201945000   0.998172234

5.26_mon2_water--methylfluoride.wfx


