%nprocs=4
%mem=2GB
#p hf aug-cc-pvdz output=wfx scf=(conver=6) int=(grid=ultrafine)

title

0 1
  O    0.080066228  -1.376853631  -1.389495123
  H    0.215590518  -1.145739031  -0.463594959
  H    0.576612278  -2.185512108  -1.529153525
  H   -1.296653110   1.958617756   1.159097410
  H    0.394720088   2.504438788   0.958121800
  H   -0.389797442   1.530925872  -0.323359395
  C   -0.321034358   1.713681739   0.745985671
  F    0.131887306   0.538866008   1.363614032

5.26_1.25_water--methylfluoride.wfx


