%nprocs=4
%mem=2GB
#p hf aug-cc-pvdz output=wfx scf=(conver=6) int=(grid=ultrafine)

title

0 1
  F    0.162679867   0.691793782  -1.095510457
  F    0.363523306   1.935193112  -0.491706500

5.27_mon2_phosphineF2--F2.wfx


