%nprocs=4
%mem=2GB
#p hf aug-cc-pvdz output=wfx scf=(conver=6) int=(grid=ultrafine)

title

0 1
  H   -0.125894687   1.650952610   0.000000000
  F    0.218483751   2.513324458   0.000000000
  P   -0.227663122  -3.137273418   0.000000000
  H   -0.929526753  -3.830676667  -1.022721997
  H   -0.929526753  -3.830676667   1.022721997
  F   -1.168424145  -1.796401046   0.000000000

5.29_2.00_F2--phosphine.wfx


