%nprocs=4
%mem=2GB
#p hf aug-cc-pvdz output=wfx scf=(conver=6) int=(grid=ultrafine)

title

0 1
  H   -0.125894687   1.650952610   0.000000000
  F    0.218483751   2.513324458   0.000000000
  P    0.345728080  -1.241228907   0.000000000
  H   -0.356135551  -1.934632156  -1.022721997
  H   -0.356135551  -1.934632156   1.022721997
  F   -0.595032943   0.099643465   0.000000000

5.29_0.90_F2--phosphine.wfx


