%nprocs=4
%mem=2GB
#p hf aug-cc-pvdz output=wfx scf=(conver=6) int=(grid=ultrafine)

title

0 1
  H   -0.125894687   1.650952610   0.000000000
  F    0.218483751   2.513324458   0.000000000
  P    0.371791316  -1.155045066   0.000000000
  H   -0.330072315  -1.848448315  -1.022721997
  H   -0.330072315  -1.848448315   1.022721997
  F   -0.568969707   0.185827306   0.000000000

5.29_0.85_F2--phosphine.wfx


