%nprocs=4
%mem=2GB
#p hf aug-cc-pvdz output=wfx scf=(conver=6) int=(grid=ultrafine)

title

0 1
  H   -0.082052577  -0.045767382  -0.478725397
  F    0.112777497  -0.025380444  -1.387103121
  H    0.657831045   0.271176205   1.620056742
  F   -0.140103913   0.010314714   1.231756872

5.30_0.95_hydrogenfluoride--hydrogenfluoride.wfx


