%nprocs=4
%mem=2GB
#p hf aug-cc-pvdz output=wfx scf=(conver=6) int=(grid=ultrafine)

title

0 1
  H    0.246633062   1.009009125   0.000000000
  F   -0.152661221   1.851828982   0.000000000

5.31_mon1_hydrogenfluoride--methylfluoride.wfx


