%nprocs=4
%mem=2GB
#p hf aug-cc-pvdz output=wfx scf=(conver=6) int=(grid=ultrafine)

title

0 1
  H    0.877639885   0.253766380  -0.699482539
  F    0.421979799   0.851309102  -1.242840685

5.32_mon1_hydrogenfluoride--phosphineF2.wfx


