%nprocs=4
%mem=2GB
#p hf aug-cc-pvdz output=wfx scf=(conver=6) int=(grid=ultrafine)

title

0 1
  H    0.877639885   0.253766380  -0.699482539
  F    0.421979799   0.851309102  -1.242840685
  P    0.395500313  -1.161350317   1.886464328
  F    0.943388170   0.042336171   2.767717014
  F    1.278019161  -0.907592174   0.554241496
  H   -0.754703303  -0.471954324   1.396789316

5.32_0.95_hydrogenfluoride--phosphineF2.wfx


