%nprocs=4
%mem=2GB
#p hf aug-cc-pvdz output=wfx scf=(conver=6) int=(grid=ultrafine)

title

0 1
  C   -0.130217591  -0.137878462   0.695803552
  F   -0.726101943  -0.014809935  -0.500455475
  F   -0.624434200  -1.195711140   1.311443554
  F   -0.366278681   0.949917765   1.405518047
  F    1.169612474  -0.285982255   0.513562297

5.33_mon2_hydrogenfluoride--tetraFmethane.wfx


