%nprocs=4
%mem=2GB
#p hf aug-cc-pvdz output=wfx scf=(conver=6) int=(grid=ultrafine)

title

0 1
  H    0.146501661   0.397704458  -2.286260823
  F    0.621680349   0.612576639  -3.048278943
  C   -0.173847771  -0.158504182   0.785093819
  F   -0.769732123  -0.035435655  -0.411165208
  F   -0.668064380  -1.216336860   1.400733821
  F   -0.409908861   0.929292045   1.494808314
  F    1.125982294  -0.306607975   0.602852564

5.33_1.05_hydrogenfluoride--tetraFmethane.wfx


