%nprocs=4
%mem=2GB
#p hf aug-cc-pvdz output=wfx scf=(conver=6) int=(grid=ultrafine)

title

0 1
  H    0.429587998  -0.486560541   0.000000000
 Cl   -0.066167684  -1.677249578   0.000000000
  H   -0.674145739   2.611479825   0.894772468
  H   -0.674145739   2.611479825  -0.894772468
  H   -1.406624708   1.246566362   0.000000000
  C   -0.619168227   1.996609895   0.000000000
  F    0.618431105   1.336817879   0.000000000

5.35_0.95_hydrogenchloride--methylfluoride.wfx


