%nprocs=4
%mem=2GB
#p hf aug-cc-pvdz output=wfx scf=(conver=6) int=(grid=ultrafine)

title

0 1
  H   -0.664206628   2.707447110   0.894772468
  H   -0.664206628   2.707447110  -0.894772468
  H   -1.396685597   1.342533647   0.000000000
  C   -0.609229116   2.092577180   0.000000000
  F    0.628370216   1.432785164   0.000000000

5.35_mon2_hydrogenchloride--methylfluoride.wfx


