%nprocs=4
%mem=2GB
#p hf aug-cc-pvdz output=wfx scf=(conver=6) int=(grid=ultrafine)

title

0 1
  H   -0.262410292  -0.031032367   0.675994838
 Br    0.055754988  -0.019611785  -0.716815364
  H    0.582450606   0.328888268   4.185912186
  F   -0.241100630   0.117966726   3.825076112

5.37_1.50_hydrogenbromide--hydrogenfluoride.wfx


