%nprocs=4
%mem=2GB
#p hf aug-cc-pvdz output=wfx scf=(conver=6) int=(grid=ultrafine)

title

0 1
  H   -0.262410292  -0.031032367   0.675994838
 Br    0.055754988  -0.019611785  -0.716815364
  H    0.575347385   0.279221904   3.136218428
  F   -0.248203851   0.068300362   2.775382354

5.37_1.00_hydrogenbromide--hydrogenfluoride.wfx


