%nprocs=4
%mem=2GB
#p hf aug-cc-pvdz output=wfx scf=(conver=6) int=(grid=ultrafine)

title

0 1
  H   -0.499627856   0.249626143   0.118499305
 Br    0.273074964  -0.060187914  -1.046367715
  H    0.186295036   0.622130482   3.750394179
  H   -0.634820261  -0.962782176   3.627356486
  H    0.659789364  -0.533749137   2.470439149
  C   -0.161761336  -0.155000075   3.074341706
  F   -1.117447566   0.406621881   2.217742519

5.38_1.10_hydrogenbromide--methylfluoride.wfx


