%nprocs=4
%mem=2GB
#p hf aug-cc-pvdz output=wfx scf=(conver=6) int=(grid=ultrafine)

title

0 1
  H    0.056611427  -0.063269451  -0.898869585
  I    0.180449043  -0.243966834  -2.497001253
  F   -0.256743074   0.223761622   1.489785196
  F    0.805646766  -0.579981799   1.909054973

5.39_0.95_hydrogeniodide--F2.wfx


