%nprocs=4
%mem=2GB
#p hf aug-cc-pvdz output=wfx scf=(conver=6) int=(grid=ultrafine)

title

0 1
  F   -0.273235416   0.238868521   1.615503869
  F    0.789154424  -0.564874900   2.034773646

5.39_mon2_hydrogeniodide--F2.wfx


