%nprocs=4
%mem=2GB
#p hf aug-cc-pvdz output=wfx scf=(conver=6) int=(grid=ultrafine)

title

0 1
  H    0.056611427  -0.063269451  -0.898869585
  I    0.180449043  -0.243966834  -2.497001253
  F   -0.289727758   0.253975420   1.741222542
  F    0.772662082  -0.549768001   2.160492319

5.39_1.05_hydrogeniodide--F2.wfx


