%nprocs=4
%mem=2GB
#p hf aug-cc-pvdz output=wfx scf=(conver=6) int=(grid=ultrafine)

title

0 1
  H   -0.650095310   0.658648843   0.000000000
  I    0.014334529  -0.816331458   0.000000000
  H    1.345130787   2.104492357   0.000000000
  H    0.817083106   3.559525426  -0.894222833
  H    0.817083106   3.559525426   0.894222833
  C    0.670174289   2.957981228   0.000000000
  F   -0.644410317   2.483585216   0.000000000

5.41_0.85_hydrogeniodide--methylfluoride.wfx


