%nprocs=4
%mem=2GB
#p hf aug-cc-pvdz output=wfx scf=(conver=6) int=(grid=ultrafine)

title

0 1
  C    3.296630503   0.168006106   1.066843474
  H    2.335366386   0.092522766   1.510623090
  C    4.377290892   0.253169626   0.562675947
  H    5.336195375   0.328775420   0.114573759
  P   -1.527726828  -0.014748610  -0.167461030
 Cl   -1.228588313  -0.050144018   1.888834256
 Cl   -0.402741124   1.636392495  -0.682215304
 Cl   -0.269342959  -1.540900643  -0.755476522

6.02_1.25_ethyne--PCl3.wfx


