%nprocs=4
%mem=2GB
#p hf aug-cc-pvdz output=wfx scf=(conver=6) int=(grid=ultrafine)

title

0 1
  C    2.781418243  -0.608550324  -0.534769490
  H    2.005196997  -1.321134149  -0.666124262
  C    3.650641240   0.199478900  -0.390357533
  H    4.421813727   0.916509176  -0.259273507
 Cl   -0.850062302  -1.442193902  -1.641420210
  S   -0.821932708   0.576710693  -1.063013884
  S   -1.505573796   0.711017941   0.752997453
 Cl    0.065077394   0.394790403   2.091197650

6.03_1.05_ethyne--S2Cl2.wfx


