%nprocs=4
%mem=2GB
#p hf aug-cc-pvdz output=wfx scf=(conver=6) int=(grid=ultrafine)

title

0 1
  C    0.000330816  -2.265827960   0.000000000
  O   -0.962222005  -1.533121470   0.000000000
  O    1.263780375  -1.811760498   0.000000000
  H    1.233916571  -0.841462387   0.000000000
  C   -0.064962751  -3.763616017   0.000000000
  H   -1.099898940  -4.085639546   0.000000000
  H    0.449730493  -4.152117084  -0.877641234
  H    0.449730493  -4.152117084   0.877641234
 Cl   -1.174933254   1.946271269   0.000000000
 Cl   -0.576507086   3.892597237   0.000000000

6.05_1.50_aceticacid--Cl2.wfx


