%nprocs=4
%mem=2GB
#p hf aug-cc-pvdz output=wfx scf=(conver=6) int=(grid=ultrafine)

title

0 1
  H    0.881056308   3.303451985   0.000000000
 Cl   -0.031885656   2.403373555   0.000000000

6.06_mon2_aceticacid--hydrogenchloride.wfx


