%nprocs=4
%mem=2GB
#p hf aug-cc-pvdz output=wfx scf=(conver=6) int=(grid=ultrafine)

title

0 1
  C   -0.095408807  -1.415624189   0.000000000
  O   -1.140630393  -0.819032528   0.000000000
  O    1.102279988  -0.790028485   0.000000000
  H    0.930776231   0.165405943   0.000000000
  C    0.059501228  -2.909667728   0.000000000
  H   -0.918122833  -3.378249266   0.000000000
  H    0.624416013  -3.221906936  -0.877295155
  H    0.624416013  -3.221906936   0.877295155
  H    0.977322497   3.079655224   0.000000000
 Cl    0.064380533   2.179576794   0.000000000

6.06_0.90_aceticacid--hydrogenchloride.wfx


