%nprocs=4
%mem=2GB
#p hf aug-cc-pvdz output=wfx scf=(conver=6) int=(grid=ultrafine)

title

0 1
 Cl   -0.544963939  -1.278398240  -0.806422541
  S   -2.155452931   0.060705552  -0.710816733
  S   -2.222809594   0.801378042   1.090752314
 Cl   -0.913706334   2.428429331   1.181186371

6.09_mon2_aceticacid--S2Cl2.wfx


