%nprocs=4
%mem=2GB
#p hf aug-cc-pvdz output=wfx scf=(conver=6) int=(grid=ultrafine)

title

0 1
  O   -0.957936578  -1.600403085  -1.455027213
  H   -0.158325201  -1.361622737  -0.972333763
  H   -1.029392041  -2.553813037  -1.372805313
  H   -0.107780448   2.938976051   0.635618286
  H   -0.936576950   1.355336693   0.623904754
  H   -0.644156934   2.204903142   2.171360465
  C   -0.271859816   2.012149647   1.172238670
 Cl    1.317774177   1.176675697   1.328344631

6.12_1.50_water--methylchloride.wfx


