%nprocs=4
%mem=2GB
#p hf aug-cc-pvdz output=wfx scf=(conver=6) int=(grid=ultrafine)

title

0 1
  O   -0.179065184  -3.016945644   0.000000000
  H    0.042387182  -2.470831377   0.758723103
  H    0.042387182  -2.470831377  -0.758723103
  P   -0.028495204   0.723025826   0.000000000
 Cl   -1.960793596   0.014396276   0.000000000
 Cl    0.769381679  -0.338638522   1.594095765
 Cl    0.769381679  -0.338638522  -1.594095765

6.13_0.85_water--PCl3.wfx


