%nprocs=4
%mem=2GB
#p hf aug-cc-pvdz output=wfx scf=(conver=6) int=(grid=ultrafine)

title

0 1
 Cl    0.025939027   1.330621405  -0.440015506
 Cl   -0.047770857   2.211322390  -2.212785680

6.14_mon2_phosphineF2--Cl2.wfx


