%nprocs=4
%mem=2GB
#p hf aug-cc-pvdz output=wfx scf=(conver=6) int=(grid=ultrafine)

title

0 1
  H    1.134943156   0.464255462  -0.467961851
  H    2.134375891   1.451346819   0.870753575
  S    1.441289529   1.751931610  -0.237291113
  H   -2.018904180  -0.811655487   1.726537552
  H   -1.277360514   0.506381463   0.775512297
  H   -2.720183331  -0.343681465   0.154785633
  C   -1.807472247  -0.438374158   0.731336131
 Cl   -0.746420516  -1.630468822  -0.096933364

6.15_1.05_sulfane--methylchloride.wfx


