%nprocs=4
%mem=2GB
#p hf aug-cc-pvdz output=wfx scf=(conver=6) int=(grid=ultrafine)

title

0 1
  H   -0.166740982  -0.172124732  -1.140544944
  F   -0.197387145  -0.132497381  -2.067892576
  H    0.678849651   1.106530151   0.557015851
 Cl    0.039447424   0.000623308   0.673668374

6.16_0.80_hydrogenfluoride--hydrogenchloride.wfx


