%nprocs=4
%mem=2GB
#p hf aug-cc-pvdz output=wfx scf=(conver=6) int=(grid=ultrafine)

title

0 1
  H    0.228834519   0.370628924   0.003365949
  F    0.368539278   0.917583230  -0.732497130
  P    0.697233506  -0.267394159   4.309913996
 Cl   -0.194480697  -1.531144435   2.894658242
 Cl    2.495529943   0.105047402   3.383741432
 Cl   -0.314263128   1.481750366   3.924987176

6.18_1.50_hydrogenfluoride--PCl3.wfx


