%nprocs=4
%mem=2GB
#p hf aug-cc-pvdz output=wfx scf=(conver=6) int=(grid=ultrafine)

title

0 1
 Cl   -1.767865972  -0.117368264  -1.091835446
  S   -0.833962578   1.007975922   0.444740346
  S    0.095656125  -0.218615136   1.630708556
 Cl    1.991821635  -0.579726410   0.864256561

6.19_mon2_hydrogenfluoride--S2Cl2.wfx


