%nprocs=4
%mem=2GB
#p hf aug-cc-pvdz output=wfx scf=(conver=6) int=(grid=ultrafine)

title

0 1
  H   -0.294645010   0.304121680  -1.386697288
 Cl   -0.000897415  -0.055640208  -2.583890276
 Cl   -0.626644792   0.732487496   0.958427445
 Cl    0.670981413  -0.730703410   1.418573111

6.20_0.95_hydrogenchloride--Cl2.wfx


