%nprocs=4
%mem=2GB
#p hf aug-cc-pvdz output=wfx scf=(conver=6) int=(grid=ultrafine)

title

0 1
  H   -0.092966836  -0.971772838   0.278420076
 Cl    0.763202035  -1.756078545   0.845935265
  H    0.304456224   2.711100987   0.235469243
  H    1.227654139   1.192127583   0.067187656
  H    0.894429622   2.197902676  -1.369931957
  C    0.524494006   1.867036818  -0.406979828
 Cl   -1.010443818   0.967550026  -0.683539725

6.22_1.00_hydrogenchloride--methylchloride.wfx


