%nprocs=4
%mem=2GB
#p hf aug-cc-pvdz output=wfx scf=(conver=6) int=(grid=ultrafine)

title

0 1
  H    0.186338801   0.360035766  -0.033235668
 Cl    0.535543709   1.044378509  -1.062251879
  P    0.874789854   0.591033705   3.041218651
 Cl   -0.255955858  -0.658042198   1.810953206
 Cl    2.675765021   0.562468840   2.040586026
 Cl    0.141540177   2.430937783   2.472362559

6.23_0.85_hydrogenchloride--PCl3.wfx


