%nprocs=4
%mem=2GB
#p hf aug-cc-pvdz output=wfx scf=(conver=6) int=(grid=ultrafine)

title

0 1
  H    1.430482742   0.136940024   2.507165789
 Cl    0.165040931   0.198134237   2.701691354

6.25_mon2_hydrogenbromide--hydrogenchloride.wfx


