%nprocs=4
%mem=2GB
#p hf aug-cc-pvdz output=wfx scf=(conver=6) int=(grid=ultrafine)

title

0 1
  H   -0.206302610   0.021839009   0.188682247
 Br   -0.088763291  -0.089821309  -1.231551412
  H    1.449049919   0.145754785   2.632816244
 Cl    0.183608108   0.206948998   2.827341809

6.25_1.05_hydrogenbromide--hydrogenchloride.wfx


