%nprocs=4
%mem=2GB
#p hf aug-cc-pvdz output=wfx scf=(conver=6) int=(grid=ultrafine)

title

0 1
  H    0.201908319   0.238908418  -0.034579667
 Br    0.424126629   1.040088567  -1.193997794

6.27_mon1_hydrogenbromide--PCl3.wfx


