%nprocs=4
%mem=2GB
#p hf aug-cc-pvdz output=wfx scf=(conver=6) int=(grid=ultrafine)

title

0 1
  H   -0.121256969   0.081730430  -0.701405515
  I    0.507580931  -0.524354363  -2.059356758
 Cl   -0.457249342   0.508684070   1.959223889
 Cl    1.024126452  -0.826069742   2.198018156

6.29_1.00_hydrogeniodide--Cl2.wfx


