%nprocs=4
%mem=2GB
#p hf aug-cc-pvdz output=wfx scf=(conver=6) int=(grid=ultrafine)

title

0 1
  H   -0.121256969   0.081730430  -0.701405515
  I    0.507580931  -0.524354363  -2.059356758
 Cl   -0.625245528   0.722160890   3.289538591
 Cl    0.856130266  -0.612592922   3.528332858

6.29_1.50_hydrogeniodide--Cl2.wfx


