%nprocs=4
%mem=2GB
#p hf aug-cc-pvdz output=wfx scf=(conver=6) int=(grid=ultrafine)

title

0 1
 Cl   -0.457249342   0.508684070   1.959223889
 Cl    1.024126452  -0.826069742   2.198018156

6.29_mon2_hydrogeniodide--Cl2.wfx


