%nprocs=4
%mem=2GB
#p hf aug-cc-pvdz output=wfx scf=(conver=6) int=(grid=ultrafine)

title

0 1
  H    0.996301487   0.764677659  -0.139294810
  I   -0.079872838   0.620024382  -1.333149446
  P    0.851584840   0.540937920   3.378850169
 Cl    0.128880286  -1.185034634   2.509294182
 Cl    2.463278802   0.946492993   2.129528766
 Cl   -0.514358868   1.925070820   2.689284414

6.31_1.00_hydrogeniodide--PCl3.wfx


