%nprocs=4
%mem=2GB
#p hf aug-cc-pvdz output=wfx scf=(conver=6) int=(grid=ultrafine)

title

0 1
  H    0.315231372   0.228341787  -0.485548812
  I   -0.037111902  -0.908289732  -1.577376645
 Cl    0.508651668   1.770906677   1.161758418
  S   -0.261291992   0.686443432   2.794822544
  S   -0.929182634  -1.025824132   2.160958600
 Cl    0.647700026  -2.389737483   2.125316409

6.32_0.85_hydrogeniodide--S2Cl2.wfx


