%nprocs=4
%mem=2GB
#p hf aug-cc-pvdz output=wfx scf=(conver=6) int=(grid=ultrafine)

title

0 1
  O   -0.240701088   1.999524425  -1.453316336
  H   -0.749410811   1.398189354  -0.900205020
  C    0.041786954   1.342830009  -2.680926899
  H    0.664870094   2.014850194  -3.266432542
  H    0.585166578   0.406156399  -2.527311245
  H   -0.867739438   1.129788836  -3.248683900
  H    1.680209135   0.004460761   0.930148284
  H    1.859612887  -0.551488140   2.625404968
  H    2.497955854  -1.553230546   1.288812800
  C    1.733405770  -0.850184916   1.592921372
 Br    0.006294514  -1.776050026   1.462656004

7.05_1.50_methanol--methylbromide.wfx


