%nprocs=4
%mem=2GB
#p hf aug-cc-pvdz output=wfx scf=(conver=6) int=(grid=ultrafine)

title

0 1
  O   -0.240701088   1.999524425  -1.453316336
  H   -0.749410811   1.398189354  -0.900205020
  C    0.041786954   1.342830009  -2.680926899
  H    0.664870094   2.014850194  -3.266432542
  H    0.585166578   0.406156399  -2.527311245
  H   -0.867739438   1.129788836  -3.248683900
  H    1.352736828   1.379964493  -0.093758159
  H    1.532140580   0.824015592   1.601498525
  H    2.170483546  -0.177726814   0.264906356
  C    1.405933462   0.525318815   0.569014928
 Br   -0.321177794  -0.400546295   0.438749561

7.05_0.85_methanol--methylbromide.wfx


