%nprocs=4
%mem=2GB
#p hf aug-cc-pvdz output=wfx scf=(conver=6) int=(grid=ultrafine)

title

0 1
  H    1.028618147   3.006350474   0.686345587
  H    1.376185339   1.173090011   0.155366235
  S    1.769888972   1.988733910   1.148416968
  H   -0.782051528  -0.013228874   1.536191471
  H   -2.419349815  -0.484743017   0.983446967
  H   -1.263542170  -1.737968796   1.521931080
  C   -1.377909847  -0.772886101   1.045519992
 Br   -0.706592469  -0.941860182  -0.788765226

7.08_1.10_sulfane--methylbromide.wfx


