%nprocs=4
%mem=2GB
#p hf aug-cc-pvdz output=wfx scf=(conver=6) int=(grid=ultrafine)

title

0 1
  H   -0.211868903  -0.183170600  -1.755870419
  F   -0.260864790  -0.164601284  -2.683303353
  H    0.995747636   1.483067227   2.927009328
 Br    0.324293491   0.234555120   3.079640069

7.09_2.00_hydrogenfluoride--hydrogenbromide.wfx


