%nprocs=4
%mem=2GB
#p hf aug-cc-pvdz output=wfx scf=(conver=6) int=(grid=ultrafine)

title

0 1
  H    0.727666439   1.274204367   0.509254084
 Br    0.056212294   0.025692260   0.661884825

7.09_mon2_hydrogenfluoride--hydrogenbromide.wfx


