%nprocs=4
%mem=2GB
#p hf aug-cc-pvdz output=wfx scf=(conver=6) int=(grid=ultrafine)

title

0 1
  H   -0.211868903  -0.183170600  -1.755870419
  F   -0.260864790  -0.164601284  -2.683303353
  H    0.674050200   1.232431795   0.025703035
 Br    0.002596055  -0.016080312   0.178333776

7.09_0.80_hydrogenfluoride--hydrogenbromide.wfx


