%nprocs=4
%mem=2GB
#p hf aug-cc-pvdz output=wfx scf=(conver=6) int=(grid=ultrafine)

title

0 1
  H    0.370908107  -1.769321552   0.000000000
  F    0.054797220  -2.647246487   0.000000000
  H   -2.071140221   3.267243245   0.895318218
  H   -2.071140221   3.267243245  -0.895318218
  H   -1.951145547   1.720599948   0.000000000
  C   -1.713338340   2.776359530   0.000000000
 Br    0.246167121   2.928162256   0.000000000

7.10_2.00_hydrogenfluoride--methylbromide.wfx


