%nprocs=4
%mem=2GB
#p hf aug-cc-pvdz output=wfx scf=(conver=6) int=(grid=ultrafine)

title

0 1
  H    0.370908107  -1.769321552   0.000000000
  F    0.054797220  -2.647246487   0.000000000
  H   -1.996295629   0.448752960   0.895318218
  H   -1.996295629   0.448752960  -0.895318218
  H   -1.876300955  -1.097890337   0.000000000
  C   -1.638493748  -0.042130755   0.000000000
 Br    0.321011713   0.109671971   0.000000000

7.10_0.80_hydrogenfluoride--methylbromide.wfx


