%nprocs=4
%mem=2GB
#p hf aug-cc-pvdz output=wfx scf=(conver=6) int=(grid=ultrafine)

title

0 1
  H   -0.178902705   0.017114144  -0.619110867
 Br   -0.130070359  -0.202176731  -2.032071101
  H    1.312730259  -0.522706390   1.615695115
 Br    0.085803440   0.189261622   1.752470109

7.13_0.90_hydrogenbromide--hydrogenbromide.wfx


