%nprocs=4
%mem=2GB
#p hf aug-cc-pvdz output=wfx scf=(conver=6) int=(grid=ultrafine)

title

0 1
  H    1.342142053  -0.503578892   1.879204112
 Br    0.115215234   0.208389120   2.015979106

7.13_mon2_hydrogenbromide--hydrogenbromide.wfx


