%nprocs=4
%mem=2GB
#p hf aug-cc-pvdz output=wfx scf=(conver=6) int=(grid=ultrafine)

title

0 1
  H   -0.178902705   0.017114144  -0.619110867
 Br   -0.130070359  -0.202176731  -2.032071101
  H    1.342142053  -0.503578892   1.879204112
 Br    0.115215234   0.208389120   2.015979106

7.13_1.00_hydrogenbromide--hydrogenbromide.wfx


