%nprocs=4
%mem=2GB
#p hf aug-cc-pvdz output=wfx scf=(conver=6) int=(grid=ultrafine)

title

0 1
  H    0.448422173   0.705873360   0.000000000
 Br    0.018048804   2.077839545   0.000000000
  H   -1.808704701   0.012957706   0.000000000
  H   -1.998418706  -1.525410621  -0.894873069
  H   -1.998418706  -1.525410621   0.894873069
  C   -1.615753568  -1.052498508   0.000000000
 Br    0.330994571  -1.293132469   0.000000000

7.14_0.80_hydrogenbromide--methylbromide.wfx


