%nprocs=4
%mem=2GB
#p hf aug-cc-pvdz output=wfx scf=(conver=6) int=(grid=ultrafine)

title

0 1
  H   -0.054804993   0.036642779  -0.613597215
  I    0.545944631  -0.621738058  -1.961828405
 Br   -0.488456672   0.619493267   1.772720839
 Br    1.133882456  -0.978997044   2.165122837

7.15_0.90_hydrogeniodide--Br2.wfx


