%nprocs=4
%mem=2GB
#p hf aug-cc-pvdz output=wfx scf=(conver=6) int=(grid=ultrafine)

title

0 1
  C    2.295987187  -1.044796774  -0.214012753
  O    1.608130596  -1.707941014  -0.949730534
  O    1.787684965  -0.270635279   0.764642421
  H    0.818919335  -0.361192101   0.743523324
  C    3.794938416  -0.970219046  -0.261974681
  H    4.167772092  -1.609430725  -1.054222028
  H    4.106374427   0.059276154  -0.433620904
  H    4.210136237  -1.279209843   0.696283134
  H   -3.209445344  -1.045037131   1.711429738
  H   -3.289284296   0.358545800   0.607506361
  H   -3.949905611  -1.219943337   0.095345033
  C   -3.190589292  -0.716819572   0.680239786
  I   -1.275042942  -1.258842195  -0.147403445

8.03_0.90_aceticacid--methyliodide.wfx


