%nprocs=4
%mem=2GB
#p hf aug-cc-pvdz output=wfx scf=(conver=6) int=(grid=ultrafine)

title

0 1
  I    1.685687733  -2.662000024  -0.695384504
  I    1.361287763  -0.768923822   1.185352942

8.05_mon2_methanol--I2.wfx


