%nprocs=4
%mem=2GB
#p hf aug-cc-pvdz output=wfx scf=(conver=6) int=(grid=ultrafine)

title

0 1
  H   -0.783860713  -1.113848998  -0.195180081
  I   -0.305011593  -0.607741825  -1.654173599

8.06_mon2_phosphoricacid--hydrogeniodide.wfx


