%nprocs=4
%mem=2GB
#p hf aug-cc-pvdz output=wfx scf=(conver=6) int=(grid=ultrafine)

title

0 1
  O    0.036762891  -1.498220141  -0.598041272
  H   -0.027235626  -0.569249960  -0.835711623
  H    0.232323283  -1.490423278   0.342840592
  I    0.309863741   2.862215439   1.020860640
  I    0.776790677   1.230688366   3.107080030

8.08_1.25_water--I2.wfx


