%nprocs=4
%mem=2GB
#p hf aug-cc-pvdz output=wfx scf=(conver=6) int=(grid=ultrafine)

title

0 1
  I    0.058635582   1.212930227  -1.035190532
  I   -0.095811958   3.070511624  -2.881773464

8.09_mon2_phosphineF2--I2.wfx


