%nprocs=4
%mem=2GB
#p hf aug-cc-pvdz output=wfx scf=(conver=6) int=(grid=ultrafine)

title

0 1
  H    0.074202185   0.025904311  -0.630747507
  F    0.250671682  -0.046737067  -1.540202382
  H    1.264947053   0.405938764   2.246517924
  I   -0.318253016   0.239870331   1.976815732

8.10_1.00_hydrogenfluoride--hydrogeniodide.wfx


