%nprocs=4
%mem=2GB
#p hf aug-cc-pvdz output=wfx scf=(conver=6) int=(grid=ultrafine)

title

0 1
  H    0.074202185   0.025904311  -0.630747507
  F    0.250671682  -0.046737067  -1.540202382
  H    1.284569813   0.395240463   2.116139762
  I   -0.298630256   0.229172030   1.846437570

8.10_0.95_hydrogenfluoride--hydrogeniodide.wfx


