%nprocs=4
%mem=2GB
#p hf aug-cc-pvdz output=wfx scf=(conver=6) int=(grid=ultrafine)

title

0 1
  H    0.527032512  -0.487824092  -0.450049282
  F    0.315571085  -0.346592732  -1.343391973
  I   -0.219922692   0.437797512   5.455696749
  I    1.695723668  -1.270272410   4.653648914

8.11_2.00_hydrogenfluoride--I2.wfx


