%nprocs=4
%mem=2GB
#p hf aug-cc-pvdz output=wfx scf=(conver=6) int=(grid=ultrafine)

title

0 1
  H    0.236199105   0.324530188   1.864902519
 Cl    0.362785833   0.437030904   3.142307159
  H   -0.643878526  -1.732563626  -1.245642111
  I   -0.180788838  -0.218764884  -1.561514337

8.13_1.25_hydrogenchloride--hydrogeniodide.wfx


