%nprocs=4
%mem=2GB
#p hf aug-cc-pvdz output=wfx scf=(conver=6) int=(grid=ultrafine)

title

0 1
  H   -0.027484798   0.006213767  -0.452895749
 Cl    0.385817577  -0.417411525  -1.596387247
  I   -0.595939017   0.635145211   2.200801651
  I    1.387319654  -1.108390857   2.702987555

8.14_1.00_hydrogenchloride--I2.wfx


