%nprocs=4
%mem=2GB
#p hf aug-cc-pvdz output=wfx scf=(conver=6) int=(grid=ultrafine)

title

0 1
  H    0.022520196   0.264049533   0.142466592
 Cl   -0.507757895   1.073089818  -0.717554321
  H   -1.115239535   1.577279502   1.831222490
  H   -1.682526097   0.561905019   3.193383510
  H   -0.262980201   1.632830183   3.405985492
  C   -0.828363104   1.022057270   2.714927787
  I    0.471099632  -0.570974856   2.063925526

8.15_0.80_hydrogenchloride--methyliodide.wfx


