%nprocs=4
%mem=2GB
#p hf aug-cc-pvdz output=wfx scf=(conver=6) int=(grid=ultrafine)

title

0 1
  H    0.022520196   0.264049533   0.142466592
 Cl   -0.507757895   1.073089818  -0.717554321
  H   -1.003094676   1.368523405   2.311587223
  H   -1.570381238   0.353148922   3.673748243
  H   -0.150835342   1.424074086   3.886350225
  C   -0.716218245   0.813301173   3.195292520
  I    0.583244491  -0.779730953   2.544290259

8.15_1.00_hydrogenchloride--methyliodide.wfx


