%nprocs=4
%mem=2GB
#p hf aug-cc-pvdz output=wfx scf=(conver=6) int=(grid=ultrafine)

title

0 1
  H    0.022520196   0.264049533   0.142466592
 Cl   -0.507757895   1.073089818  -0.717554321
  H   -0.975058461   1.316334381   2.431678406
  H   -1.542345023   0.300959898   3.793839426
  H   -0.122799127   1.371885062   4.006441408
  C   -0.688182030   0.761112149   3.315383703
  I    0.611280706  -0.831919977   2.664381442

8.15_1.05_hydrogenchloride--methyliodide.wfx


