%nprocs=4
%mem=2GB
#p hf aug-cc-pvdz output=wfx scf=(conver=6) int=(grid=ultrafine)

title

0 1
  H    0.002966274  -0.019471612  -0.479045110
 Br    0.558651635  -0.554914781  -1.684649938
  I   -1.045969302   1.063329268   3.444891688
  I    0.934774426  -0.651519024   4.043667436

8.16_1.50_hydrogenbromide--I2.wfx


