%nprocs=4
%mem=2GB
#p hf aug-cc-pvdz output=wfx scf=(conver=6) int=(grid=ultrafine)

title

0 1
  H   -0.026480969   0.005839846  -0.515636747
  I    0.650626611  -0.660179342  -1.827083976
  I   -0.753635901   0.802163641   2.304632734
  I    1.209950826  -0.956427187   2.824291294

8.18_1.05_hydrogeniodide--I2.wfx


