%nprocs=4
%mem=2GB
#p hf aug-cc-pvdz output=wfx scf=(conver=6) int=(grid=ultrafine)

title

0 1
  H   -0.026480969   0.005839846  -0.515636747
  I    0.650626611  -0.660179342  -1.827083976
  I   -0.580503775   0.612562737   1.633140000
  I    1.383082952  -1.146028091   2.152798560

8.18_0.80_hydrogeniodide--I2.wfx


