&control
 title='crystal',
 prefix='crystal',
 pseudo_dir='.',
 calculation='vc-relax',
/
&system
 ibrav=0,
 celldm(1)=1.0,
 nat=    34,
 ntyp=  4,
 ecutwfc=60.0,
 ecutrho=600.0,
 xdm=.true.,
 xdm_a1=0.4073,
 xdm_a2=2.4150,
/
&electrons
 conv_thr = 1d-8,
/
&ions
/
&cell
/
ATOMIC_SPECIES
h      1.007940 h.UPF
c     12.010700 c.UPF
o     15.999400 o.UPF
i    126.904470 i.UPF

ATOMIC_POSITIONS crystal
c     0.88215525     0.96538001     0.04594404
c     0.11784471     0.03462002     0.95405595
c     0.75938444     0.05502227     0.15021452
c     0.24061552     0.94497776     0.84978547
c     0.52844053     0.98572091     0.24292739
c     0.47155943     0.01427913     0.75707260
c     0.43229411     0.82443989     0.22723239
c     0.56770585     0.17556014     0.77276759
i     0.11218585     0.69942388     0.36844355
i     0.88781411     0.30057615     0.63155643
c     0.54582816     0.74050210     0.12526671
c     0.45417180     0.25949793     0.87473328
c     0.77184654     0.81115587     0.03397751
c     0.22815342     0.18884416     0.96602248
c     0.88929318     0.71631899     0.92546138
c     0.11070678     0.28368104     0.07453860
o     0.78691390     0.58421367     0.91105980
o     0.21308606     0.41578636     0.08894018
c     0.13237887     0.78876962     0.83431268
c     0.86762109     0.21123041     0.16568730
c     0.24924185     0.70411751     0.73114383
c     0.75075811     0.29588252     0.26885615
c     0.47707914     0.77042562     0.64213606
c     0.52292082     0.22957441     0.35786393
c     0.58671343     0.92185539     0.65494667
c     0.41328652     0.07814464     0.34505331
h     0.46880458     0.61982116     0.11123584
h     0.53119538     0.38017887     0.88876415
h     0.23613480     0.02767650     0.41491991
h     0.76386516     0.97232353     0.58508008
h     0.43312857     0.29734694     0.43815822
h     0.56687138     0.70265309     0.56184177
h     0.84163078     0.41374205     0.27879732
h     0.15836917     0.58625798     0.72120267

K_POINTS automatic
2 2 2 1 1 1

CELL_PARAMETERS cubic
    9.447991000000    -0.241070000000     0.117358000000
    2.249968000000    14.093081000000     1.040369000000
    4.137110000000     2.322254000000    19.841191000000
