&control
 title='crystal',
 prefix='crystal',
 pseudo_dir='.',
 calculation='vc-relax',
/
&system
 ibrav=0,
 celldm(1)=1.0,
 nat=    34,
 ntyp=  4,
 ecutwfc=60.0,
 ecutrho=600.0,
 xdm=.true.,
 xdm_a1=0.4073,
 xdm_a2=2.4150,
/
&electrons
 conv_thr = 1d-8,
/
&ions
/
&cell
/
ATOMIC_SPECIES
h      1.007940 h.UPF
c     12.010700 c.UPF
o     15.999400 o.UPF
i    126.904470 i.UPF

ATOMIC_POSITIONS crystal
c     0.05161805     0.53230952     0.06650916
c     0.94838202     0.46769046     0.93349084
c     0.00369960     0.67574951     0.11921340
c     0.99630047     0.32425047     0.88078659
c     0.10705288     0.74098561     0.25099620
c     0.89294719     0.25901436     0.74900379
c     0.25256086     0.65685636     0.32650995
c     0.74743920     0.34314361     0.67349005
i     0.40745635     0.73727777     0.52362705
i     0.59254372     0.26272221     0.47637294
c     0.29979575     0.51918583     0.27483355
c     0.70020432     0.48081414     0.72516645
c     0.20088237     0.45579689     0.14486088
c     0.79911770     0.54420309     0.85513911
c     0.26218483     0.30773024     0.09341491
c     0.73781524     0.69226974     0.90658509
o     0.40510094     0.24109246     0.16085954
o     0.59489913     0.75890752     0.83914045
c     0.14775478     0.24379702     0.95778492
c     0.85224529     0.75620295     0.04221507
c     0.19068043     0.10385155     0.90553138
c     0.80931964     0.89614843     0.09446861
c     0.08271000     0.03928271     0.77795430
c     0.91729007     0.96071727     0.22204570
c     0.93798878     0.11579258     0.70092223
c     0.06201129     0.88420739     0.29907776
h     0.41592336     0.45645607     0.33226529
h     0.58407671     0.54354390     0.66773470
h     0.14672323     0.93398995     0.39841196
h     0.85327684     0.06601003     0.60158803
h     0.88734155     0.07118627     0.26002445
h     0.11265852     0.92881371     0.73997554
h     0.68960515     0.95481123     0.03420546
h     0.31039492     0.04518875     0.96579453

K_POINTS automatic
2 2 2 1 1 1

CELL_PARAMETERS cubic
    7.492780000000     0.074276000000     0.316981000000
   -3.170802000000    17.909794000000     0.853364000000
   -0.015448000000    -4.714403000000    18.973977000000
