&control
 title='crystal',
 prefix='crystal',
 pseudo_dir='.',
 calculation='vc-relax',
/
&system
 ibrav=0,
 celldm(1)=1.0,
 nat=    68,
 ntyp=  4,
 ecutwfc=60.0,
 ecutrho=600.0,
 xdm=.true.,
 xdm_a1=0.4073,
 xdm_a2=2.4150,
/
&electrons
 conv_thr = 1d-8,
/
&ions
/
&cell
/
ATOMIC_SPECIES
h      1.007940 h.UPF
c     12.010700 c.UPF
o     15.999400 o.UPF
i    126.904470 i.UPF

ATOMIC_POSITIONS crystal
c     0.93647604     0.99427447     0.73804876
c     0.06352398     0.00572554     0.26195124
c     0.93647605     0.50572554     0.23804876
c     0.06352396     0.49427446     0.76195123
c     0.78520421     0.94773720     0.63482326
c     0.21479580     0.05226281     0.36517674
c     0.78520423     0.55226282     0.13482326
c     0.21479578     0.44773719     0.86517673
c     0.54522777     0.96657313     0.51038417
c     0.45477224     0.03342688     0.48961582
c     0.54522778     0.53342688     0.01038417
c     0.45477222     0.46657313     0.98961582
c     0.15037668     0.93708435     0.28042556
c     0.84962333     0.06291566     0.71957443
c     0.15037669     0.56291566     0.78042556
c     0.84962332     0.43708434     0.21957443
c     0.40076035     0.91937745     0.41051559
c     0.59923966     0.08062256     0.58948440
c     0.40076036     0.58062256     0.91051559
c     0.59923965     0.41937744     0.08948440
c     0.87596953     0.88169176     0.65822461
c     0.12403048     0.11830824     0.34177538
c     0.87596954     0.61830825     0.15822461
c     0.12403047     0.38169176     0.84177537
c     0.11703480     0.86532396     0.78289282
c     0.88296522     0.13467605     0.21710718
c     0.11703481     0.63467605     0.28289282
c     0.88296520     0.36532395     0.71710717
c     0.26105589     0.91135138     0.88219358
c     0.73894412     0.08864863     0.11780641
c     0.26105590     0.58864863     0.38219358
c     0.73894411     0.41135137     0.61780640
c     0.16943196     0.97570405     0.85954633
c     0.83056805     0.02429596     0.14045366
c     0.16943197     0.52429596     0.35954633
c     0.83056803     0.47570404     0.64045365
c     0.48824282     0.85408152     0.43311136
c     0.51175719     0.14591849     0.56688863
c     0.48824283     0.64591849     0.93311136
c     0.51175718     0.35408151     0.06688863
c     0.71736208     0.83553108     0.55390983
c     0.28263793     0.16446893     0.44609017
c     0.71736209     0.66446893     0.05390983
c     0.28263792     0.33553107     0.94609016
o     0.01764307     0.89644879     0.18993638
o     0.98235694     0.10355122     0.81006362
o     0.01764309     0.60355122     0.68993638
o     0.98235692     0.39644878     0.31006361
i     0.82913204     0.73696652     0.58749982
i     0.17086797     0.26303349     0.41250018
i     0.82913206     0.76303349     0.08749982
i     0.17086795     0.23696652     0.91250017
h     0.19002643     0.81531610     0.80022474
h     0.80997359     0.18468390     0.19977525
h     0.19002644     0.68468391     0.30022474
h     0.80997357     0.31531610     0.69977525
h     0.44579555     0.89726563     0.97722042
h     0.55420446     0.10273438     0.02277957
h     0.44579556     0.60273438     0.47722042
h     0.55420444     0.39726562     0.52277957
h     0.27641534     0.01300986     0.93587921
h     0.72358467     0.98699015     0.06412079
h     0.27641536     0.48699015     0.43587921
h     0.72358465     0.51300985     0.56412078
h     0.36739060     0.81939688     0.35264062
h     0.63260942     0.18060313     0.64735938
h     0.36739061     0.68060314     0.85264062
h     0.63260940     0.31939687     0.14735937

K_POINTS automatic
2 2 2 1 1 1

CELL_PARAMETERS cubic
    7.699525000000     0.000000000000     0.071021000000
    0.000000000000    39.366207000000     0.000000000000
   -3.092068000000     0.000000000000    16.984600000000
