&control
 title='crystal',
 prefix='crystal',
 pseudo_dir='.',
 calculation='vc-relax',
/
&system
 ibrav=0,
 celldm(1)=1.0,
 nat=   136,
 ntyp=  4,
 ecutwfc=60.0,
 ecutrho=600.0,
 xdm=.true.,
 xdm_a1=0.4073,
 xdm_a2=2.4150,
/
&electrons
 conv_thr = 1d-8,
/
&ions
/
&cell
/
ATOMIC_SPECIES
h      1.007940 h.UPF
c     12.010700 c.UPF
o     15.999400 o.UPF
i    126.904470 i.UPF

ATOMIC_POSITIONS crystal
i     0.61909669     0.02944416     0.94668082
i     0.38090329     0.97055585     0.05331920
i     0.11909670     0.02944416     0.55331922
i     0.61909669     0.47055584     0.44668081
i     0.11909670     0.47055584     0.05331920
i     0.88090329     0.52944417     0.94668082
i     0.38090329     0.52944417     0.55331922
i     0.88090329     0.97055585     0.44668081
o     0.10584738     0.22803324     0.18617273
o     0.89415260     0.77196677     0.81382730
o     0.60584739     0.22803324     0.31382732
o     0.10584738     0.27196677     0.68617272
o     0.60584739     0.27196677     0.81382730
o     0.39415259     0.72803325     0.18617273
o     0.89415260     0.72803325     0.31382732
o     0.39415259     0.77196677     0.68617272
c     0.05976229     0.16238435     0.12442200
c     0.94023769     0.83761566     0.87557802
c     0.55976230     0.16238435     0.37557804
c     0.05976229     0.33761566     0.62442199
c     0.55976230     0.33761566     0.87557802
c     0.44023769     0.66238436     0.12442200
c     0.94023769     0.66238436     0.37557804
c     0.44023769     0.83761566     0.62442199
c     0.77304025     0.19230127     0.07326176
c     0.22695973     0.80769874     0.92673827
c     0.27304026     0.19230127     0.42673829
c     0.77304025     0.30769873     0.57326174
c     0.27304026     0.30769873     0.92673827
c     0.72695972     0.69230128     0.07326176
c     0.22695973     0.69230128     0.42673829
c     0.72695972     0.80769874     0.57326174
c     0.82489206     0.26660677     0.13783327
c     0.17510792     0.73339325     0.86216676
c     0.32489207     0.26660677     0.36216678
c     0.82489206     0.23339324     0.63783326
c     0.32489207     0.23339324     0.86216676
c     0.67510792     0.76660678     0.13783327
c     0.17510792     0.76660678     0.36216678
c     0.67510792     0.73339325     0.63783326
c     0.91855501     0.25604816     0.15450386
c     0.08144497     0.74395185     0.84549617
c     0.41855502     0.25604816     0.34549619
c     0.91855501     0.24395184     0.65450384
c     0.41855502     0.24395184     0.84549617
c     0.58144497     0.75604817     0.15450386
c     0.08144497     0.75604817     0.34549619
c     0.58144497     0.74395185     0.65450384
c     0.96073914     0.17114586     0.10502631
c     0.03926085     0.82885415     0.89497371
c     0.46073914     0.17114586     0.39497373
c     0.96073914     0.32885415     0.60502630
c     0.46073914     0.32885415     0.89497371
c     0.53926084     0.67114587     0.10502631
c     0.03926085     0.67114587     0.39497373
c     0.53926084     0.82885415     0.60502630
c     0.90897874     0.09332569     0.03946321
c     0.09102125     0.90667432     0.96053682
c     0.40897874     0.09332569     0.46053684
c     0.90897874     0.40667431     0.53946319
c     0.40897874     0.40667431     0.96053682
c     0.59102124     0.59332570     0.03946321
c     0.09102125     0.59332570     0.46053684
c     0.59102124     0.90667432     0.53946319
c     0.81284590     0.10385996     0.02540609
c     0.18715409     0.89614006     0.97459394
c     0.31284591     0.10385996     0.47459396
c     0.81284590     0.39614005     0.52540607
c     0.31284591     0.39614005     0.97459394
c     0.68715408     0.60385996     0.02540609
c     0.18715409     0.60385996     0.47459396
c     0.68715408     0.89614006     0.52540607
c     0.95158027     0.00517517     0.99202289
c     0.04841971     0.99482484     0.00797713
c     0.45158028     0.00517517     0.50797715
c     0.95158027     0.49482484     0.49202288
c     0.45158028     0.49482484     0.00797713
c     0.54841971     0.50517518     0.99202289
c     0.04841971     0.50517518     0.50797715
c     0.54841971     0.99482484     0.49202288
c     0.76221887     0.02301031     0.96606632
c     0.23778112     0.97698970     0.03393371
c     0.26221887     0.02301031     0.53393373
c     0.76221887     0.47698969     0.46606631
c     0.26221887     0.47698969     0.03393371
c     0.73778111     0.52301032     0.96606632
c     0.23778112     0.52301032     0.53393373
c     0.73778111     0.97698970     0.46606631
c     0.80373044     0.93863050     0.91996242
c     0.19626955     0.06136951     0.08003761
c     0.30373045     0.93863050     0.58003763
c     0.80373044     0.56136951     0.41996240
c     0.30373045     0.56136951     0.08003761
c     0.69626954     0.43863051     0.91996242
c     0.19626955     0.43863051     0.58003763
c     0.69626954     0.06136951     0.41996240
c     0.89857225     0.92932861     0.93135080
c     0.10142774     0.07067140     0.06864923
c     0.39857225     0.92932861     0.56864925
c     0.89857225     0.57067140     0.43135078
c     0.39857225     0.57067140     0.06864923
c     0.60142773     0.42932862     0.93135080
c     0.10142774     0.42932862     0.56864925
c     0.60142773     0.07067140     0.43135078
h     0.70035498     0.20135814     0.06065074
h     0.29964501     0.79864188     0.93934928
h     0.20035499     0.20135814     0.43934930
h     0.70035498     0.29864187     0.56065073
h     0.20035499     0.29864187     0.93934928
h     0.79964500     0.70135815     0.06065074
h     0.29964501     0.70135815     0.43934930
h     0.79964500     0.79864188     0.56065073
h     0.79244528     0.33335080     0.17653431
h     0.20755471     0.66664921     0.82346572
h     0.29244528     0.33335080     0.32346574
h     0.79244528     0.16664920     0.67653429
h     0.29244528     0.16664920     0.82346572
h     0.70755470     0.83335081     0.17653431
h     0.20755471     0.83335081     0.32346574
h     0.70755470     0.66664921     0.67653429
h     0.96019340     0.31360859     0.20640336
h     0.03980658     0.68639142     0.79359667
h     0.46019341     0.31360859     0.29359669
h     0.96019340     0.18639142     0.70640335
h     0.46019341     0.18639142     0.79359667
h     0.53980658     0.81360860     0.20640336
h     0.03980658     0.81360860     0.29359669
h     0.53980658     0.68639142     0.70640335
h     0.76582511     0.87702478     0.87350600
h     0.23417487     0.12297523     0.12649402
h     0.26582512     0.87702478     0.62649404
h     0.76582511     0.62297523     0.37350599
h     0.26582512     0.62297523     0.12649402
h     0.73417487     0.37702479     0.87350600
h     0.23417487     0.37702479     0.62649404
h     0.73417487     0.12297523     0.37350599

K_POINTS automatic
2 2 2 1 1 1

CELL_PARAMETERS cubic
   27.936796000000     0.000000000000     0.000000000000
    0.000000000000    26.223014000000     0.000000000000
    0.000000000000     0.000000000000    14.878439000000
