&control
 title='crystal',
 prefix='crystal',
 pseudo_dir='.',
 calculation='vc-relax',
/
&system
 ibrav=0,
 celldm(1)=1.0,
 nat=    68,
 ntyp=  4,
 ecutwfc=60.0,
 ecutrho=600.0,
 xdm=.true.,
 xdm_a1=0.4073,
 xdm_a2=2.4150,
/
&electrons
 conv_thr = 1d-8,
/
&ions
/
&cell
/
ATOMIC_SPECIES
h      1.007940 h.UPF
c     12.010700 c.UPF
o     15.999400 o.UPF
i    126.904470 i.UPF

ATOMIC_POSITIONS crystal
c     0.23861969     0.52767622     0.66291113
c     0.76138036     0.47232377     0.33708893
c     0.23861965     0.97232376     0.16291109
c     0.76138039     0.02767623     0.83708895
c     0.89495680     0.54402897     0.41739738
c     0.10504326     0.45597102     0.58260267
c     0.89495675     0.95597101     0.91739734
c     0.10504329     0.04402898     0.08260270
c     0.81633446     0.69875568     0.33070184
c     0.18366560     0.30124431     0.66929822
c     0.81633442     0.80124431     0.83070180
c     0.18366563     0.19875568     0.16929824
c     0.16864998     0.68519069     0.58358804
c     0.83135008     0.31480930     0.41641202
c     0.16864993     0.81480929     0.08358800
c     0.83135011     0.18519069     0.91641204
c     0.44572270     0.44151840     0.82507882
c     0.55427736     0.55848159     0.17492123
c     0.44572266     0.05848158     0.32507878
c     0.55427739     0.94151840     0.67492126
c     0.49140739     0.71689364     0.10141091
c     0.50859267     0.28310635     0.89858914
c     0.49140734     0.78310635     0.60141087
c     0.50859270     0.21689364     0.39858917
c     0.61366867     0.78522361     0.17208696
c     0.38633139     0.21477638     0.82791310
c     0.61366863     0.71477637     0.67208692
c     0.38633142     0.28522362     0.32791312
c     0.94399128     0.77664207     0.40325724
c     0.05600877     0.22335792     0.59674281
c     0.94399124     0.72335791     0.90325720
c     0.05600880     0.27664207     0.09674284
c     0.30822912     0.75597572     0.67200783
c     0.69177094     0.24402427     0.32799222
c     0.30822908     0.74402427     0.17200779
c     0.69177096     0.25597572     0.82799225
c     0.57813740     0.51804931     0.90581814
c     0.42186266     0.48195068     0.09418191
c     0.57813735     0.98195067     0.40581810
c     0.42186269     0.01804932     0.59418194
c     0.51527747     0.67272489     0.83560908
c     0.48472258     0.32727510     0.16439097
c     0.51527743     0.82727509     0.33560904
c     0.48472261     0.17272489     0.66439100
o     0.86482049     0.91104290     0.31528075
o     0.13517957     0.08895709     0.68471930
o     0.86482044     0.58895708     0.81528071
o     0.13517960     0.41104291     0.18471933
i     0.20594755     0.85503109     0.88142101
i     0.79405251     0.14496890     0.11857904
i     0.20594750     0.64496889     0.38142097
i     0.79405254     0.35503110     0.61857907
h     0.55974032     0.90503548     0.10958093
h     0.44025974     0.09496450     0.89041913
h     0.55974028     0.59496450     0.60958089
h     0.44025977     0.40503549     0.39041915
h     0.73637017     0.45255923     0.03008863
h     0.26362989     0.54744075     0.96991142
h     0.73637012     0.04744075     0.53008859
h     0.26362992     0.95255924     0.46991145
h     0.62597684     0.72965429     0.90648621
h     0.37402322     0.27034570     0.09351385
h     0.62597680     0.77034569     0.40648617
h     0.37402325     0.22965430     0.59351387
h     0.25356733     0.87752582     0.61223258
h     0.74643273     0.12247417     0.38776747
h     0.25356729     0.62247416     0.11223254
h     0.74643275     0.37752582     0.88776750

K_POINTS automatic
2 2 2 1 1 1

CELL_PARAMETERS cubic
   44.223355000000     0.000000000000    -0.270975000000
    0.000000000000    16.386331000000     0.000000000000
  -44.272278000000     0.000000000000     7.726636000000
