&control
 title='crystal',
 prefix='crystal',
 pseudo_dir='.',
 calculation='vc-relax',
/
&system
 ibrav=0,
 celldm(1)=1.0,
 nat=    68,
 ntyp=  4,
 ecutwfc=60.0,
 ecutrho=600.0,
 xdm=.true.,
 xdm_a1=0.4073,
 xdm_a2=2.4150,
/
&electrons
 conv_thr = 1d-8,
/
&ions
/
&cell
/
ATOMIC_SPECIES
h      1.007940 h.UPF
c     12.010700 c.UPF
o     15.999400 o.UPF
i    126.904470 i.UPF

ATOMIC_POSITIONS crystal
c     0.75466750     0.78861335     0.62572992
c     0.24533250     0.28861334     0.37427012
c     0.85151434     0.75152780     0.66291321
c     0.14848565     0.25152779     0.33708684
c     0.94821486     0.78794464     0.51045041
c     0.05178514     0.28794463     0.48954964
c     0.95016876     0.86381385     0.32053332
c     0.04983123     0.36381384     0.67946672
c     0.85077710     0.90192098     0.28528130
c     0.14922289     0.40192097     0.71471874
c     0.75422953     0.86195145     0.44020660
c     0.24577046     0.36195145     0.55979344
c     0.04923763     0.90231408     0.16932496
c     0.95076236     0.40231408     0.83067508
c     0.14932613     0.86389347     0.20635769
c     0.85067386     0.36389346     0.79364235
c     0.15005537     0.78866651     0.38582098
c     0.84994462     0.28866650     0.61417906
c     0.04907175     0.74712071     0.55161175
c     0.95092824     0.24712071     0.44838829
c     0.24733549     0.75031385     0.41980422
c     0.75266450     0.25031384     0.58019582
c     0.34303759     0.78730044     0.27997775
c     0.65696241     0.28730043     0.72002229
c     0.34826565     0.86520584     0.10079617
c     0.65173434     0.36520583     0.89920387
c     0.24883411     0.90293631     0.06293034
c     0.75116588     0.40293630     0.93706971
c     0.44476013     0.90681388     0.95918520
c     0.55523986     0.40681387     0.04081484
c     0.44429550     0.98197955     0.78563277
c     0.55570449     0.48197955     0.21436727
c     0.34734678     0.01831612     0.74545917
c     0.65265321     0.51831612     0.25454087
c     0.25060962     0.97968725     0.88063692
c     0.74939037     0.47968725     0.11936312
c     0.14967148     0.01873785     0.82485061
c     0.85032852     0.51873785     0.17514943
c     0.04831317     0.97709601     0.98555488
c     0.95168682     0.47709601     0.01444516
c     0.95107481     0.01484628     0.94765103
c     0.04892518     0.51484627     0.05234901
c     0.85556271     0.97836568     0.09617522
c     0.14443728     0.47836567     0.90382482
o     0.15066251     0.08251803     0.64746794
o     0.84933748     0.58251802     0.35253210
o     0.05052546     0.68204568     0.72013674
o     0.94947454     0.18204568     0.27986330
i     0.71364617     0.04160882     0.03746050
i     0.28635383     0.54160882     0.96253954
i     0.48443797     0.72378471     0.34407279
i     0.51556202     0.22378470     0.65592725
h     0.67904690     0.75974636     0.74593341
h     0.32095309     0.25974636     0.25406663
h     0.85308910     0.69410790     0.80982235
h     0.14691089     0.19410790     0.19017769
h     0.67855031     0.88991066     0.40973665
h     0.32144968     0.38991066     0.59026339
h     0.24241057     0.69155115     0.56134953
h     0.75758942     0.19155114     0.43865051
h     0.52045619     0.87911829     0.99118339
h     0.47954381     0.37911828     0.00881665
h     0.51985660     0.01258037     0.67752445
h     0.48014340     0.51258036     0.32247559
h     0.34511805     0.07661837     0.60343095
h     0.65488195     0.57661837     0.39656909
h     0.95518958     0.07302402     0.80311999
h     0.04481041     0.57302402     0.19688005

K_POINTS automatic
2 2 2 1 1 1

CELL_PARAMETERS cubic
   24.030620000000     0.000000000000     0.344412000000
    0.000000000000    30.118421000000     0.000000000000
    1.351955000000     0.000000000000     7.361487000000
