&control
 title='crystal',
 prefix='crystal',
 pseudo_dir='.',
 calculation='vc-relax',
/
&system
 ibrav=0,
 celldm(1)=1.0,
 nat=   136,
 ntyp=  4,
 ecutwfc=60.0,
 ecutrho=600.0,
 xdm=.true.,
 xdm_a1=0.4073,
 xdm_a2=2.4150,
/
&electrons
 conv_thr = 1d-8,
/
&ions
/
&cell
/
ATOMIC_SPECIES
h      1.007940 h.UPF
c     12.010700 c.UPF
o     15.999400 o.UPF
i    126.904470 i.UPF

ATOMIC_POSITIONS crystal
h     0.27614750     0.07192216     0.36251860
h     0.77614749     0.42807785     0.36251859
h     0.22385247     0.57192086     0.86251904
h     0.72385247     0.92807916     0.86251904
c     0.39793339     0.40045221     0.86543165
c     0.89793339     0.09954780     0.86543165
c     0.10206658     0.90045091     0.36543210
c     0.60206658     0.59954910     0.36543209
c     0.43799399     0.58336765     0.88260681
c     0.93799399     0.91663237     0.88260680
c     0.06200598     0.08336634     0.38260725
c     0.56200598     0.41663367     0.38260725
c     0.45057512     0.69116237     0.98668396
c     0.95057511     0.80883764     0.98668396
c     0.04942485     0.19116107     0.48668440
c     0.54942485     0.30883894     0.48668440
c     0.42056595     0.58886065     0.07056520
c     0.92056594     0.91113937     0.07056520
c     0.07943402     0.08885934     0.57056565
c     0.57943402     0.41114067     0.57056564
c     0.38137555     0.40930803     0.05123985
c     0.88137554     0.09069198     0.05123984
c     0.11862442     0.90930673     0.55124029
c     0.61862442     0.59069329     0.55124029
c     0.36945347     0.31521401     0.94845478
c     0.86945347     0.18478600     0.94845478
c     0.13054650     0.81521271     0.44845523
c     0.63054650     0.68478730     0.44845522
c     0.43238119     0.67930348     0.17094661
c     0.93238119     0.82069653     0.17094661
c     0.06761878     0.17930218     0.67094706
c     0.56761878     0.32069784     0.67094705
c     0.40578019     0.59107096     0.25176234
c     0.90578018     0.90892905     0.25176233
c     0.09421978     0.09106966     0.75176278
c     0.59421978     0.40893036     0.75176278
c     0.36521550     0.41024987     0.23686053
c     0.86521550     0.08975014     0.23686053
c     0.13478447     0.91024857     0.73686098
c     0.63478447     0.58975145     0.73686097
c     0.35324497     0.31982898     0.13449317
c     0.85324497     0.18017104     0.13449316
c     0.14675500     0.81982767     0.63449361
c     0.64675500     0.68017234     0.63449361
c     0.31307591     0.13879513     0.11731413
c     0.81307590     0.36120488     0.11731412
c     0.18692406     0.63879383     0.61731457
c     0.68692406     0.86120619     0.61731457
c     0.29983435     0.04027017     0.01290003
c     0.79983434     0.45972984     0.01290003
c     0.20016562     0.54026887     0.51290047
c     0.70016562     0.95973115     0.51290047
c     0.33005476     0.13854822     0.92898305
c     0.83005476     0.36145179     0.92898305
c     0.16994521     0.63854692     0.42898350
c     0.66994520     0.86145310     0.42898349
c     0.33652868     0.31690087     0.31732755
c     0.83652868     0.18309914     0.31732755
c     0.16347129     0.81689957     0.81732800
c     0.66347129     0.68310044     0.81732799
c     0.29771349     0.13868874     0.29898353
c     0.79771349     0.36131127     0.29898353
c     0.20228648     0.63868744     0.79898398
c     0.70228648     0.86131257     0.79898397
c     0.28601219     0.04982795     0.19898345
c     0.78601219     0.45017207     0.19898344
c     0.21398778     0.54982664     0.69898389
c     0.71398778     0.95017337     0.69898389
o     0.48444639     0.86118850     0.00414293
o     0.98444639     0.63881151     0.00414293
o     0.01555358     0.36118720     0.50414337
o     0.51555358     0.13881282     0.50414337
h     0.46295105     0.82164593     0.18180857
h     0.96295104     0.67835408     0.18180857
h     0.03704892     0.32164463     0.68180901
h     0.53704892     0.17835538     0.68180901
i     0.42828434     0.74327024     0.39729634
i     0.92828434     0.75672977     0.39729633
i     0.07171563     0.24326894     0.89729678
i     0.57171563     0.25673107     0.89729678
h     0.34553915     0.38776894     0.39499993
h     0.84553914     0.11223107     0.39499993
h     0.15446082     0.88776764     0.89500038
h     0.65446082     0.61223237     0.89500037
h     0.25577857     0.90731176     0.18311157
h     0.75577857     0.59268825     0.18311157
h     0.24422140     0.40731046     0.68311202
h     0.74422140     0.09268955     0.68311201
o     0.26529866     0.87884635     0.99558332
o     0.76529865     0.62115366     0.99558331
o     0.23470131     0.37884505     0.49558376
o     0.73470131     0.12115496     0.49558376
c     0.38651806     0.30219523     0.76335632
c     0.88651805     0.19780478     0.76335632
c     0.11348191     0.80219393     0.26335676
c     0.61348191     0.69780609     0.26335676
c     0.41570233     0.38851527     0.68310932
c     0.91570233     0.11148475     0.68310932
c     0.08429764     0.88851396     0.18310977
c     0.58429764     0.61148605     0.18310976
c     0.45442879     0.56772395     0.70142586
c     0.95442878     0.93227606     0.70142586
c     0.04557118     0.06772265     0.20142631
c     0.54557118     0.43227736     0.20142630
c     0.46554099     0.66482779     0.80111203
c     0.96554098     0.83517222     0.80111203
c     0.03445898     0.16482649     0.30111247
c     0.53445898     0.33517352     0.30111247
c     0.34583515     0.12265706     0.74836958
c     0.84583514     0.37734295     0.74836958
c     0.15416482     0.62265576     0.24837002
c     0.65416482     0.87734426     0.24837002
c     0.31840351     0.04526530     0.82869504
c     0.81840351     0.45473471     0.82869503
c     0.18159646     0.54526400     0.32869548
c     0.68159645     0.95473601     0.32869548
h     0.40712710     0.31168264     0.60569222
h     0.90712709     0.18831737     0.60569222
h     0.09287287     0.81168134     0.10569266
h     0.59287287     0.68831868     0.10569266
h     0.47620434     0.63373018     0.63818687
h     0.97620434     0.86626983     0.63818686
h     0.02379563     0.13372888     0.13818731
h     0.52379562     0.36627114     0.13818731
h     0.49569069     0.80844741     0.81689720
h     0.99569069     0.69155260     0.81689719
h     0.00430928     0.30844611     0.31689764
h     0.50430927     0.19155391     0.31689764
i     0.32479303     0.95902619     0.60272916
i     0.82479303     0.54097383     0.60272916
i     0.17520694     0.45902488     0.10272960
i     0.67520693     0.04097513     0.10272960
h     0.28751579     0.90749092     0.81740504
h     0.78751579     0.59250909     0.81740503
h     0.21248418     0.40748962     0.31740548
h     0.71248417     0.09251039     0.31740548

K_POINTS automatic
2 2 2 1 1 1

CELL_PARAMETERS cubic
   57.019541000000     0.000000000000    -0.000010000000
    0.000000000000     7.366649000000     0.000000000000
   -0.000006000000     0.000000000000    24.757855000000
