&control
 title='crystal',
 prefix='crystal',
 pseudo_dir='.',
 calculation='vc-relax',
/
&system
 ibrav=0,
 celldm(1)=1.0,
 nat=    68,
 ntyp=  4,
 ecutwfc=60.0,
 ecutrho=600.0,
 xdm=.true.,
 xdm_a1=0.4073,
 xdm_a2=2.4150,
/
&electrons
 conv_thr = 1d-8,
/
&ions
/
&cell
/
ATOMIC_SPECIES
h      1.007940 h.UPF
c     12.010700 c.UPF
o     15.999400 o.UPF
i    126.904470 i.UPF

ATOMIC_POSITIONS crystal
h     0.68095223     0.36022399     0.29508349
h     0.31904772     0.63977600     0.70491653
h     0.31904823     0.86022327     0.20491576
h     0.68095173     0.13977671     0.79508425
c     0.48175102     0.86601870     0.54613936
c     0.51824893     0.13398128     0.45386066
c     0.51824745     0.36601949     0.95386256
c     0.48175251     0.63398050     0.04613745
c     0.34151554     0.88371785     0.62745629
c     0.65848442     0.11628213     0.37254372
c     0.65848377     0.38371968     0.87254372
c     0.34151619     0.61628030     0.12745629
c     0.25076780     0.98794654     0.65274675
c     0.74923216     0.01205344     0.34725327
c     0.74924758     0.48794933     0.84724735
c     0.25075238     0.51205066     0.15275267
c     0.32068432     0.07125816     0.59116262
c     0.67931563     0.92874182     0.40883740
c     0.67931703     0.57125874     0.90883503
c     0.32068292     0.42874125     0.09116499
c     0.45915367     0.05140524     0.51174055
c     0.54084628     0.94859475     0.48825946
c     0.54084206     0.55140585     0.98826232
c     0.45915789     0.44859413     0.01173769
c     0.24271813     0.17165403     0.61455894
c     0.75728182     0.82834596     0.38544108
c     0.75727896     0.67165606     0.88544250
c     0.24272100     0.32834392     0.11455752
c     0.30047390     0.25184362     0.55956937
c     0.69952606     0.74815637     0.44043065
c     0.69952803     0.75184168     0.94042826
c     0.30047192     0.24815830     0.05957175
c     0.43719026     0.23622067     0.47709340
c     0.56280969     0.76377931     0.52290662
c     0.56280753     0.73621908     0.02290683
c     0.43719243     0.26378091     0.97709318
c     0.49721659     0.31603910     0.41780967
c     0.50278336     0.68396088     0.58219035
c     0.50278383     0.81603917     0.08218974
c     0.49721613     0.18396081     0.91781027
c     0.63437565     0.29717246     0.33915375
c     0.36562430     0.70282752     0.66084626
c     0.36562564     0.79716847     0.16084514
c     0.63437432     0.20283151     0.83915488
c     0.71442351     0.19736163     0.31647921
c     0.28557645     0.80263835     0.68352080
c     0.28557754     0.69736209     0.18352062
c     0.71442241     0.30263789     0.81647939
o     0.11950896     0.00605414     0.72182754
o     0.88049100     0.99394584     0.27817247
o     0.88048609     0.50605437     0.77817868
o     0.11951386     0.49394562     0.22182134
h     0.13596850     0.18274756     0.67709613
h     0.86403145     0.81725243     0.32290388
h     0.86403076     0.68274856     0.82290170
h     0.13596919     0.31725142     0.17709831
i     0.17369072     0.39789894     0.60357219
i     0.82630923     0.60210105     0.39642782
i     0.82631145     0.89789874     0.89642750
i     0.17368850     0.10210125     0.10357252
h     0.43333593     0.39366319     0.43495016
h     0.56666402     0.60633680     0.56504986
h     0.56666273     0.89366197     0.06504766
h     0.43333723     0.10633802     0.93495235
h     0.82435247     0.18121251     0.25504688
h     0.17564748     0.81878747     0.74495314
h     0.17564807     0.68120964     0.24495335
h     0.82435188     0.31879035     0.75504666

K_POINTS automatic
2 2 2 1 1 1

CELL_PARAMETERS cubic
    7.444424000000     0.000008000000     0.043812000000
    0.000011000000    24.796335000000     0.000084000000
   -4.097439000000     0.000078000000    27.920025000000
