&control
 title='crystal',
 prefix='crystal',
 pseudo_dir='.',
 calculation='vc-relax',
/
&system
 ibrav=0,
 celldm(1)=1.0,
 nat=    34,
 ntyp=  4,
 ecutwfc=60.0,
 ecutrho=600.0,
 xdm=.true.,
 xdm_a1=0.4073,
 xdm_a2=2.4150,
/
&electrons
 conv_thr = 1d-8,
/
&ions
/
&cell
/
ATOMIC_SPECIES
h      1.007940 h.UPF
c     12.010700 c.UPF
o     15.999400 o.UPF
i    126.904470 i.UPF

ATOMIC_POSITIONS crystal
c     0.04430851     0.03147392     0.87204190
c     0.95568226     0.96853307     0.12798052
c     0.02198135     0.18585875     0.61693112
c     0.97800942     0.81414825     0.38309130
c     0.90703032     0.28743973     0.59671819
c     0.09296045     0.71256726     0.40330423
c     0.81788423     0.22161966     0.86713147
c     0.18210653     0.77838733     0.13289095
c     0.84359068     0.06485369     0.12335542
c     0.15640009     0.93515331     0.87666700
c     0.89157506     0.75220599     0.63242301
c     0.10841571     0.24780100     0.36759941
c     0.78371290     0.84521485     0.62732903
c     0.21627786     0.15479214     0.37269339
c     0.75509776     0.00409365     0.37693222
c     0.24489301     0.99591334     0.62309020
c     0.70839311     0.31484547     0.86428455
c     0.29159766     0.68516153     0.13573787
c     0.62193363     0.25614842     0.11510741
c     0.37805714     0.74385858     0.88491501
c     0.64499938     0.10339790     0.36531544
c     0.35499139     0.89660909     0.63470697
i     0.34213007     0.25310841     0.98802531
i     0.65786070     0.74689859     0.01199711
o     0.11318188     0.58001343     0.63789402
o     0.88680889     0.41999356     0.36212839
h     0.08706898     0.36766808     0.17214200
h     0.91292179     0.63233891     0.82788041
h     0.42199154     0.94329835     0.44177681
h     0.57799923     0.05670865     0.55824561
h     0.46387946     0.67122264     0.88884015
h     0.53611131     0.32878436     0.11118226
h     0.30716061     0.56720238     0.34077230
h     0.69283016     0.43280462     0.65925012

K_POINTS automatic
2 2 2 1 1 1

CELL_PARAMETERS cubic
   26.204625000000    -0.857650000000     1.041028000000
    7.444069000000    14.582565000000    -0.010431000000
    2.700808000000     1.235853000000     6.864769000000
