&control
 title='crystal',
 prefix='crystal',
 pseudo_dir='.',
 calculation='vc-relax',
/
&system
 ibrav=0,
 celldm(1)=1.0,
 nat=    34,
 ntyp=  4,
 ecutwfc=60.0,
 ecutrho=600.0,
 xdm=.true.,
 xdm_a1=0.4073,
 xdm_a2=2.4150,
/
&electrons
 conv_thr = 1d-8,
/
&ions
/
&cell
/
ATOMIC_SPECIES
h      1.007940 h.UPF
c     12.010700 c.UPF
o     15.999400 o.UPF
i    126.904470 i.UPF

ATOMIC_POSITIONS crystal
c     0.04433660     0.93149072     0.03133573
c     0.95565586     0.06850630     0.96866566
c     0.02191198     0.94485707     0.18589650
c     0.97808049     0.05513995     0.81410489
c     0.90680210     0.10788511     0.28798183
c     0.09319036     0.89211191     0.71201956
c     0.81760381     0.23771621     0.22243032
c     0.18238866     0.76228081     0.77757107
c     0.84339060     0.21781538     0.06550070
c     0.15660186     0.78218164     0.93450068
c     0.89156979     0.18982838     0.75253437
c     0.10842267     0.81016864     0.24746702
c     0.78354706     0.33337212     0.84605121
c     0.21644540     0.66662490     0.15395018
c     0.75482649     0.35214154     0.00508494
c     0.24516598     0.64785548     0.99491645
c     0.70795323     0.38365966     0.31615905
c     0.29203924     0.61633736     0.68384234
c     0.62142743     0.51075193     0.25774784
c     0.37856503     0.48924509     0.74225354
c     0.64457192     0.49671380     0.10484116
c     0.35542054     0.50328322     0.89516022
i     0.34242884     0.47670554     0.25156165
i     0.65756362     0.52329148     0.74843974
o     0.11349694     0.86206281     0.57927034
o     0.88649553     0.13793421     0.42073105
h     0.08699627     0.82981912     0.36752521
h     0.91299620     0.17017790     0.63247618
h     0.42243305     0.40075404     0.94172873
h     0.57755941     0.59924298     0.05827265
h     0.46450109     0.37227283     0.66925546
h     0.53549137     0.62772419     0.33074593
h     0.30767171     0.60035995     0.56579416
h     0.69232076     0.39963707     0.43420723

K_POINTS automatic
2 2 2 1 1 1

CELL_PARAMETERS cubic
   27.056166000000     0.465645000000     0.280196000000
    3.258225000000     6.713889000000     0.417853000000
    9.063660000000     5.630358000000    15.025842000000
