&control
 title='crystal',
 prefix='crystal',
 pseudo_dir='.',
 calculation='vc-relax',
/
&system
 ibrav=0,
 celldm(1)=1.0,
 nat=    34,
 ntyp=  4,
 ecutwfc=60.0,
 ecutrho=600.0,
 xdm=.true.,
 xdm_a1=0.4073,
 xdm_a2=2.4150,
/
&electrons
 conv_thr = 1d-8,
/
&ions
/
&cell
/
ATOMIC_SPECIES
h      1.007940 h.UPF
c     12.010700 c.UPF
o     15.999400 o.UPF
i    126.904470 i.UPF

ATOMIC_POSITIONS crystal
c     0.92350219     0.04541963     0.93474659
c     0.07650823     0.95457467     0.06523264
c     0.78720583     0.02798856     0.98182098
c     0.21280460     0.97200574     0.01815825
c     0.79707057     0.91602912     0.15977668
c     0.20293985     0.08396518     0.84020256
c     0.95380061     0.82480089     0.29658767
c     0.04620981     0.17519341     0.70339156
c     0.08934726     0.84536714     0.24652211
c     0.91066316     0.15462716     0.75345712
c     0.36206360     0.88352598     0.14630793
c     0.63794682     0.11646832     0.85367130
c     0.37429218     0.77859686     0.31868771
c     0.62571824     0.22139744     0.68129152
c     0.24033302     0.75480430     0.37638578
c     0.75967741     0.24519000     0.62359346
c     0.96738969     0.71845789     0.46885192
c     0.03262073     0.28153641     0.53112731
c     0.11477631     0.63015143     0.59609353
c     0.88523412     0.36984287     0.40388570
c     0.24873371     0.64791251     0.55005823
c     0.75127671     0.35208179     0.44992101
i     0.39948694     0.35005580     0.48882229
i     0.60052348     0.64993850     0.51115694
o     0.31928231     0.10028058     0.81279679
o     0.68072811     0.89971372     0.18718245
h     0.53668490     0.09861001     0.89118429
h     0.46332553     0.90138429     0.10879494
h     0.63657872     0.42105544     0.35270481
h     0.36343170     0.57893886     0.64727442
h     0.87395317     0.45307641     0.27461810
h     0.12605726     0.54691789     0.72536114
h     0.13809448     0.29353331     0.50535327
h     0.86191595     0.70646099     0.49462596

K_POINTS automatic
2 2 2 1 1 1

CELL_PARAMETERS cubic
   18.172834000000     1.339803000000     1.721044000000
   15.263282000000    27.138660000000     2.525973000000
    3.214406000000     2.952695000000     6.030987000000
