&control
 title='crystal',
 prefix='crystal',
 pseudo_dir='.',
 calculation='vc-relax',
/
&system
 ibrav=0,
 celldm(1)=1.0,
 nat=    68,
 ntyp=  4,
 ecutwfc=60.0,
 ecutrho=600.0,
 xdm=.true.,
 xdm_a1=0.4073,
 xdm_a2=2.4150,
/
&electrons
 conv_thr = 1d-8,
/
&ions
/
&cell
/
ATOMIC_SPECIES
h      1.007940 h.UPF
c     12.010700 c.UPF
o     15.999400 o.UPF
i    126.904470 i.UPF

ATOMIC_POSITIONS crystal
o     0.59765452     0.39394631     0.79951816
o     0.09766214     0.89396241     0.79950575
o     0.40234548     0.60605372     0.20048178
o     0.90235310     0.10606982     0.20046937
c     0.62182283     0.51803975     0.68266135
c     0.12183045     0.01805585     0.68264895
c     0.37817717     0.48196027     0.31733858
c     0.87818479     0.98197637     0.31732617
c     0.49275813     0.63217091     0.52995881
c     0.99276575     0.13218701     0.52994641
c     0.50724188     0.36782911     0.47004112
c     0.00724949     0.86784521     0.47002871
c     0.33835408     0.60010789     0.51141378
c     0.83836170     0.10012399     0.51140138
c     0.66164592     0.39989213     0.48858615
c     0.16165354     0.89990823     0.48857375
h     0.31687503     0.49211482     0.60853026
h     0.81688265     0.99213092     0.60851786
h     0.68312497     0.50788521     0.39146967
h     0.18313259     0.00790131     0.39145727
c     0.21476148     0.70455960     0.37167056
c     0.71476910     0.20457570     0.37165816
c     0.78523853     0.29544042     0.62832938
c     0.28524614     0.79545652     0.62831698
h     0.09422490     0.67807013     0.35833694
h     0.59423251     0.17808623     0.35832454
h     0.90577511     0.32192990     0.64166299
h     0.40578273     0.82194600     0.64165059
c     0.24559118     0.83989633     0.25315875
c     0.74559879     0.33991243     0.25314635
c     0.75440883     0.16010369     0.74684118
c     0.25441645     0.66011979     0.74682878
h     0.14867176     0.92022899     0.14536001
h     0.64867938     0.42024509     0.14534761
h     0.85132824     0.07977103     0.85463992
h     0.35133586     0.57978713     0.85462752
c     0.40226668     0.87629349     0.27018578
c     0.90227429     0.37630959     0.27017338
c     0.59773333     0.12370653     0.72981415
c     0.09774095     0.62372263     0.72980175
c     0.52768327     0.77078993     0.40900919
c     0.02769089     0.27080603     0.40899679
c     0.47231673     0.22921009     0.59099074
c     0.97232435     0.72922619     0.59097834
c     0.68677842     0.80387403     0.42889150
c     0.18678604     0.30389013     0.42887910
c     0.31322158     0.19612599     0.57110843
c     0.81322920     0.69614209     0.57109603
c     0.78258335     0.55870821     0.69197782
c     0.28259096     0.05872431     0.69196542
c     0.21741667     0.44129180     0.30802212
c     0.71742428     0.94130790     0.30800972
c     0.90382784     0.45464035     0.82631527
c     0.40383546     0.95465645     0.82630287
c     0.09617217     0.54535967     0.17368466
c     0.59617979     0.04537577     0.17367225
h     0.87352386     0.34939686     0.91648404
h     0.37353148     0.84941296     0.91647164
h     0.12647615     0.65060316     0.08351589
h     0.62648376     0.15061926     0.08350349
c     0.05429772     0.48850072     0.83948217
c     0.55430534     0.98851682     0.83946977
c     0.94570229     0.51149931     0.16051776
c     0.44570990     0.01151541     0.16050536
i     0.21998314     0.33569863     0.01750555
i     0.71999076     0.83571473     0.01749315
i     0.78001687     0.66430139     0.98249438
i     0.28002449     0.16431749     0.98248198

K_POINTS automatic
2 2 2 1 1 1

CELL_PARAMETERS cubic
   20.601764000000     1.210854000000     0.184779000000
  -18.356980000000    27.624774000000    -0.718629000000
  -17.241133000000    11.949103000000     8.405329000000
