&control
 title='crystal',
 prefix='crystal',
 pseudo_dir='.',
 calculation='vc-relax',
/
&system
 ibrav=0,
 celldm(1)=1.0,
 nat=    68,
 ntyp=  4,
 ecutwfc=60.0,
 ecutrho=600.0,
 xdm=.true.,
 xdm_a1=0.4073,
 xdm_a2=2.4150,
/
&electrons
 conv_thr = 1d-8,
/
&ions
/
&cell
/
ATOMIC_SPECIES
h      1.007940 h.UPF
c     12.010700 c.UPF
o     15.999400 o.UPF
i    126.904470 i.UPF

ATOMIC_POSITIONS crystal
i     0.23744230     0.10644448     0.45139054
i     0.76255768     0.89355552     0.54860945
i     0.23744230     0.39355552     0.95139054
i     0.76255769     0.60644448     0.04860945
o     0.74073495     0.34647718     0.69997992
o     0.25926503     0.65352282     0.30002007
o     0.74073495     0.15352282     0.19997992
o     0.25926504     0.84647718     0.80002007
c     0.03014686     0.44998235     0.49241582
c     0.96985312     0.55001765     0.50758417
c     0.03014687     0.05001765     0.99241582
c     0.96985313     0.94998235     0.00758417
c     0.16156050     0.42061281     0.40946879
c     0.83843948     0.57938719     0.59053120
c     0.16156050     0.07938719     0.90946879
c     0.83843949     0.92061281     0.09053120
c     0.95825617     0.38087854     0.55801112
c     0.04174381     0.61912145     0.44198887
c     0.95825618     0.11912145     0.05801112
c     0.04174382     0.88087854     0.94198887
c     0.81572036     0.40798952     0.64393964
c     0.18427963     0.59201047     0.35606035
c     0.81572036     0.09201047     0.14393964
c     0.18427964     0.90798952     0.85606035
c     0.23547509     0.48904275     0.34111352
c     0.76452490     0.51095725     0.65888648
c     0.23547509     0.01095725     0.84111352
c     0.76452491     0.98904275     0.15888647
c     0.22232626     0.32145158     0.39420002
c     0.77767372     0.67854842     0.60579997
c     0.22232627     0.17854842     0.89420003
c     0.77767373     0.82145158     0.10579996
c     0.01812161     0.28318551     0.54353533
c     0.98187837     0.71681449     0.45646467
c     0.01812161     0.21681449     0.04353533
c     0.98187838     0.78318551     0.95646466
c     0.14802994     0.25467646     0.46450521
c     0.85197004     0.74532354     0.53549478
c     0.14802994     0.24532354     0.96450521
c     0.85197005     0.75467646     0.03549478
c     0.36194893     0.45970364     0.26015134
c     0.63805105     0.54029636     0.73984866
c     0.36194894     0.04029636     0.76015134
c     0.63805106     0.95970364     0.23984865
c     0.35436950     0.29493015     0.31160992
c     0.64563048     0.70506985     0.68839008
c     0.35436951     0.20506985     0.81160992
c     0.64563049     0.79493015     0.18839007
c     0.42233317     0.36280711     0.24587114
c     0.57766681     0.63719289     0.75412886
c     0.42233317     0.13719289     0.74587114
c     0.57766682     0.86280711     0.25412885
h     0.95900949     0.23260502     0.59702677
h     0.04099049     0.76739498     0.40297322
h     0.95900949     0.26739498     0.09702678
h     0.04099050     0.73260502     0.90297321
h     0.41612122     0.51387187     0.20912536
h     0.58387876     0.48612812     0.79087463
h     0.41612122     0.98612812     0.70912536
h     0.58387877     0.01387187     0.29087463
h     0.40667340     0.22015715     0.29987370
h     0.59332658     0.77984285     0.70012629
h     0.40667341     0.27984285     0.79987370
h     0.59332659     0.72015715     0.20012629
h     0.52765294     0.34015917     0.18366979
h     0.47234704     0.65984083     0.81633021
h     0.52765294     0.15984083     0.68366979
h     0.47234705     0.84015917     0.31633020

K_POINTS automatic
2 2 2 1 1 1

CELL_PARAMETERS cubic
    7.748285000000     0.000000000000     0.099193000000
    0.000000000000    26.428137000000     0.000000000000
   -5.991895000000     0.000000000000    25.323519000000
