## FHIaims input file generated by critic2.
lattice_vector 3.1167530444       5.3761745953       -0.0204149082     
lattice_vector -3.0998500348      5.3866022683       -0.0293056842     
lattice_vector -0.0087214532      0.0276468375       5.9428093147      
atom_frac  0.9174182151       0.1318558269       0.1950481747       H 
atom_frac  0.0036720979       0.9399164566       0.5283985024       H 
atom_frac  0.1094406339       0.0262413296       0.8617403186       H 
atom_frac  0.7129890623       0.0583421055       0.2606488191       H 
atom_frac  0.2814174406       0.7353674328       0.5940235567       H 
atom_frac  0.0361514584       0.3040245351       0.9273634977       H 
atom_frac  0.6547090098       0.4256693960       0.4314566444       H 
atom_frac  0.9722231916       0.6773392908       0.7647700069       H 
atom_frac  0.4034131358       0.9946861266       0.0981690221       H 
atom_frac  0.5730319836       0.7893306044       0.2802423815       H 
atom_frac  0.6903021839       0.5953789159       0.6135598521       H 
atom_frac  0.7670120471       0.7127292233       0.9468918826       H 
atom_frac  0.1090076922       0.1319086937       0.9892341236       O 
atom_frac  0.8121994596       0.1313119505       0.3225214400       O 
atom_frac  0.1093262959       0.8347336316       0.6559110740       O 
atom_frac  0.5780067254       0.5990632106       0.4909295497       O 
atom_frac  0.8755525808       0.6005326416       0.8242228997       O 
atom_frac  0.5768267860       0.8978786282       0.1576082544       O 
