&control
 title='crystal',
 prefix='crystal',
 pseudo_dir='.',
 calculation='vc-relax',
/
&system
 ibrav=0,
 celldm(1)=1.0,
 nat=    72,
 ntyp=  5,
 ecutwfc=60.0,
 ecutrho=600.0,
 xdm=.true.,
 xdm_a1=0.4073,
 xdm_a2=2.4150,
/
&electrons
 conv_thr = 1d-8,
/
&ions
/
&cell
/
ATOMIC_SPECIES
h      1.007940 h.UPF
c     12.010700 c.UPF
n     14.006700 n.UPF
o     15.999400 o.UPF
cl    35.453000 cl.UPF

ATOMIC_POSITIONS crystal
cl    0.88324180     0.72922421     0.97189318
cl    0.11675820     0.22922422     0.02810682
cl    0.25634745     0.86317320     0.24859352
cl    0.74365255     0.36317321     0.75140648
o     0.52669388     0.61906006     0.10016702
o     0.47330612     0.11906007     0.89983298
o     0.84949641     0.14203967     0.11392132
o     0.15050360     0.64203969     0.88607869
o     0.92700363     0.70322616     0.27581584
o     0.07299637     0.20322617     0.72418416
o     0.05734399     0.09130135     0.32940896
o     0.94265601     0.59130136     0.67059105
n     0.71863711     0.52398766     0.18701026
n     0.28136289     0.02398767     0.81298975
n     0.65262816     0.29582484     0.04722889
n     0.34737184     0.79582485     0.95277111
c     0.83503521     0.83786101     0.31499515
c     0.16496479     0.33786102     0.68500485
c     0.85449397     0.74605867     0.41392028
c     0.14550603     0.24605868     0.58607972
c     0.74582775     0.55269148     0.41658373
c     0.25417225     0.05269149     0.58341628
c     0.72082427     0.40473294     0.48997740
c     0.27917573     0.90473296     0.51002260
c     0.61473354     0.23121763     0.47760442
c     0.38526646     0.73121765     0.52239559
c     0.53305019     0.21116630     0.39344386
c     0.46694981     0.71116631     0.60655615
c     0.55672783     0.36401395     0.32030758
c     0.44327217     0.86401397     0.67969242
c     0.66427165     0.53168651     0.33273026
c     0.33572836     0.03168653     0.66726974
c     0.70840834     0.70960205     0.26300568
c     0.29159166     0.20960206     0.73699432
c     0.62806500     0.49054299     0.11318940
c     0.37193500     0.99054301     0.88681061
c     0.75887545     0.13753335     0.05041955
c     0.24112455     0.63753336     0.94958045
c     0.75211767     0.95987458     0.96458409
c     0.24788233     0.45987460     0.03541591
c     0.03102280     0.86237056     0.28418545
c     0.96897720     0.36237057     0.71581455
c     0.10546053     0.71146944     0.22727033
c     0.89453947     0.21146945     0.77272967
h     0.79850680     0.41251914     0.18736852
h     0.20149321     0.91251916     0.81263148
h     0.57848499     0.24909716     0.99395340
h     0.42151501     0.74909717     0.00604661
h     0.83950135     0.08464503     0.30736594
h     0.16049866     0.58464504     0.69263406
h     0.85986926     0.94930552     0.45613880
h     0.14013074     0.44930553     0.54386120
h     0.94082556     0.62203995     0.43706577
h     0.05917445     0.12203996     0.56293423
h     0.78269608     0.42675723     0.55586779
h     0.21730392     0.92675724     0.44413221
h     0.59460497     0.11148490     0.53397747
h     0.40539503     0.61148491     0.46602254
h     0.45013543     0.07764837     0.38546741
h     0.54986457     0.57764838     0.61453259
h     0.49227559     0.35441547     0.25501458
h     0.50772441     0.85441548     0.74498543
h     0.64618595     0.89902222     0.23743540
h     0.35381405     0.39902224     0.76256460
h     0.67119633     0.81406795     0.94855691
h     0.32880367     0.31406796     0.05144310
h     0.74473324     0.12034396     0.90904375
h     0.25526677     0.62034397     0.09095626
h     0.05981472     0.75034891     0.15678859
h     0.94018528     0.25034892     0.84321142
h     0.11222830     0.46654512     0.24088972
h     0.88777170     0.96654513     0.75911029

K_POINTS automatic
2 2 2 1 1 1

CELL_PARAMETERS cubic
   21.403117000000     0.000000000000     0.154214000000
    0.000000000000     8.289113000000     0.000000000000
   -7.439646000000     0.000000000000    28.227006000000
