%nprocs=4
%mem=4GB
#p pbepbe aug-cc-pvtz output=wfx scf=(conver=6) int=(grid=ultrafine)

title

1 1
c 1.214711998600620 0.701314299379936 -0.138664617370001
c 1.214711998600620 -0.701314299379936 -0.138664617370001
c 0.000000000000000 -1.402628598759871 -0.138664617370001
c -1.214711998600620 -0.701314299379936 -0.138664617370001
c -1.214711998600620 0.701314299379936 -0.138664617370001
c 0.000000000000000 1.402628598759871 -0.138664617370001
h 2.151032975807233 1.241899467618068 -0.149220020000948
h 2.151032975807233 -1.241899467618068 -0.149220020000948
h 0.000000000000000 -2.483798935236135 -0.149220020000948
h -2.151032975807233 -1.241899467618068 -0.149220020000948
h -2.151032975807233 1.241899467618068 -0.149220020000948
h 0.000000000000000 2.483798935236135 -0.149220020000948
li 0.000000000000000 0.000000000000000 1.727307824225718

bz_li+.wfx

