%nprocs=4
%mem=4GB
#p pbepbe aug-cc-pvtz output=wfx scf=(conver=6) int=(grid=ultrafine)

title

0 1
k 0.000000000000000 0.000000000000000 2.012732940175638
k 0.000000000000000 0.000000000000000 -2.012732940175638

k2.wfx

