%nprocs=4
%mem=4GB
#p pbepbe aug-cc-pvtz output=wfx scf=(conver=6) int=(grid=ultrafine)

title

0 1
li 1.714835863097991 -1.714835863097991 1.714835863097991
li -1.714835863097991 1.714835863097991 1.714835863097991
li 1.714835863097991 1.714835863097991 -1.714835863097991
li -1.714835863097991 -1.714835863097991 -1.714835863097991
li 0.994345965524852 0.994345965524852 0.994345965524852
li -0.994345965524852 0.994345965524852 -0.994345965524852
li -0.994345965524852 -0.994345965524852 0.994345965524852
li 0.994345965524852 -0.994345965524852 -0.994345965524852

li8.wfx

