&control
 title='crystal',
 prefix='crystal',
 pseudo_dir='.',
 calculation='vc-relax',
/
&system
 ibrav=0,
 celldm(1)=1.0,
 nat=    84,
 ntyp=  4,
 ecutwfc=60.0,
 ecutrho=600.0,
 xdm=.true.,
 xdm_a1=0.4073,
 xdm_a2=2.4150,
/
&electrons
 conv_thr = 1d-8,
/
&ions
/
&cell
/
ATOMIC_SPECIES
h      1.007940 h.UPF
c     12.010700 c.UPF
o     15.999400 o.UPF
f     18.998403 f.UPF

ATOMIC_POSITIONS crystal
f     0.93027056     0.04018286     0.75784037
f     0.56976596     0.95987551     0.25798946
f     0.43014281     0.45996230     0.24230526
f     0.06990268     0.53999897     0.74232867
f     0.99888140     0.07974102     0.36025203
f     0.50116601     0.92025745     0.86044727
f     0.49887631     0.42038198     0.63980910
f     0.00118306     0.57959168     0.13981792
f     0.85031171     0.98175747     0.39465023
f     0.64970550     0.01825593     0.89465725
f     0.35034123     0.51843231     0.60564650
f     0.14968265     0.48152574     0.10572902
o     0.10253865     0.87587611     0.93079398
o     0.39746462     0.12417157     0.43066972
o     0.60275499     0.62424990     0.06941617
o     0.89724520     0.37571076     0.56955068
o     0.95347854     0.83243627     0.61488287
o     0.54650033     0.16760545     0.11469801
o     0.45347781     0.66763190     0.38513690
o     0.04651249     0.33233310     0.88531417
o     0.19718015     0.99021563     0.59166686
o     0.30283464     0.00980083     0.09164579
o     0.69711631     0.50967183     0.40815668
o     0.80291038     0.49031654     0.90818197
c     0.04682171     0.88213549     0.71312997
c     0.45317888     0.11789976     0.21299614
c     0.54693488     0.61795124     0.28695998
c     0.95306203     0.38201544     0.78709268
c     0.07828979     0.95071501     0.51377071
c     0.42173421     0.04929825     0.01374146
c     0.57833611     0.54932266     0.48620027
c     0.92168357     0.45065853     0.98626074
c     0.96255048     0.01307396     0.50731086
c     0.53747945     0.98694675     0.00740183
c     0.46252453     0.48706537     0.49278623
c     0.03751190     0.51290318     0.99282002
c     0.89889452     0.76804246     0.79567253
c     0.60108038     0.23199929     0.29548380
c     0.39875594     0.73198374     0.20427106
c     0.10122886     0.26798184     0.70446190
c     0.86273943     0.69684213     0.61611423
c     0.63725060     0.30319133     0.11586549
c     0.36239510     0.80319183     0.38371339
c     0.13758964     0.19677745     0.88395429
c     0.78085661     0.80458825     0.94447617
c     0.71912429     0.19544702     0.44430902
c     0.28078647     0.69536451     0.05554379
c     0.21919364     0.30460634     0.55573105
h     0.08536629     0.92442540     0.31099324
h     0.41467314     0.07555741     0.81090729
h     0.58551527     0.57559654     0.68898710
h     0.91451087     0.42440054     0.18908071
h     0.24521363     0.00748479     0.42625415
h     0.25481082     0.99252844     0.92625669
h     0.74519185     0.49238171     0.57350563
h     0.75483047     0.50760211     0.07351383
h     0.97923726     0.75154407     0.93555769
h     0.52075416     0.24850183     0.43533099
h     0.47903682     0.74850166     0.06437102
h     0.02094833     0.25146345     0.56457346
h     0.81201144     0.85335074     0.08153959
h     0.68794358     0.14668179     0.58137924
h     0.31205469     0.64659065     0.91856682
h     0.18790890     0.35338524     0.41875835
h     0.73174952     0.75637655     0.06095918
h     0.76823742     0.24365001     0.56079385
h     0.23156717     0.74353984     0.93897944
h     0.26841706     0.25643974     0.43917032
h     0.70775213     0.82904225     0.80127426
h     0.79221070     0.17098409     0.30113194
h     0.20776087     0.67090564     0.19880334
h     0.29221074     0.32907140     0.69898807
h     0.78414102     0.71428925     0.47347424
h     0.71579229     0.28573128     0.97317420
h     0.28378096     0.78574281     0.52622991
h     0.21616151     0.21423581     0.02654302
h     0.82588757     0.64636308     0.74020938
h     0.67413703     0.35366894     0.23990238
h     0.32549713     0.85364491     0.25947620
h     0.17451999     0.14632709     0.75977078
h     0.94964617     0.67516300     0.50313835
h     0.55031475     0.32487898     0.00294891
h     0.44921940     0.82490637     0.49682015
h     0.05074215     0.17505684     0.99697828

K_POINTS automatic
2 2 2 1 1 1

CELL_PARAMETERS cubic
   18.886135000000     0.003222000000    -0.000221000000
    0.005566000000    30.912347000000     0.000687000000
   -0.000106000000     0.000212000000     9.404245000000
