&control
 title='crystal',
 prefix='crystal',
 pseudo_dir='.',
 calculation='vc-relax',
/
&system
 ibrav=0,
 celldm(1)=1.0,
 nat=    64,
 ntyp=  3,
 ecutwfc=60.0,
 ecutrho=600.0,
 xdm=.true.,
 xdm_a1=0.4073,
 xdm_a2=2.4150,
/
&electrons
 conv_thr = 1d-8,
/
&ions
/
&cell
/
ATOMIC_SPECIES
h      1.007940 h.UPF
c     12.010700 c.UPF
o     15.999400 o.UPF

ATOMIC_POSITIONS crystal
h     0.25171485     0.27856515     0.35339128
h     0.74828514     0.72143486     0.64660873
h     0.25171487     0.72143486     0.85339128
h     0.74828513     0.27856515     0.14660873
h     0.75162035     0.22144464     0.64660066
h     0.24837964     0.77855538     0.35339936
h     0.75162037     0.77855538     0.14660066
h     0.24837963     0.22144464     0.85339936
o     0.24960612     0.08447364     0.33393519
o     0.75039387     0.91552638     0.66606483
o     0.24960614     0.91552638     0.83393519
o     0.75039386     0.08447364     0.16606483
o     0.74955763     0.41553214     0.66606587
o     0.25044236     0.58446787     0.33393414
o     0.74955765     0.58446787     0.16606588
o     0.25044235     0.41553214     0.83393414
h     0.24769080     0.14582255     0.09907539
h     0.75230919     0.85417746     0.90092462
h     0.24769082     0.85417746     0.59907540
h     0.75230918     0.14582255     0.40092462
h     0.74776522     0.35417717     0.90092699
h     0.25223477     0.64582284     0.09907302
h     0.74776524     0.64582284     0.40092700
h     0.25223476     0.35417717     0.59907302
h     0.25135494     0.42442718     0.19698797
h     0.74864505     0.57557284     0.80301205
h     0.25135495     0.57557284     0.69698797
h     0.74864505     0.42442718     0.30301205
h     0.75150567     0.07557636     0.80301953
h     0.24849432     0.92442366     0.19698049
h     0.75150569     0.92442366     0.30301953
h     0.24849431     0.07557636     0.69698049
h     0.24944301     0.37724430     0.03378268
h     0.75055698     0.62275572     0.96621733
h     0.24944303     0.62275572     0.53378269
h     0.75055697     0.37724430     0.46621733
h     0.74943831     0.12276105     0.96622229
h     0.25056168     0.87723897     0.03377772
h     0.74943833     0.87723897     0.46622230
h     0.25056167     0.12276105     0.53377772
c     0.25020022     0.19363553     0.29227030
c     0.74979978     0.80636449     0.70772971
c     0.25020023     0.80636449     0.79227031
c     0.74979977     0.19363553     0.20772971
c     0.75020016     0.30636898     0.70772825
c     0.24979983     0.69363103     0.29227176
c     0.75020018     0.69363103     0.20772826
c     0.24979982     0.30636898     0.79227176
c     0.24916581     0.22512121     0.16336154
c     0.75083418     0.77487881     0.83663848
c     0.24916582     0.77487881     0.66336154
c     0.75083418     0.22512121     0.33663848
c     0.74925397     0.27488063     0.83663846
c     0.25074603     0.72511939     0.16336155
c     0.74925398     0.72511939     0.33663847
c     0.25074602     0.27488063     0.66336155
c     0.25003109     0.34851185     0.12878204
c     0.74996890     0.65148816     0.87121797
c     0.25003111     0.65148816     0.62878205
c     0.74996889     0.34851185     0.37121797
c     0.75011464     0.15149175     0.87122271
c     0.24988536     0.84850827     0.12877731
c     0.75011465     0.84850827     0.37122271
c     0.24988535     0.15149175     0.62877731

K_POINTS automatic
2 2 2 1 1 1

CELL_PARAMETERS cubic
   12.083016000000     0.000000000000    -0.001326000000
    0.000000000000    19.720123000000     0.000000000000
   -0.002379000000     0.000000000000    20.872361000000
