&control
 title='crystal',
 prefix='crystal',
 pseudo_dir='.',
 calculation='vc-relax',
/
&system
 ibrav=0,
 celldm(1)=1.0,
 nat=    32,
 ntyp=  3,
 ecutwfc=60.0,
 ecutrho=600.0,
 xdm=.true.,
 xdm_a1=0.4073,
 xdm_a2=2.4150,
/
&electrons
 conv_thr = 1d-8,
/
&ions
/
&cell
/
ATOMIC_SPECIES
h      1.007940 h.UPF
c     12.010700 c.UPF
o     15.999400 o.UPF

ATOMIC_POSITIONS crystal
h     0.07533330     0.40850628     0.99486326
h     0.57533330     0.59149379     0.99486327
h     0.92466552     0.59149861     0.49486518
h     0.42466552     0.40850146     0.49486519
c     0.97212641     0.35367917     0.02731703
c     0.47212642     0.64632090     0.02731705
c     0.02787341     0.64632699     0.52731945
c     0.52787341     0.35367309     0.52731946
c     0.93943524     0.16231294     0.15924324
c     0.43943525     0.83768713     0.15924325
c     0.06056469     0.83769141     0.65924779
c     0.56056469     0.16230867     0.65924781
h     0.89540360     0.45497686     0.94567457
h     0.39540361     0.54502321     0.94567458
h     0.10459505     0.54503778     0.44567492
h     0.60459506     0.45496229     0.44567493
h     0.01473098     0.06195269     0.24306874
h     0.51473098     0.93804738     0.24306875
h     0.98526672     0.93804797     0.74306822
h     0.48526672     0.06195210     0.74306823
c     0.79971692     0.08262628     0.19264028
c     0.29971692     0.91737379     0.19264029
c     0.20028461     0.91739203     0.69264470
c     0.70028462     0.08260804     0.69264472
o     0.75931075     0.89790292     0.30598032
o     0.25931075     0.10209715     0.30598033
o     0.24069307     0.10210878     0.80598701
o     0.74069308     0.89789129     0.80598702
h     0.72794054     0.19894093     0.10432085
h     0.22794054     0.80105914     0.10432086
h     0.27205940     0.80108283     0.60432486
h     0.77205940     0.19891724     0.60432487

K_POINTS automatic
2 2 2 1 1 1

CELL_PARAMETERS cubic
   18.937115000000     0.000000000000    -0.000134000000
    0.000000000000     7.014769000000     0.000000000000
   -0.000077000000     0.000000000000    15.630258000000
