&control
 title='crystal',
 prefix='crystal',
 pseudo_dir='.',
 calculation='vc-relax',
/
&system
 ibrav=0,
 celldm(1)=1.0,
 nat=    64,
 ntyp=  3,
 ecutwfc=60.0,
 ecutrho=600.0,
 xdm=.true.,
 xdm_a1=0.4073,
 xdm_a2=2.4150,
/
&electrons
 conv_thr = 1d-8,
/
&ions
/
&cell
/
ATOMIC_SPECIES
h      1.007940 h.UPF
c     12.010700 c.UPF
o     15.999400 o.UPF

ATOMIC_POSITIONS crystal
c     0.78545072     0.00699056     0.87934779
c     0.21454929     0.99300947     0.12065222
c     0.28545072     0.00699056     0.62065223
c     0.78545072     0.49300945     0.37934779
c     0.28545072     0.49300945     0.12065222
c     0.71454929     0.50699058     0.87934779
c     0.21454929     0.50699058     0.62065223
c     0.71454929     0.99300947     0.37934779
c     0.82390039     0.13572099     0.92113406
c     0.17609961     0.86427904     0.07886595
c     0.32390039     0.13572099     0.57886596
c     0.82390039     0.36427902     0.42113406
c     0.32390039     0.36427902     0.07886595
c     0.67609961     0.63572100     0.92113406
c     0.17609961     0.63572100     0.57886596
c     0.67609961     0.86427904     0.42113406
c     0.96055230     0.18593716     0.85863257
c     0.03944770     0.81406287     0.14136744
c     0.46055230     0.18593716     0.64136745
c     0.96055230     0.31406285     0.35863257
c     0.46055230     0.31406285     0.14136744
c     0.53944770     0.68593718     0.85863257
c     0.03944770     0.68593718     0.64136745
c     0.53944770     0.81406287     0.35863257
o     0.00424194     0.30211728     0.89072239
o     0.99575806     0.69788275     0.10927762
o     0.50424194     0.30211728     0.60927763
o     0.00424194     0.19788273     0.39072239
o     0.50424194     0.19788273     0.10927762
o     0.49575806     0.80211729     0.89072239
o     0.99575806     0.80211729     0.60927763
o     0.49575806     0.69788275     0.39072239
h     0.68409147     0.96597006     0.92316944
h     0.31590853     0.03402997     0.07683056
h     0.18409147     0.96597006     0.57683057
h     0.68409147     0.53402996     0.42316944
h     0.18409147     0.53402996     0.07683056
h     0.81590853     0.46597007     0.92316944
h     0.31590853     0.46597007     0.57683057
h     0.81590853     0.03402997     0.42316944
h     0.85536489     0.93879210     0.79827717
h     0.14463511     0.06120793     0.20172284
h     0.35536489     0.93879210     0.70172285
h     0.85536489     0.56120791     0.29827717
h     0.35536489     0.56120791     0.20172284
h     0.64463511     0.43879211     0.79827717
h     0.14463511     0.43879211     0.70172285
h     0.64463511     0.06120793     0.29827717
h     0.75516674     0.20499607     0.00167912
h     0.24483326     0.79500396     0.99832089
h     0.25516674     0.20499607     0.49832090
h     0.75516674     0.29500394     0.50167912
h     0.25516674     0.29500394     0.99832089
h     0.74483326     0.70499609     0.00167912
h     0.24483326     0.70499609     0.49832090
h     0.74483326     0.79500396     0.50167912
h     0.02605140     0.11099576     0.77712583
h     0.97394861     0.88900426     0.22287418
h     0.52605140     0.11099576     0.72287419
h     0.02605140     0.38900425     0.27712583
h     0.52605140     0.38900425     0.22287418
h     0.47394861     0.61099578     0.77712583
h     0.97394861     0.61099578     0.72287419
h     0.47394861     0.88900426     0.27712583

K_POINTS automatic
2 2 2 1 1 1

CELL_PARAMETERS cubic
   18.052030000000     0.000000000000     0.000000000000
    0.000000000000    18.500418000000     0.000000000000
    0.000000000000     0.000000000000    12.796647000000
