&control
 title='crystal',
 prefix='crystal',
 pseudo_dir='.',
 calculation='vc-relax',
/
&system
 ibrav=0,
 celldm(1)=1.0,
 nat=    32,
 ntyp=  3,
 ecutwfc=60.0,
 ecutrho=600.0,
 xdm=.true.,
 xdm_a1=0.4073,
 xdm_a2=2.4150,
/
&electrons
 conv_thr = 1d-8,
/
&ions
/
&cell
/
ATOMIC_SPECIES
h      1.007940 h.UPF
c     12.010700 c.UPF
o     15.999400 o.UPF

ATOMIC_POSITIONS crystal
c     0.78500642     0.05034908     0.71226153
c     0.21499343     0.94965094     0.28773846
c     0.71497765     0.55035749     0.78773614
c     0.28502221     0.44964254     0.21226386
c     0.65139272     0.12073173     0.82090251
c     0.34860713     0.87926829     0.17909748
c     0.84859455     0.62073150     0.67910955
c     0.15140531     0.37926852     0.32089044
c     0.57071077     0.22931217     0.74609785
c     0.42928909     0.77068785     0.25390214
c     0.92929750     0.72930901     0.75389739
c     0.07070235     0.27069101     0.24610260
h     0.84817806     0.96780568     0.75646600
h     0.15182180     0.03219434     0.24353399
h     0.65181697     0.46780296     0.74353297
h     0.34818289     0.53219706     0.25646702
h     0.83419184     0.07544322     0.57133636
h     0.16580801     0.92455680     0.42866363
h     0.66582327     0.57544314     0.92865668
h     0.33417659     0.42455688     0.07134332
h     0.59764552     0.10073864     0.96333433
h     0.40235434     0.89926138     0.03666566
h     0.90235501     0.60072851     0.53666613
h     0.09764485     0.39927151     0.46333386
h     0.64955715     0.24642802     0.60608706
h     0.35044271     0.75357201     0.39391293
h     0.85044249     0.74642665     0.89392581
h     0.14955736     0.25357337     0.10607418
o     0.42741403     0.29821662     0.82696508
o     0.57258582     0.70178340     0.17303491
o     0.07258670     0.79821486     0.67303298
o     0.92741316     0.20178516     0.32696701

K_POINTS automatic
2 2 2 1 1 1

CELL_PARAMETERS cubic
    7.128804000000    -0.000019000000    -0.115051000000
    0.000165000000    23.698011000000     0.000269000000
   -3.230930000000     0.000233000000    12.734905000000
