&control
 title='crystal',
 prefix='crystal',
 pseudo_dir='.',
 calculation='vc-relax',
/
&system
 ibrav=0,
 celldm(1)=1.0,
 nat=    64,
 ntyp=  3,
 ecutwfc=60.0,
 ecutrho=600.0,
 xdm=.true.,
 xdm_a1=0.4073,
 xdm_a2=2.4150,
/
&electrons
 conv_thr = 1d-8,
/
&ions
/
&cell
/
ATOMIC_SPECIES
h      1.007940 h.UPF
c     12.010700 c.UPF
o     15.999400 o.UPF

ATOMIC_POSITIONS crystal
c     0.47813304     0.79364016     0.87854621
c     0.52186699     0.20635985     0.12145380
c     0.97813305     0.79364016     0.62145380
c     0.47813304     0.70635985     0.37854620
c     0.97813305     0.70635985     0.12145380
c     0.02186698     0.29364015     0.87854621
c     0.52186699     0.29364015     0.62145380
c     0.02186698     0.20635985     0.37854620
h     0.29873846     0.60000139     0.79123133
h     0.70126157     0.39999862     0.20876868
h     0.79873848     0.60000139     0.70876868
h     0.29873846     0.89999862     0.29123132
h     0.79873848     0.89999862     0.20876868
h     0.20126155     0.10000138     0.79123133
h     0.70126157     0.10000138     0.70876868
h     0.20126155     0.39999862     0.29123132
o     0.45741454     0.78136663     0.70492495
o     0.54258549     0.21863338     0.29507506
o     0.95741456     0.78136663     0.79507506
o     0.45741454     0.71863338     0.20492494
o     0.95741456     0.71863338     0.29507506
o     0.04258547     0.28136662     0.70492495
o     0.54258549     0.28136662     0.79507506
o     0.04258547     0.21863338     0.20492494
c     0.40622490     0.71972734     0.78515482
c     0.59377513     0.28027267     0.21484518
c     0.90622491     0.71972734     0.71484518
c     0.40622490     0.78027267     0.28515482
c     0.90622491     0.78027267     0.21484518
c     0.09377512     0.21972733     0.78515482
c     0.59377513     0.21972733     0.71484518
c     0.09377512     0.28027267     0.28515482
h     0.58471101     0.91103035     0.87676805
h     0.41528902     0.08896966     0.12323195
h     0.08471103     0.91103035     0.62323195
h     0.58471101     0.58896966     0.37676805
h     0.08471103     0.58896966     0.12323195
h     0.91528900     0.41103034     0.87676805
h     0.41528902     0.41103034     0.62323195
h     0.91528900     0.08896966     0.37676805
c     0.41128134     0.71537856     0.96176057
c     0.58871869     0.28462145     0.03823944
c     0.91128136     0.71537856     0.53823944
c     0.41128134     0.78462145     0.46176057
c     0.91128136     0.78462145     0.03823944
c     0.08871867     0.21537855     0.96176057
c     0.58871869     0.21537855     0.53823944
c     0.08871867     0.28462145     0.46176057
h     0.45661033     0.76159897     0.03421518
h     0.54338970     0.23840104     0.96578483
h     0.95661035     0.76159897     0.46578483
h     0.45661033     0.73840104     0.53421518
h     0.95661035     0.73840104     0.96578483
h     0.04338968     0.26159896     0.03421518
h     0.54338970     0.26159896     0.46578483
h     0.04338968     0.23840104     0.53421518
h     0.30540307     0.59723990     0.95863502
h     0.69459696     0.40276011     0.04136499
h     0.80540309     0.59723990     0.54136499
h     0.30540307     0.90276011     0.45863502
h     0.80540309     0.90276011     0.04136499
h     0.19459694     0.09723989     0.95863502
h     0.69459696     0.09723989     0.54136499
h     0.19459694     0.40276011     0.45863502

K_POINTS automatic
2 2 2 1 1 1

CELL_PARAMETERS cubic
   13.315497000000     0.000000000000     0.000000000000
    0.000000000000    12.703160000000     0.000000000000
    0.000000000000     0.000000000000    25.890896000000
