&control
 title='crystal',
 prefix='crystal',
 pseudo_dir='.',
 calculation='vc-relax',
/
&system
 ibrav=0,
 celldm(1)=1.0,
 nat=    64,
 ntyp=  3,
 ecutwfc=60.0,
 ecutrho=600.0,
 xdm=.true.,
 xdm_a1=0.4073,
 xdm_a2=2.4150,
/
&electrons
 conv_thr = 1d-8,
/
&ions
/
&cell
/
ATOMIC_SPECIES
h      1.007940 h.UPF
c     12.010700 c.UPF
o     15.999400 o.UPF

ATOMIC_POSITIONS crystal
c     0.87867657     0.21484261     0.49288497
c     0.12132342     0.78515739     0.50711501
c     0.37867658     0.21484261     0.00711502
c     0.87867657     0.28515739     0.99288496
c     0.37867658     0.28515739     0.50711501
c     0.62132342     0.71484262     0.49288497
c     0.12132342     0.71484262     0.00711502
c     0.62132342     0.78515739     0.99288496
c     0.91954858     0.17676257     0.36431561
c     0.08045141     0.82323744     0.63568437
c     0.41954859     0.17676257     0.13568438
c     0.91954858     0.32323744     0.86431560
c     0.41954859     0.32323744     0.63568437
c     0.58045141     0.67676258     0.36431561
c     0.08045141     0.67676258     0.13568438
c     0.58045141     0.82323744     0.86431560
c     0.85778734     0.03963737     0.31430688
c     0.14221265     0.96036264     0.68569311
c     0.35778735     0.03963737     0.18569311
c     0.85778734     0.46036264     0.81430687
c     0.35778735     0.46036264     0.68569311
c     0.64221265     0.53963737     0.31430688
c     0.14221265     0.53963737     0.18569311
c     0.64221265     0.96036264     0.81430687
o     0.88961202     0.99605299     0.19841259
o     0.11038798     0.00394702     0.80158740
o     0.38961202     0.99605299     0.30158740
o     0.88961202     0.50394702     0.69841258
o     0.38961202     0.50394702     0.80158740
o     0.61038797     0.49605299     0.19841259
o     0.11038798     0.49605299     0.30158740
o     0.61038797     0.00394702     0.69841258
h     0.77727694     0.97354192     0.38915009
h     0.22272305     0.02645809     0.61084990
h     0.27727695     0.97354192     0.11084990
h     0.77727694     0.52645809     0.88915008
h     0.27727695     0.52645809     0.61084990
h     0.72272304     0.47354192     0.38915009
h     0.22272305     0.47354192     0.11084990
h     0.72272304     0.02645809     0.88915008
h     0.79874191     0.14433258     0.56105070
h     0.20125808     0.85566743     0.43894928
h     0.29874192     0.14433258     0.93894929
h     0.79874191     0.35566743     0.06105069
h     0.29874192     0.35566743     0.43894928
h     0.70125807     0.64433258     0.56105070
h     0.20125808     0.64433258     0.93894929
h     0.70125807     0.85566743     0.06105069
h     0.92212987     0.31644448     0.53388887
h     0.07787012     0.68355552     0.46611112
h     0.42212988     0.31644448     0.96611112
h     0.92212987     0.18355552     0.03388886
h     0.42212988     0.18355552     0.46611112
h     0.57787011     0.81644449     0.53388887
h     0.07787012     0.81644449     0.96611112
h     0.57787011     0.68355552     0.03388886
h     0.99906516     0.24606867     0.29510084
h     0.00093483     0.75393134     0.70489914
h     0.49906517     0.24606867     0.20489915
h     0.99906516     0.25393134     0.79510083
h     0.49906517     0.25393134     0.70489914
h     0.50093482     0.74606868     0.29510084
h     0.00093483     0.74606868     0.20489915
h     0.50093482     0.75393134     0.79510083

K_POINTS automatic
2 2 2 1 1 1

CELL_PARAMETERS cubic
   12.793550000000     0.000000000000     0.000000000000
    0.000000000000    18.014703000000     0.000000000000
    0.000000000000     0.000000000000    18.562408000000
