&control
 title='crystal',
 prefix='crystal',
 pseudo_dir='.',
 calculation='vc-relax',
/
&system
 ibrav=0,
 celldm(1)=1.0,
 nat=    32,
 ntyp=  3,
 ecutwfc=60.0,
 ecutrho=600.0,
 xdm=.true.,
 xdm_a1=0.4073,
 xdm_a2=2.4150,
/
&electrons
 conv_thr = 1d-8,
/
&ions
/
&cell
/
ATOMIC_SPECIES
h      1.007940 h.UPF
c     12.010700 c.UPF
o     15.999400 o.UPF

ATOMIC_POSITIONS crystal
c     0.05706312     0.17786205     0.13239050
c     0.94293687     0.82213807     0.86760955
h     0.96992788     0.25167095     0.94513387
h     0.03007210     0.74832917     0.05486618
h     0.08889048     0.08386548     0.25396368
h     0.91110950     0.91613464     0.74603637
c     0.12431811     0.20507403     0.21843665
c     0.87568187     0.79492610     0.78156340
h     0.09429017     0.30363942     0.10724039
h     0.90570981     0.69636071     0.89275965
c     0.24248644     0.10987845     0.47220824
c     0.75751354     0.89012167     0.52779181
h     0.28869436     0.16490439     0.54397261
h     0.71130562     0.83509573     0.45602744
o     0.29025438     0.97937697     0.60279671
o     0.70974560     0.02062315     0.39720334
c     0.44294039     0.67786587     0.29002308
c     0.55705959     0.32213425     0.70997697
h     0.53006610     0.75166815     0.62554267
h     0.46993388     0.24833197     0.37445737
h     0.41111746     0.58386210     0.22064139
h     0.58888252     0.41613802     0.77935866
c     0.37567905     0.70508312     0.97252469
c     0.62432093     0.29491700     0.02747536
h     0.40569871     0.80362314     0.04144837
h     0.59430127     0.19637698     0.95855168
c     0.25751108     0.60986899     0.51726746
c     0.74248890     0.39013113     0.48273259
h     0.21130447     0.66488709     0.31177983
h     0.78869551     0.33511304     0.68822022
o     0.20975322     0.47942736     0.36135533
o     0.79024676     0.52057277     0.63864472

K_POINTS automatic
2 2 2 1 1 1

CELL_PARAMETERS cubic
   46.891859000000     0.385311000000    -0.439393000000
   13.516732000000    10.217673000000    -0.161323000000
  -11.828833000000    -5.088136000000     4.516117000000
