&control
 title='crystal',
 prefix='crystal',
 pseudo_dir='.',
 calculation='vc-relax',
/
&system
 ibrav=0,
 celldm(1)=1.0,
 nat=    32,
 ntyp=  3,
 ecutwfc=60.0,
 ecutrho=600.0,
 xdm=.true.,
 xdm_a1=0.4073,
 xdm_a2=2.4150,
/
&electrons
 conv_thr = 1d-8,
/
&ions
/
&cell
/
ATOMIC_SPECIES
h      1.007940 h.UPF
c     12.010700 c.UPF
o     15.999400 o.UPF

ATOMIC_POSITIONS crystal
o     0.72771142     0.77827995     0.28156729
o     0.27228856     0.22172002     0.71843269
o     0.72771140     0.72172000     0.78156727
o     0.27228857     0.27827996     0.21843269
c     0.75157007     0.23662576     0.01245085
c     0.24842990     0.76337420     0.98754912
c     0.75157005     0.26337418     0.51245084
c     0.24842992     0.73662577     0.48754913
c     0.70369632     0.14742882     0.12653477
c     0.29630366     0.85257115     0.87346520
c     0.70369630     0.35257112     0.62653476
c     0.29630368     0.64742883     0.37346521
c     0.76791841     0.88555569     0.18172123
c     0.23208157     0.11444428     0.81827874
c     0.76791839     0.61444426     0.68172122
c     0.23208158     0.38555570     0.31827875
h     0.61460851     0.26041335     0.17837305
h     0.38539147     0.73958662     0.82162692
h     0.61460848     0.23958660     0.67837304
h     0.38539149     0.76041336     0.32162692
h     0.70669025     0.42811874     0.96411985
h     0.29330973     0.57188123     0.03588012
h     0.70669023     0.07188121     0.46411984
h     0.29330975     0.92811875     0.53588013
h     0.83413561     0.11280306     0.96033074
h     0.16586437     0.88719691     0.03966923
h     0.83413559     0.38719689     0.46033073
h     0.16586438     0.61280307     0.53966923
h     0.86050993     0.78199808     0.12506832
h     0.13949005     0.21800188     0.87493165
h     0.86050991     0.71800186     0.62506831
h     0.13949007     0.28199809     0.37493165

K_POINTS automatic
2 2 2 1 1 1

CELL_PARAMETERS cubic
   13.143908000000     0.000000000000     0.037270000000
    0.000000000000     9.706667000000     0.000000000000
   -6.353937000000     0.000000000000    17.203999000000
