&control
 title='crystal',
 prefix='crystal',
 pseudo_dir='.',
 calculation='vc-relax',
/
&system
 ibrav=0,
 celldm(1)=1.0,
 nat=    16,
 ntyp=  3,
 ecutwfc=60.0,
 ecutrho=600.0,
 xdm=.true.,
 xdm_a1=0.4073,
 xdm_a2=2.4150,
/
&electrons
 conv_thr = 1d-8,
/
&ions
/
&cell
/
ATOMIC_SPECIES
h      1.007940 h.UPF
c     12.010700 c.UPF
o     15.999400 o.UPF

ATOMIC_POSITIONS crystal
c     0.82616668     0.44932363     0.16357927
c     0.44929609     0.82614262     0.83642161
c     0.67059170     0.60442803     0.19597370
c     0.60487107     0.67103823     0.80402718
c     0.52747338     0.74821700     0.34587514
c     0.74798939     0.52724925     0.65412575
o     0.38283082     0.89263376     0.38092914
o     0.89263195     0.38283249     0.61907175
h     0.93337472     0.34161062     0.05259025
h     0.34208804     0.93385564     0.94741064
h     0.84915979     0.42726126     0.24813152
h     0.42630297     0.84820499     0.75186936
h     0.64332744     0.63076245     0.11365622
h     0.63213533     0.64470381     0.88634467
h     0.55749108     0.71898360     0.42796878
h     0.71797168     0.55648266     0.57203211

K_POINTS automatic
2 2 2 1 1 1

CELL_PARAMETERS cubic
    9.823325000000    -0.082549000000    -0.858563000000
   -7.123236000000     6.764917000000     0.858563000000
   12.513331000000    -5.056164000000    16.394322000000
