&control
 title='crystal',
 prefix='crystal',
 pseudo_dir='.',
 calculation='vc-relax',
/
&system
 ibrav=0,
 celldm(1)=1.0,
 nat=    64,
 ntyp=  3,
 ecutwfc=60.0,
 ecutrho=600.0,
 xdm=.true.,
 xdm_a1=0.4073,
 xdm_a2=2.4150,
/
&electrons
 conv_thr = 1d-8,
/
&ions
/
&cell
/
ATOMIC_SPECIES
h      1.007940 h.UPF
c     12.010700 c.UPF
o     15.999400 o.UPF

ATOMIC_POSITIONS crystal
o     0.52035990     0.41714446     0.27554685
o     0.47964014     0.58285554     0.72445313
o     0.02035990     0.41714446     0.22445314
o     0.97964015     0.58285554     0.77554685
o     0.02037160     0.08285838     0.72444276
o     0.97962845     0.91714163     0.27555723
o     0.52037159     0.08285837     0.77555723
o     0.47962846     0.91714163     0.22444275
c     0.39126488     0.31753810     0.06724451
c     0.60873516     0.68246191     0.93275547
c     0.89126488     0.31753809     0.43275548
c     0.10873517     0.68246191     0.56724451
c     0.89125432     0.18245664     0.93276223
c     0.10874572     0.81754336     0.06723775
c     0.39125431     0.18245664     0.56723776
c     0.60874574     0.81754336     0.43276222
c     0.27731210     0.35031904     0.97477810
c     0.72268794     0.64968096     0.02522188
c     0.77731209     0.35031904     0.52522189
c     0.22268795     0.64968096     0.47477810
c     0.77732262     0.14968429     0.02521334
c     0.22267743     0.85031572     0.97478664
c     0.27732261     0.14968428     0.47478665
c     0.72267744     0.85031572     0.52521334
c     0.42114253     0.43843008     0.18395258
c     0.57885751     0.56156993     0.81604740
c     0.92114253     0.43843007     0.31604741
c     0.07885752     0.56156993     0.68395257
c     0.92113051     0.06156699     0.81605747
c     0.07886954     0.93843302     0.18394251
c     0.42113050     0.06156698     0.68394251
c     0.57886955     0.93843302     0.31605747
h     0.46326770     0.20196766     0.05971495
h     0.53673234     0.79803235     0.94028503
h     0.96326770     0.20196765     0.44028504
h     0.03673235     0.79803235     0.55971494
h     0.96326954     0.29803546     0.94028539
h     0.03673050     0.70196454     0.05971460
h     0.46326954     0.29803546     0.55971460
h     0.53673051     0.70196454     0.44028538
h     0.20447280     0.46441954     0.98727755
h     0.79552724     0.53558047     0.01272243
h     0.70447280     0.46441953     0.51272244
h     0.29552725     0.53558047     0.48727755
h     0.70447126     0.03557867     0.01272239
h     0.29552878     0.96442134     0.98727759
h     0.20447125     0.03557866     0.48727760
h     0.79552880     0.96442134     0.51272238
h     0.25158953     0.26505548     0.88560694
h     0.74841051     0.73494452     0.11439305
h     0.75158952     0.26505548     0.61439305
h     0.24841052     0.73494452     0.38560693
h     0.75158876     0.23494587     0.11439476
h     0.24841128     0.76505413     0.88560522
h     0.25158875     0.23494587     0.38560522
h     0.74841129     0.76505413     0.61439476
h     0.34628467     0.55584553     0.18522344
h     0.65371538     0.44415448     0.81477654
h     0.84628466     0.55584552     0.31477655
h     0.15371539     0.44415448     0.68522343
h     0.84628568     0.94415591     0.81477632
h     0.15371437     0.05584410     0.18522366
h     0.34628567     0.94415590     0.68522367
h     0.65371438     0.05584410     0.31477632

K_POINTS automatic
2 2 2 1 1 1

CELL_PARAMETERS cubic
   16.403718000000     0.000014000000     0.000000000000
    0.000012000000    14.545857000000     0.000000000000
    0.000000000000     0.000000000000    17.757158000000
