&control
 title='crystal',
 prefix='crystal',
 pseudo_dir='.',
 calculation='vc-relax',
/
&system
 ibrav=0,
 celldm(1)=1.0,
 nat=    16,
 ntyp=  3,
 ecutwfc=60.0,
 ecutrho=600.0,
 xdm=.true.,
 xdm_a1=0.4073,
 xdm_a2=2.4150,
/
&electrons
 conv_thr = 1d-8,
/
&ions
/
&cell
/
ATOMIC_SPECIES
h      1.007940 h.UPF
c     12.010700 c.UPF
o     15.999400 o.UPF

ATOMIC_POSITIONS crystal
c     0.60192963     0.05964878     0.92668149
c     0.60194150     0.94035144     0.42669734
c     0.84890467     0.10901210     0.06031513
c     0.84891088     0.89098651     0.56032883
h     0.51694448     0.86605221     0.88797754
h     0.51695696     0.13395301     0.38799910
h     0.47318868     0.21726207     0.85120289
h     0.47319853     0.78273602     0.35121581
c     0.93877720     0.37562799     0.10407586
c     0.93878695     0.62437289     0.60408491
h     0.98343589     0.95777625     0.13939178
h     0.98344462     0.04221870     0.63940799
o     0.15566480     0.44549380     0.22437056
o     0.15567419     0.55450653     0.72437623
h     0.79251911     0.51945496     0.01783205
h     0.79252074     0.48054692     0.51783596

K_POINTS automatic
2 2 2 1 1 1

CELL_PARAMETERS cubic
    7.196292000000    -0.000005000000     0.067315000000
   -0.000005000000     9.830037000000    -0.000046000000
   -2.288881000000    -0.000065000000    14.922827000000
