&control
 title='crystal',
 prefix='crystal',
 pseudo_dir='.',
 calculation='vc-relax',
/
&system
 ibrav=0,
 celldm(1)=1.0,
 nat=    64,
 ntyp=  3,
 ecutwfc=60.0,
 ecutrho=600.0,
 xdm=.true.,
 xdm_a1=0.4073,
 xdm_a2=2.4150,
/
&electrons
 conv_thr = 1d-8,
/
&ions
/
&cell
/
ATOMIC_SPECIES
h      1.007940 h.UPF
c     12.010700 c.UPF
o     15.999400 o.UPF

ATOMIC_POSITIONS crystal
c     0.12036266     0.71433148     0.00731584
c     0.87963738     0.28566855     0.99268417
c     0.62036268     0.71433148     0.49268417
c     0.12036266     0.78566856     0.50731585
c     0.62036268     0.78566856     0.99268417
c     0.37963736     0.21433147     0.00731584
c     0.87963738     0.21433147     0.49268417
c     0.37963736     0.28566855     0.50731585
c     0.07886345     0.67571653     0.13594725
c     0.92113658     0.32428350     0.86405276
c     0.57886347     0.67571653     0.36405276
c     0.07886345     0.82428351     0.63594726
c     0.57886347     0.82428351     0.86405276
c     0.42113657     0.17571651     0.13594725
c     0.92113658     0.17571651     0.36405276
c     0.42113657     0.32428350     0.63594726
c     0.14165386     0.53904551     0.18604310
c     0.85834618     0.46095452     0.81395691
c     0.64165388     0.53904551     0.31395691
c     0.14165386     0.96095453     0.68604311
c     0.64165388     0.96095453     0.81395691
c     0.35834616     0.03904550     0.18604310
c     0.85834618     0.03904550     0.31395691
c     0.35834616     0.46095452     0.68604311
h     0.07644373     0.81577687     0.96648702
h     0.92355631     0.18422315     0.03351300
h     0.57644374     0.81577687     0.53351299
h     0.07644373     0.68422317     0.46648703
h     0.57644374     0.68422317     0.03351300
h     0.42355630     0.31577686     0.96648702
h     0.92355631     0.31577686     0.53351299
h     0.42355630     0.18422315     0.46648703
h     0.20124269     0.64446044     0.93898394
h     0.79875735     0.35553958     0.06101608
h     0.70124271     0.64446044     0.56101607
h     0.20124269     0.85553959     0.43898395
h     0.70124271     0.85553959     0.06101608
h     0.29875733     0.14446043     0.93898394
h     0.79875735     0.14446043     0.56101607
h     0.29875733     0.35553958     0.43898395
h     0.99821925     0.74431500     0.20528500
h     0.00178079     0.25568502     0.79471502
h     0.49821926     0.74431500     0.29471501
h     0.99821925     0.75568504     0.70528501
h     0.49821926     0.75568504     0.79471502
h     0.50178078     0.24431499     0.20528500
h     0.00178079     0.24431499     0.29471501
h     0.50178078     0.25568502     0.70528501
h     0.22334464     0.47356515     0.11119830
h     0.77665540     0.52643488     0.88880172
h     0.72334466     0.47356515     0.38880171
h     0.22334464     0.02643489     0.61119831
h     0.72334466     0.02643489     0.88880172
h     0.27665538     0.97356513     0.11119830
h     0.77665540     0.97356513     0.38880171
h     0.27665538     0.52643488     0.61119831
o     0.10963256     0.49533618     0.30214209
o     0.89036748     0.50466384     0.69785793
o     0.60963257     0.49533618     0.19785792
o     0.10963256     0.00466385     0.80214210
o     0.60963257     0.00466385     0.69785793
o     0.39036747     0.99533617     0.30214209
o     0.89036748     0.99533617     0.19785792
o     0.39036747     0.50466384     0.80214210

K_POINTS automatic
2 2 2 1 1 1

CELL_PARAMETERS cubic
   12.789242000000     0.000000000000     0.000000000000
    0.000000000000    18.046466000000     0.000000000000
    0.000000000000     0.000000000000    18.515348000000
