&control
 title='crystal',
 prefix='crystal',
 pseudo_dir='.',
 calculation='vc-relax',
/
&system
 ibrav=0,
 celldm(1)=1.0,
 nat=    16,
 ntyp=  3,
 ecutwfc=60.0,
 ecutrho=600.0,
 xdm=.true.,
 xdm_a1=0.4073,
 xdm_a2=2.4150,
/
&electrons
 conv_thr = 1d-8,
/
&ions
/
&cell
/
ATOMIC_SPECIES
h      1.007940 h.UPF
c     12.010700 c.UPF
o     15.999400 o.UPF

ATOMIC_POSITIONS crystal
c     0.09899273     0.02660047     0.00031767
c     0.97342094     0.90101561     0.50030974
c     0.18426629     0.27409561     0.01623957
c     0.72587448     0.81573711     0.51624511
c     0.44449457     0.38304559     0.98754634
c     0.61694998     0.55550066     0.48754744
o     0.54369945     0.60700961     0.99666177
o     0.39299568     0.45630694     0.49665945
h     0.22534316     0.90868041     0.96906724
h     0.09131400     0.77466108     0.46907218
h     0.90790319     0.93097520     0.01948755
h     0.06902080     0.09209753     0.51948987
h     0.06925263     0.39805061     0.05141918
h     0.60194969     0.93074489     0.55141759
h     0.55349869     0.24537202     0.95494924
h     0.75462691     0.44650292     0.45494790

K_POINTS automatic
2 2 2 1 1 1

CELL_PARAMETERS cubic
    9.841841000000     0.164853000000     0.008912000000
   -1.431293000000     9.738575000000    -0.008876000000
   -5.542405000000     4.706935000000    11.147969000000
