&control
 title='crystal',
 prefix='crystal',
 pseudo_dir='.',
 calculation='vc-relax',
/
&system
 ibrav=0,
 celldm(1)=1.0,
 nat=    64,
 ntyp=  3,
 ecutwfc=60.0,
 ecutrho=600.0,
 xdm=.true.,
 xdm_a1=0.4073,
 xdm_a2=2.4150,
/
&electrons
 conv_thr = 1d-8,
/
&ions
/
&cell
/
ATOMIC_SPECIES
h      1.007940 h.UPF
c     12.010700 c.UPF
o     15.999400 o.UPF

ATOMIC_POSITIONS crystal
c     0.00619270     0.62249399     0.21348392
c     0.99380730     0.37750600     0.78651606
c     0.50619269     0.62249399     0.28651607
c     0.00619270     0.87750600     0.71348392
c     0.50619269     0.87750600     0.78651606
c     0.49380730     0.12249399     0.21348392
c     0.99380730     0.12249399     0.28651607
c     0.49380730     0.37750600     0.71348392
c     0.13449272     0.58064331     0.17711146
c     0.86550727     0.41935668     0.82288853
c     0.63449272     0.58064331     0.32288853
c     0.13449272     0.91935668     0.67711145
c     0.63449272     0.91935668     0.82288853
c     0.36550728     0.08064331     0.17711146
c     0.86550727     0.08064331     0.32288853
c     0.36550728     0.41935668     0.67711145
h     0.96401364     0.57990734     0.31482619
h     0.03598635     0.42009265     0.68517380
h     0.46401364     0.57990734     0.18517380
h     0.96401364     0.92009265     0.81482618
h     0.46401364     0.92009265     0.68517380
h     0.53598636     0.07990734     0.31482619
h     0.03598635     0.07990734     0.18517380
h     0.53598636     0.42009265     0.81482618
h     0.93939443     0.70241547     0.14172475
h     0.06060557     0.29758453     0.85827524
h     0.43939442     0.70241547     0.35827524
h     0.93939443     0.79758453     0.64172474
h     0.43939442     0.79758453     0.85827524
h     0.56060557     0.20241547     0.14172475
h     0.06060557     0.20241547     0.35827524
h     0.56060557     0.29758453     0.64172474
c     0.18580797     0.64129390     0.04015080
c     0.81419203     0.35870610     0.95984918
c     0.68580796     0.64129390     0.45984919
c     0.18580797     0.85870610     0.54015079
c     0.68580796     0.85870610     0.95984918
c     0.31419203     0.14129390     0.04015080
c     0.81419203     0.14129390     0.45984919
c     0.31419203     0.35870610     0.54015079
h     0.20244641     0.50117983     0.24761752
h     0.79755359     0.49882017     0.75238246
h     0.70244640     0.50117983     0.25238246
h     0.20244641     0.99882017     0.74761752
h     0.70244640     0.99882017     0.75238246
h     0.29755359     0.00117983     0.24761752
h     0.79755359     0.00117983     0.25238246
h     0.29755359     0.49882017     0.74761752
o     0.30145033     0.60835790     0.99775574
o     0.69854966     0.39164209     0.00224424
o     0.80145032     0.60835790     0.50224424
o     0.30145033     0.89164209     0.49775574
o     0.80145032     0.89164209     0.00224424
o     0.19854967     0.10835790     0.99775574
o     0.69854966     0.10835790     0.50224424
o     0.19854967     0.39164209     0.49775574
h     0.11220653     0.72203410     0.97298469
h     0.88779346     0.27796589     0.02701530
h     0.61220653     0.72203410     0.52701530
h     0.11220653     0.77796589     0.47298468
h     0.61220653     0.77796589     0.02701530
h     0.38779347     0.22203410     0.97298469
h     0.88779346     0.22203410     0.52701530
h     0.38779347     0.27796589     0.47298468

K_POINTS automatic
2 2 2 1 1 1

CELL_PARAMETERS cubic
   18.651062000000     0.000000000000     0.000000000000
    0.000000000000    12.772566000000     0.000000000000
    0.000000000000     0.000000000000    17.990952000000
