&control
 title='crystal',
 prefix='crystal',
 pseudo_dir='.',
 calculation='vc-relax',
/
&system
 ibrav=0,
 celldm(1)=1.0,
 nat=    32,
 ntyp=  3,
 ecutwfc=60.0,
 ecutrho=600.0,
 xdm=.true.,
 xdm_a1=0.4073,
 xdm_a2=2.4150,
/
&electrons
 conv_thr = 1d-8,
/
&ions
/
&cell
/
ATOMIC_SPECIES
h      1.007940 h.UPF
c     12.010700 c.UPF
o     15.999400 o.UPF

ATOMIC_POSITIONS crystal
c     0.05505410     0.03607108     0.86322479
c     0.94494590     0.96392899     0.13677531
h     0.96675525     0.96145556     0.69741326
h     0.03324475     0.03854451     0.30258683
h     0.07937408     0.22676616     0.18507405
h     0.92062592     0.77323391     0.81492605
c     0.13244169     0.89607926     0.67684093
c     0.86755831     0.10392081     0.32315917
h     0.10893459     0.70530619     0.35520634
h     0.89106541     0.29469388     0.64479376
c     0.25280172     0.98565046     0.88613195
c     0.74719827     0.01434961     0.11386815
h     0.30663636     0.84948175     0.69280262
h     0.69336364     0.15051832     0.30719748
o     0.29494630     0.19299758     0.24691759
o     0.70505369     0.80700250     0.75308250
c     0.44496314     0.46388826     0.18094173
c     0.55503686     0.53611181     0.81905837
h     0.53326855     0.53847192     0.34095585
h     0.46673145     0.46152815     0.65904425
h     0.42061648     0.27324614     0.07280697
h     0.57938352     0.72675393     0.92719313
c     0.36756643     0.60384305     0.11972355
c     0.63243357     0.39615702     0.88027654
h     0.39105025     0.79470488     0.22673061
h     0.60894975     0.20529519     0.77326949
c     0.24720121     0.51426950     0.90915237
c     0.75279878     0.48573057     0.09084772
h     0.19337732     0.65045276     0.88050318
h     0.80662268     0.34954731     0.11949692
o     0.20503544     0.30694712     0.77094902
o     0.79496456     0.69305296     0.22905108

K_POINTS automatic
2 2 2 1 1 1

CELL_PARAMETERS cubic
   25.798750000000     0.270018000000    -0.316018000000
    7.022305000000    13.298288000000     0.017026000000
   -6.610324000000    -9.684140000000     6.133630000000
