&control
 title='crystal',
 prefix='crystal',
 pseudo_dir='.',
 calculation='vc-relax',
/
&system
 ibrav=0,
 celldm(1)=1.0,
 nat=    16,
 ntyp=  3,
 ecutwfc=60.0,
 ecutrho=600.0,
 xdm=.true.,
 xdm_a1=0.4073,
 xdm_a2=2.4150,
/
&electrons
 conv_thr = 1d-8,
/
&ions
/
&cell
/
ATOMIC_SPECIES
h      1.007940 h.UPF
c     12.010700 c.UPF
o     15.999400 o.UPF

ATOMIC_POSITIONS crystal
o     0.97604626     0.54415623     0.12992437
o     0.02395367     0.04415621     0.87007560
c     0.73513166     0.53859653     0.75213192
c     0.26486827     0.03859651     0.24786805
c     0.50915554     0.44754092     0.60940612
c     0.49084439     0.94754090     0.39059385
c     0.77612096     0.47127808     0.98609308
c     0.22387897     0.97127807     0.01390689
h     0.89171554     0.66253754     0.70119479
h     0.10828439     0.16253752     0.29880518
h     0.35694031     0.32456616     0.66794077
h     0.64305962     0.82456615     0.33205920
h     0.46541893     0.49137623     0.43396942
h     0.53458100     0.99137621     0.56603055
h     0.60818825     0.34585844     0.02902000
h     0.39181168     0.84585843     0.97097997

K_POINTS automatic
2 2 2 1 1 1

CELL_PARAMETERS cubic
    7.404077000000     0.000000000000    -0.004575000000
    0.000000000000    12.763312000000     0.000000000000
   -0.587496000000     0.000000000000    11.192583000000
