&control
 title='crystal',
 prefix='crystal',
 pseudo_dir='.',
 calculation='vc-relax',
/
&system
 ibrav=0,
 celldm(1)=1.0,
 nat=    64,
 ntyp=  3,
 ecutwfc=60.0,
 ecutrho=600.0,
 xdm=.true.,
 xdm_a1=0.4073,
 xdm_a2=2.4150,
/
&electrons
 conv_thr = 1d-8,
/
&ions
/
&cell
/
ATOMIC_SPECIES
h      1.007940 h.UPF
c     12.010700 c.UPF
o     15.999400 o.UPF

ATOMIC_POSITIONS crystal
c     0.39831884     0.78167660     0.52209213
c     0.60168120     0.21832334     0.47790790
c     0.89832952     0.71834463     0.47790917
c     0.10167052     0.28165531     0.52209086
c     0.60168344     0.28166790     0.97790843
c     0.39831660     0.71833204     0.02209160
c     0.10167923     0.21833280     0.02208549
c     0.89832082     0.78166714     0.97791454
o     0.31236478     0.88438027     0.46033149
o     0.68763526     0.11561967     0.53966854
o     0.81236759     0.61564085     0.53966618
o     0.18763245     0.38435909     0.46033385
o     0.68764087     0.38437219     0.03967333
o     0.31235918     0.61562775     0.96032670
o     0.18763549     0.11562926     0.96031978
o     0.81236455     0.88437068     0.03968026
h     0.51616519     0.71466403     0.49218785
h     0.48383486     0.28533590     0.50781218
h     0.01617717     0.78535128     0.50781521
h     0.98382288     0.21464865     0.49218482
h     0.48384121     0.21464822     0.00780734
h     0.51615884     0.78535172     0.99219269
h     0.98383522     0.28535049     0.99218818
h     0.01616483     0.71464945     0.00781185
c     0.35872693     0.74039426     0.63817282
c     0.64127312     0.25960568     0.36182721
c     0.85874054     0.75962078     0.36182843
c     0.14125951     0.24037916     0.63817160
c     0.64126182     0.24039370     0.86182396
c     0.35873822     0.75960623     0.13817607
c     0.14126077     0.25960888     0.13817161
c     0.85873927     0.74039106     0.86182842
h     0.24193576     0.79847238     0.67028886
h     0.75806428     0.20152756     0.32971117
h     0.74196252     0.70151600     0.32970817
h     0.25803753     0.29848393     0.67029186
h     0.75803814     0.29849509     0.82970582
h     0.24196191     0.70150485     0.17029421
h     0.25803963     0.20151658     0.17028990
h     0.74196042     0.79848336     0.82971013
c     0.46526468     0.63911391     0.70233767
c     0.53473537     0.36088603     0.29766236
c     0.96527672     0.86089869     0.29766277
c     0.03472332     0.13910125     0.70233726
c     0.53472727     0.13911388     0.79765150
c     0.46527278     0.86088605     0.20234853
c     0.03472455     0.36088865     0.20234270
c     0.96527550     0.63911129     0.79765733
h     0.43789079     0.60864041     0.78938868
h     0.56210925     0.39135952     0.21061135
h     0.93789834     0.89136643     0.21061188
h     0.06210170     0.10863350     0.78938815
h     0.56210200     0.10864037     0.71059887
h     0.43789804     0.89135957     0.28940116
h     0.06209077     0.39136603     0.28939745
h     0.93790927     0.60863391     0.71060258
h     0.58219814     0.58579018     0.66785513
h     0.41780191     0.41420976     0.33214490
h     0.08221269     0.91421430     0.33214385
h     0.91778736     0.08578563     0.66785618
h     0.41779422     0.08579223     0.83213106
h     0.58220582     0.91420771     0.16786897
h     0.91779484     0.41421709     0.16786434
h     0.08220520     0.58578285     0.83213569

K_POINTS automatic
2 2 2 1 1 1

CELL_PARAMETERS cubic
   15.231186000000     0.000015000000    -0.000008000000
    0.000059000000    12.744657000000    -0.000401000000
    0.000010000000    -0.000484000000    22.745575000000
