&control
 title='crystal',
 prefix='crystal',
 pseudo_dir='.',
 calculation='vc-relax',
/
&system
 ibrav=0,
 celldm(1)=1.0,
 nat=    32,
 ntyp=  3,
 ecutwfc=60.0,
 ecutrho=600.0,
 xdm=.true.,
 xdm_a1=0.4073,
 xdm_a2=2.4150,
/
&electrons
 conv_thr = 1d-8,
/
&ions
/
&cell
/
ATOMIC_SPECIES
h      1.007940 h.UPF
c     12.010700 c.UPF
o     15.999400 o.UPF

ATOMIC_POSITIONS crystal
c     0.63158254     0.14513003     0.83565174
c     0.36841748     0.85487002     0.16434821
c     0.36842289     0.64512681     0.66434782
c     0.63157713     0.35487324     0.33565213
c     0.80464864     0.26404590     0.88516051
c     0.19535138     0.73595415     0.11483944
c     0.19536265     0.76404330     0.61484233
c     0.80463737     0.23595675     0.38515762
c     0.01662406     0.21698796     0.86606367
c     0.98337596     0.78301209     0.13393627
c     0.98338200     0.71698958     0.63393499
c     0.01661802     0.28301046     0.36606496
o     0.18352675     0.31744613     0.90728093
o     0.81647327     0.68255392     0.09271902
o     0.81648257     0.81744849     0.59271881
o     0.18351745     0.18255156     0.40728113
h     0.64683971     0.01401321     0.77805251
h     0.35316031     0.98598684     0.22194744
h     0.35316347     0.51400904     0.72194779
h     0.64683655     0.48599101     0.27805216
h     0.47233461     0.17648157     0.85046490
h     0.52766541     0.82351848     0.14953505
h     0.52767267     0.67647144     0.64953269
h     0.47232735     0.32352861     0.35046725
h     0.79429423     0.39712664     0.94134578
h     0.20570579     0.60287341     0.05865417
h     0.20571598     0.89712472     0.55865500
h     0.79428404     0.10287533     0.44134494
h     0.02043373     0.07982213     0.81000695
h     0.97956629     0.92017792     0.18999300
h     0.97957523     0.57982476     0.68999644
h     0.02042479     0.42017529     0.31000351

K_POINTS automatic
2 2 2 1 1 1

CELL_PARAMETERS cubic
   12.008023000000     0.000013000000    -0.726270000000
    0.000002000000    14.129125000000    -0.000029000000
   -5.043909000000     0.000031000000    13.166854000000
