&control
 title='crystal',
 prefix='crystal',
 pseudo_dir='.',
 calculation='vc-relax',
/
&system
 ibrav=0,
 celldm(1)=1.0,
 nat=     8,
 ntyp=  3,
 ecutwfc=60.0,
 ecutrho=600.0,
 xdm=.true.,
 xdm_a1=0.4073,
 xdm_a2=2.4150,
/
&electrons
 conv_thr = 1d-8,
/
&ions
/
&cell
/
ATOMIC_SPECIES
h      1.007940 h.UPF
c     12.010700 c.UPF
o     15.999400 o.UPF

ATOMIC_POSITIONS crystal
h     0.91121329     0.72716222     0.36904306
o     0.52306648     0.36243732     0.57306335
h     0.29493921     0.62591792     0.67429104
h     0.97084605     0.11666448     0.85075611
h     0.64707844     0.12247285     0.54610844
c     0.66511222     0.60081978     0.98916417
c     0.53928491     0.74250507     0.03348562
c     0.72681905     0.00787000     0.50135784

K_POINTS automatic
2 2 2 1 1 1

CELL_PARAMETERS cubic
    7.987649000000    -2.244828000000    -1.467397000000
   -3.005993000000    15.600555000000     1.566469000000
   -0.958901000000    -5.578570000000     4.548997000000
