&control
 title='crystal',
 prefix='crystal',
 pseudo_dir='.',
 calculation='vc-relax',
/
&system
 ibrav=0,
 celldm(1)=1.0,
 nat=    16,
 ntyp=  3,
 ecutwfc=60.0,
 ecutrho=600.0,
 xdm=.true.,
 xdm_a1=0.4073,
 xdm_a2=2.4150,
/
&electrons
 conv_thr = 1d-8,
/
&ions
/
&cell
/
ATOMIC_SPECIES
h      1.007940 h.UPF
c     12.010700 c.UPF
o     15.999400 o.UPF

ATOMIC_POSITIONS crystal
c     0.05813090     0.03040630     0.34251226
c     0.05814170     0.96959390     0.84250877
o     0.27710447     0.88849131     0.26138555
o     0.27710624     0.11151822     0.76138830
h     0.83693244     0.99505496     0.47908605
h     0.83694508     0.00494293     0.97908213
c     0.06605131     0.25396310     0.27293454
c     0.06605561     0.74604067     0.77292745
h     0.26842712     0.29492481     0.13523329
h     0.26843330     0.70507565     0.63523374
c     0.83490939     0.40162307     0.38045759
c     0.83489473     0.59837272     0.88046177
h     0.84331695     0.57123978     0.33659214
h     0.84332757     0.42875709     0.83659377
h     0.63606796     0.35338278     0.51710811
h     0.63606714     0.64661312     0.01710713

K_POINTS automatic
2 2 2 1 1 1

CELL_PARAMETERS cubic
    7.099890000000    -0.000054000000    -0.025559000000
   -0.000114000000    11.639603000000     0.000057000000
    3.636277000000    -0.000049000000    12.824992000000
