&control
 title='crystal',
 prefix='crystal',
 pseudo_dir='.',
 calculation='vc-relax',
/
&system
 ibrav=0,
 celldm(1)=1.0,
 nat=    32,
 ntyp=  3,
 ecutwfc=60.0,
 ecutrho=600.0,
 xdm=.true.,
 xdm_a1=0.4073,
 xdm_a2=2.4150,
/
&electrons
 conv_thr = 1d-8,
/
&ions
/
&cell
/
ATOMIC_SPECIES
h      1.007940 h.UPF
c     12.010700 c.UPF
o     15.999400 o.UPF

ATOMIC_POSITIONS crystal
c     0.74490490     0.46868698     0.28401271
c     0.25509509     0.53131309     0.71598728
c     0.74490447     0.03131315     0.78401245
c     0.25509552     0.96868691     0.21598753
h     0.86982149     0.31390323     0.06048692
h     0.13017850     0.68609685     0.93951306
h     0.86982106     0.18609691     0.56048667
h     0.13017893     0.81390316     0.43951331
o     0.08168274     0.45008532     0.24043047
o     0.91831725     0.54991475     0.75956951
o     0.08168230     0.04991481     0.74043022
o     0.91831769     0.95008526     0.25956977
c     0.91019793     0.40603522     0.18867920
c     0.08980206     0.59396485     0.81132078
c     0.91019749     0.09396491     0.68867895
c     0.08980250     0.90603515     0.31132104
h     0.77608356     0.56227145     0.40887490
h     0.22391643     0.43772863     0.59112508
h     0.77608312     0.93772869     0.90887465
h     0.22391687     0.06227138     0.09112533
c     0.56379708     0.40988650     0.21451966
c     0.43620291     0.59011357     0.78548033
c     0.56379665     0.09011363     0.71451941
c     0.43620334     0.90988643     0.28548058
h     0.43245355     0.45112523     0.27477821
h     0.56754644     0.54887484     0.72522178
h     0.43245311     0.04887490     0.77477795
h     0.56754688     0.95112516     0.22522203
h     0.54212161     0.31628672     0.08889020
h     0.45787838     0.68371335     0.91110979
h     0.54212118     0.18371342     0.58888995
h     0.45787881     0.81628665     0.41111004

K_POINTS automatic
2 2 2 1 1 1

CELL_PARAMETERS cubic
   13.024167000000     0.000001000000     0.151708000000
    0.000001000000    12.766374000000    -0.000003000000
   -1.914176000000    -0.000004000000    13.330162000000
