&control
 title='crystal',
 prefix='crystal',
 pseudo_dir='.',
 calculation='vc-relax',
/
&system
 ibrav=0,
 celldm(1)=1.0,
 nat=    64,
 ntyp=  3,
 ecutwfc=60.0,
 ecutrho=600.0,
 xdm=.true.,
 xdm_a1=0.4073,
 xdm_a2=2.4150,
/
&electrons
 conv_thr = 1d-8,
/
&ions
/
&cell
/
ATOMIC_SPECIES
h      1.007940 h.UPF
c     12.010700 c.UPF
o     15.999400 o.UPF

ATOMIC_POSITIONS crystal
c     0.02792737     0.17645808     0.23139465
c     0.02792641     0.67637235     0.23145077
c     0.97207133     0.82348683     0.73136907
c     0.97207038     0.32340111     0.73142520
c     0.47207208     0.67646931     0.73139899
c     0.47207113     0.17638358     0.73145511
c     0.52793309     0.32349203     0.23137258
c     0.52793213     0.82340631     0.23142870
h     0.92465470     0.20058058     0.26547230
h     0.92465374     0.70049485     0.26552843
h     0.07534863     0.79944162     0.76547617
h     0.07534768     0.29935590     0.76553230
h     0.57534311     0.70058079     0.76547288
h     0.57534215     0.20049507     0.76552901
h     0.42466271     0.29943897     0.26549741
h     0.42466175     0.79935325     0.26555354
h     0.10453024     0.23041139     0.31168638
h     0.10452929     0.73032566     0.31174251
h     0.89546730     0.76959868     0.81168655
h     0.89546635     0.26951296     0.81174268
h     0.39546682     0.73041846     0.81168047
h     0.39546587     0.23033274     0.81173660
h     0.60454240     0.26960737     0.31168791
h     0.60454145     0.76952165     0.31174403
c     0.06085371     0.08067000     0.09920333
c     0.06085275     0.58058428     0.09925945
c     0.93914503     0.91934978     0.59921760
c     0.93914407     0.41926405     0.59927373
c     0.43914429     0.58065637     0.59920920
c     0.43914333     0.08057065     0.59926532
c     0.56085501     0.41935749     0.09922361
c     0.56085406     0.91927177     0.09927973
h     0.98560153     0.02701481     0.01682555
h     0.98560057     0.52692908     0.01688167
h     0.01439380     0.97297393     0.51683237
h     0.01439284     0.47288821     0.51688850
h     0.51439456     0.52702377     0.51683030
h     0.51439360     0.02693805     0.51688643
h     0.48560681     0.47295667     0.01681766
h     0.48560585     0.97287095     0.01687379
c     0.20073947     0.04485806     0.06378190
c     0.20073851     0.54477234     0.06383802
c     0.79926190     0.95515175     0.56378747
c     0.79926095     0.45506603     0.56384360
c     0.29926098     0.54486415     0.56378884
c     0.29926003     0.04477843     0.56384497
c     0.70073721     0.45516970     0.06379965
c     0.70073625     0.95508398     0.06385577
h     0.27249730     0.10675018     0.15030364
h     0.27249635     0.60666446     0.15035976
h     0.72750578     0.89324064     0.65028893
h     0.72750483     0.39315492     0.65034506
h     0.22750132     0.60675121     0.65030215
h     0.22750036     0.10666549     0.65035828
h     0.77249617     0.39323821     0.15029440
h     0.77249521     0.89315249     0.15035053
o     0.24136771     0.95203032     0.95055008
o     0.24136676     0.45194460     0.95060621
o     0.75863177     0.04796775     0.45053583
o     0.75863081     0.54788203     0.45059195
o     0.25863099     0.45202246     0.45054547
o     0.25863004     0.95193674     0.45060160
o     0.74136307     0.54796602     0.95053860
o     0.74136211     0.04788029     0.95059472

K_POINTS automatic
2 2 2 1 1 1

CELL_PARAMETERS cubic
   18.951047000000    -0.000020000000    -0.000216000000
   -0.000008000000    14.083602000000    -0.000205000000
    0.000148000000     0.000119000000    15.552327000000
