&control
 title='crystal',
 prefix='crystal',
 pseudo_dir='.',
 calculation='vc-relax',
/
&system
 ibrav=0,
 celldm(1)=1.0,
 nat=    32,
 ntyp=  3,
 ecutwfc=60.0,
 ecutrho=600.0,
 xdm=.true.,
 xdm_a1=0.4073,
 xdm_a2=2.4150,
/
&electrons
 conv_thr = 1d-8,
/
&ions
/
&cell
/
ATOMIC_SPECIES
h      1.007940 h.UPF
c     12.010700 c.UPF
o     15.999400 o.UPF

ATOMIC_POSITIONS crystal
c     0.60923398     0.57261754     0.87256253
c     0.39076589     0.42738252     0.12743746
c     0.39074609     0.07260853     0.62744012
c     0.60925378     0.92739153     0.37255987
c     0.74022648     0.33171090     0.89868307
c     0.25977339     0.66828917     0.10131692
c     0.25978920     0.83171528     0.60131670
c     0.74021067     0.16828478     0.39868328
c     0.95831907     0.25888676     0.85991936
c     0.04168080     0.74111330     0.14008062
c     0.04171379     0.75894381     0.64009059
c     0.95828608     0.24105626     0.35990940
o     0.09767887     0.04771216     0.88022222
o     0.90232100     0.95228791     0.11977777
o     0.90228716     0.54765585     0.61977335
o     0.09771271     0.45234421     0.38022664
h     0.44772661     0.64307685     0.89941399
h     0.55227326     0.35692321     0.10058600
h     0.55228150     0.14308588     0.60058390
h     0.44771837     0.85691418     0.39941609
h     0.66694619     0.71063926     0.82360951
h     0.33305368     0.28936080     0.17639047
h     0.33305203     0.21064200     0.67638726
h     0.66694784     0.78935806     0.32361273
h     0.69666949     0.18799994     0.94929556
h     0.30333039     0.81200012     0.05070442
h     0.30333425     0.68799449     0.55070691
h     0.69666563     0.31200558     0.44929307
h     0.99205877     0.41202648     0.80781855
h     0.00794110     0.58797358     0.19218144
h     0.00794406     0.91202443     0.69217965
h     0.99205581     0.08797563     0.30782034

K_POINTS automatic
2 2 2 1 1 1

CELL_PARAMETERS cubic
    9.581405000000     0.000095000000    -0.244175000000
    0.000101000000     9.345135000000    -0.000070000000
  -10.028172000000    -0.000272000000    24.613999000000
