&control
 title='crystal',
 prefix='crystal',
 pseudo_dir='.',
 calculation='vc-relax',
/
&system
 ibrav=0,
 celldm(1)=1.0,
 nat=    50,
 ntyp=  2,
 ecutwfc=60.0,
 ecutrho=600.0,
 xdm=.true.,
 xdm_a1=0.4073,
 xdm_a2=2.4150,
/
&electrons
 conv_thr = 1d-8,
/
&ions
/
&cell
/
ATOMIC_SPECIES
h      1.007940 h.UPF
c     12.010700 c.UPF

ATOMIC_POSITIONS crystal
c     0.49999999     0.71971272     0.99999998
c     0.99999997     0.21972952     0.99999997
c     0.45756574     0.46726904     0.89705806
c     0.95756572     0.96728583     0.89705804
c     0.54243424     0.46726904     0.10294191
c     0.04243422     0.96728583     0.10294190
c     0.34298561     0.34372025     0.77019525
c     0.84298559     0.84373704     0.77019523
c     0.65701437     0.34372025     0.22980472
c     0.15701435     0.84373704     0.22980470
c     0.44961855     0.34226282     0.71087398
c     0.94961854     0.84227961     0.71087397
c     0.55038142     0.34226282     0.28912598
c     0.05038141     0.84227961     0.28912597
c     0.21056500     0.40663206     0.67541472
c     0.71056499     0.90664885     0.67541470
c     0.78943497     0.40663206     0.32458525
c     0.28943496     0.90664885     0.32458523
c     0.25433456     0.15555278     0.78831660
c     0.75433454     0.65556957     0.78831658
c     0.74566541     0.15555278     0.21168337
c     0.24566540     0.65556957     0.21168335
h     0.56504814     0.83265805     0.96359827
h     0.06504813     0.33267484     0.96359826
h     0.43495183     0.83265805     0.03640170
h     0.93495182     0.33267484     0.03640168
h     0.44506274     0.46618843     0.59024716
h     0.94506273     0.96620522     0.59024715
h     0.55493723     0.46618843     0.40975281
h     0.05493722     0.96620522     0.40975279
h     0.49812863     0.16137996     0.72167531
h     0.99812862     0.66139675     0.72167529
h     0.50187134     0.16137996     0.27832466
h     0.00187133     0.66139675     0.27832465
h     0.16548745     0.39560186     0.51665201
h     0.66548744     0.89561865     0.51665199
h     0.83451252     0.39560186     0.48334796
h     0.33451251     0.89561865     0.48334794
h     0.17451883     0.55514109     0.74090948
h     0.67451882     0.05515788     0.74090946
h     0.82548114     0.55514109     0.25909048
h     0.32548112     0.05515788     0.25909047
h     0.23768388     0.97762532     0.70475430
h     0.73768387     0.47764211     0.70475429
h     0.76231609     0.97762532     0.29524566
h     0.26231608     0.47764211     0.29524565
h     0.24703962     0.13861133     0.92892619
h     0.74703960     0.63862812     0.92892617
h     0.75296035     0.13861133     0.07107378
h     0.25296034     0.63862812     0.07107376

K_POINTS automatic
2 2 2 1 1 1

CELL_PARAMETERS cubic
   22.502474000000     0.000000000000     0.162808000000
    0.000000000000     9.820814000000     0.000000000000
   -5.711536000000     0.000000000000    12.875530000000
