&control
 title='crystal',
 prefix='crystal',
 pseudo_dir='.',
 calculation='vc-relax',
/
&system
 ibrav=0,
 celldm(1)=1.0,
 nat=   114,
 ntyp=  4,
 ecutwfc=60.0,
 ecutrho=600.0,
 xdm=.true.,
 xdm_a1=0.4073,
 xdm_a2=2.4150,
/
&electrons
 conv_thr = 1d-8,
/
&ions
/
&cell
/
ATOMIC_SPECIES
h      1.007940 h.UPF
c     12.010700 c.UPF
n     14.006700 n.UPF
o     15.999400 o.UPF

ATOMIC_POSITIONS crystal
o     0.41870819     0.50359209     0.60419052
o     0.91870819     0.99640788     0.39580948
o     0.08129182     0.00359210     0.39580948
o     0.58129182     0.49640789     0.60419052
h     0.43755974     0.37369100     0.66912765
h     0.93755974     0.12630897     0.33087235
h     0.06244027     0.87369101     0.33087235
h     0.56244027     0.62630898     0.66912765
n     0.44327622     0.09674203     0.70890469
n     0.94327622     0.40325793     0.29109531
n     0.05672379     0.59674204     0.29109531
n     0.55672379     0.90325795     0.70890469
c     0.45872438     0.00528463     0.85928850
c     0.95872438     0.49471533     0.14071150
c     0.04127563     0.50528464     0.14071150
c     0.54127564     0.99471535     0.85928850
h     0.43762807     0.82999176     0.86662494
h     0.93762808     0.67000820     0.13337506
h     0.06237193     0.32999177     0.13337506
h     0.56237194     0.17000822     0.86662494
c     0.43117498     0.13789553     0.99392818
c     0.93117498     0.36210444     0.00607182
c     0.06882503     0.63789554     0.00607182
c     0.56882504     0.86210445     0.99392818
h     0.37144338     0.14851291     0.99513127
h     0.87144338     0.35148705     0.00486873
h     0.12855663     0.64851292     0.00486873
h     0.62855663     0.85148707     0.99513127
h     0.45200496     0.31226940     0.98867776
h     0.95200496     0.18773056     0.01132224
h     0.04799505     0.81226941     0.01132224
h     0.54799506     0.68773058     0.98867776
c     0.45854476     0.01871561     0.13675906
c     0.95854476     0.48128436     0.86324094
c     0.04145525     0.51871562     0.86324094
c     0.54145525     0.98128437     0.13675906
h     0.44227153     0.11595914     0.23606497
h     0.94227153     0.38404082     0.76393503
h     0.05772848     0.61595915     0.76393503
h     0.55772848     0.88404084     0.23606497
h     0.43113798     0.85362447     0.14549933
h     0.93113798     0.64637549     0.85450067
h     0.06886203     0.35362448     0.85450067
h     0.56886204     0.14637551     0.14549933
c     0.50000001     1.00000000     0.60778252
c     0.00000001     0.49999996     0.39221748
h     0.52294323     0.13457137     0.53720648
h     0.02294323     0.36542859     0.46279352
h     0.97705678     0.63457138     0.46279352
h     0.47705678     0.86542861     0.53720648
c     0.36782647     0.05363782     0.65844383
c     0.86782647     0.44636214     0.34155617
c     0.13217354     0.55363783     0.34155617
c     0.63217354     0.94636216     0.65844383
h     0.33176150     0.10932154     0.74999908
h     0.83176150     0.39067843     0.25000092
h     0.16823851     0.60932155     0.25000092
h     0.66823851     0.89067844     0.74999908
h     0.35832585     0.87185051     0.64201234
h     0.85832586     0.62814945     0.35798766
h     0.14167415     0.37185052     0.35798766
h     0.64167416     0.12814947     0.64201234
c     0.34959613     0.18241557     0.51764163
c     0.84959613     0.31758439     0.48235837
c     0.15040388     0.68241558     0.48235837
c     0.65040388     0.81758441     0.51764163
c     0.37689419     0.40290310     0.49669113
c     0.87689420     0.09709686     0.50330887
c     0.12310581     0.90290311     0.50330887
c     0.62310582     0.59709688     0.49669113
c     0.36010258     0.52056073     0.36524277
c     0.86010259     0.97943924     0.63475723
c     0.13989742     0.02056074     0.63475723
c     0.63989743     0.47943926     0.36524277
h     0.38269849     0.68865493     0.34897013
h     0.88269850     0.81134503     0.65102987
h     0.11730151     0.18865494     0.65102987
h     0.61730152     0.31134505     0.34897013
c     0.31450574     0.42343937     0.25807210
c     0.81450574     0.07656060     0.74192790
c     0.18549427     0.92343938     0.74192790
c     0.68549427     0.57656061     0.25807210
h     0.30198727     0.51754279     0.15609121
h     0.80198728     0.98245718     0.84390879
h     0.19801273     0.01754280     0.84390879
h     0.69801274     0.48245720     0.15609121
c     0.28501201     0.20750408     0.27814233
c     0.78501202     0.29249588     0.72185767
c     0.21498799     0.70750409     0.72185767
c     0.71498800     0.79249590     0.27814233
c     0.30384394     0.08989066     0.40884080
c     0.80384395     0.41010930     0.59115920
c     0.19615606     0.58989067     0.59115920
c     0.69615607     0.91010932     0.40884080
h     0.28198137     0.92097647     0.42761335
h     0.78198137     0.57902350     0.57238665
h     0.21801864     0.42097648     0.57238665
h     0.71801865     0.07902351     0.42761335
c     0.23575165     0.10106485     0.16302821
c     0.73575166     0.39893511     0.83697179
c     0.26424836     0.60106486     0.83697179
c     0.76424836     0.89893513     0.16302821
h     0.22480288     0.21759733     0.07006118
h     0.72480288     0.28240264     0.92993882
h     0.27519713     0.71759734     0.92993882
h     0.77519713     0.78240266     0.07006118
h     0.18312830     0.05205470     0.21190304
h     0.68312831     0.44794527     0.78809696
h     0.31687170     0.55205470     0.78809696
h     0.81687171     0.94794529     0.21190304
h     0.26024761     0.94742450     0.11541110
h     0.76024762     0.55257547     0.88458890
h     0.23975239     0.44742451     0.88458890
h     0.73975240     0.05257548     0.11541110

K_POINTS automatic
2 2 2 1 1 1

CELL_PARAMETERS cubic
   34.662654000000     0.000000000000     0.000000000000
    0.000000000000    11.188228000000     0.000000000000
    0.000000000000     0.000000000000    16.839433000000
