&control
 title='crystal',
 prefix='crystal',
 pseudo_dir='.',
 calculation='vc-relax',
/
&system
 ibrav=0,
 celldm(1)=1.0,
 nat=    84,
 ntyp=  3,
 ecutwfc=60.0,
 ecutrho=600.0,
 xdm=.true.,
 xdm_a1=0.4073,
 xdm_a2=2.4150,
/
&electrons
 conv_thr = 1d-8,
/
&ions
/
&cell
/
ATOMIC_SPECIES
h      1.007940 h.UPF
c     12.010700 c.UPF
o     15.999400 o.UPF

ATOMIC_POSITIONS crystal
c     0.12862113     0.54276427     0.63691624
c     0.87137879     0.45723561     0.36308374
c     0.54276662     0.12862527     0.86308547
c     0.45723330     0.87137461     0.13691451
c     0.31032856     0.63682213     0.58773732
c     0.68967136     0.36317775     0.41226266
c     0.63681901     0.31032626     0.91226195
c     0.36318091     0.68967362     0.08773803
c     0.40609669     0.59297956     0.59662820
c     0.59390323     0.40702031     0.40337178
c     0.59298127     0.40609751     0.90337295
c     0.40701865     0.59390237     0.09662703
c     0.31179169     0.44430815     0.65356337
c     0.68820823     0.55569173     0.34643661
c     0.44430593     0.31179165     0.84643603
c     0.55569399     0.68820823     0.15356395
c     0.11950017     0.34036421     0.70189387
c     0.88049975     0.65963567     0.29810611
c     0.34036591     0.11950100     0.79810685
c     0.65963401     0.88049888     0.20189313
c     0.03494665     0.39648093     0.69392148
c     0.96505327     0.60351895     0.30607850
c     0.39647774     0.03494375     0.80607749
c     0.60352218     0.96505613     0.19392249
c     0.04698210     0.61093341     0.63016166
c     0.95301782     0.38906647     0.36983832
c     0.61092625     0.04696075     0.86983114
c     0.38907367     0.95303913     0.13016884
o     0.58127238     0.68294365     0.54806838
o     0.41872754     0.31705623     0.45193160
o     0.68294186     0.58127040     0.95193163
o     0.31705806     0.41872948     0.04806835
o     0.41463636     0.40811873     0.65823512
o     0.58536356     0.59188114     0.34176486
o     0.40812166     0.41463739     0.84176558
o     0.59187826     0.58536249     0.15823440
o     0.01813427     0.18015219     0.75521963
o     0.98186565     0.81984768     0.24478035
o     0.18015126     0.01813184     0.74477998
o     0.81984866     0.98186804     0.25522000
o     0.12763041     0.72973524     0.57300171
o     0.87236951     0.27026463     0.42699826
o     0.72973531     0.12763218     0.92699969
o     0.27026461     0.87236770     0.07300029
o     0.91650757     0.56419168     0.67406009
o     0.08349235     0.43580820     0.32593989
o     0.56419820     0.91652621     0.82594645
o     0.43580172     0.08347367     0.17405353
h     0.72527128     0.73694664     0.56163771
h     0.27472864     0.26305324     0.43836227
h     0.73694526     0.72526974     0.93836261
h     0.26305466     0.27473014     0.06163737
h     0.32203753     0.27998899     0.69757415
h     0.67796239     0.72001089     0.30242583
h     0.27998708     0.32203630     0.80242536
h     0.72001284     0.67796357     0.19757462
h     0.85486294     0.08802463     0.78376246
h     0.14513698     0.91197525     0.21623752
h     0.08802600     0.85486509     0.71623803
h     0.91197392     0.14513479     0.28376195
h     0.08170615     0.78770595     0.57231032
h     0.91829377     0.21229393     0.42768966
h     0.78770448     0.08170441     0.92768970
h     0.21229544     0.91829547     0.07231028
h     0.38404002     0.75117330     0.54345818
h     0.61595990     0.24882658     0.45654180
h     0.75117275     0.38403946     0.95654226
h     0.24882717     0.61596042     0.04345772
h     0.89007242     0.31994915     0.73161949
h     0.10992751     0.68005073     0.26838049
h     0.31995038     0.89007390     0.76838098
h     0.68004954     0.10992598     0.23161900
o     0.06369976     0.93084428     0.06228178
o     0.93630016     0.06915560     0.93771820
o     0.93084145     0.06369633     0.43771774
o     0.06915847     0.93630355     0.56228224
h     0.87309522     0.77367343     0.09625709
h     0.12690470     0.22632645     0.90374289
h     0.77367180     0.87309326     0.40374315
h     0.22632812     0.12690662     0.59625683
h     0.91917231     0.78865240     0.02187096
h     0.08082761     0.21134748     0.97812902
h     0.78864940     0.91916918     0.47812937
h     0.21135052     0.08083069     0.52187061

K_POINTS automatic
2 2 2 1 1 1

CELL_PARAMETERS cubic
   18.716421000000     0.035889000000     0.027468000000
  -17.510739000000     6.608993000000    -0.027476000000
    1.932885000000    -0.350765000000    39.806582000000
