&control
 title='crystal',
 prefix='crystal',
 pseudo_dir='.',
 calculation='vc-relax',
/
&system
 ibrav=0,
 celldm(1)=1.0,
 nat=   168,
 ntyp=  3,
 ecutwfc=60.0,
 ecutrho=600.0,
 xdm=.true.,
 xdm_a1=0.4073,
 xdm_a2=2.4150,
/
&electrons
 conv_thr = 1d-8,
/
&ions
/
&cell
/
ATOMIC_SPECIES
h      1.007940 h.UPF
c     12.010700 c.UPF
o     15.999400 o.UPF

ATOMIC_POSITIONS crystal
c     0.59377280     0.41120453     0.94933842
c     0.09377146     0.91120417     0.94933943
c     0.40622721     0.58879565     0.05066156
c     0.90622587     0.08879529     0.05066257
c     0.40622724     0.41120457     0.55066164
c     0.90622589     0.91120421     0.55066266
c     0.59377278     0.58879563     0.44933833
c     0.09377143     0.08879527     0.44933935
c     0.66188178     0.41716960     0.80637436
c     0.16188043     0.91716924     0.80637537
c     0.33811823     0.58283058     0.19362562
c     0.83811689     0.08283022     0.19362663
c     0.33811683     0.41717221     0.69362759
c     0.83811549     0.91717185     0.69362861
c     0.66188318     0.58282797     0.30637239
c     0.16188183     0.08282761     0.30637340
o     0.74749670     0.50689977     0.67896243
o     0.24749535     0.00689941     0.67896345
o     0.25250332     0.49310043     0.32103754
o     0.75250197     0.99310007     0.32103856
o     0.25250383     0.50690057     0.82103686
o     0.75250249     0.00690022     0.82103788
o     0.74749618     0.49309960     0.17896312
o     0.24749484     0.99309925     0.17896413
o     0.62385228     0.31566386     0.82533725
o     0.12385093     0.81566351     0.82533826
o     0.37614774     0.68433633     0.17466273
o     0.87614639     0.18433598     0.17466375
o     0.37614789     0.31566518     0.67466276
o     0.87614654     0.81566482     0.67466378
o     0.62385212     0.68433500     0.32533722
o     0.12385078     0.18433464     0.32533824
h     0.67500372     0.31172351     0.72228133
h     0.17500238     0.81172315     0.72228235
h     0.32499629     0.68827667     0.27771864
h     0.82499495     0.18827632     0.27771966
h     0.32499663     0.31172389     0.77771833
h     0.82499528     0.81172354     0.77771935
h     0.67500339     0.68827629     0.22228164
h     0.17500204     0.18827593     0.22228266
c     0.62453171     0.53196670     0.94482016
c     0.12453036     0.03196635     0.94482118
c     0.37546830     0.46803347     0.05517982
c     0.87546696     0.96803312     0.05518083
c     0.37546837     0.53196726     0.55517968
c     0.87546702     0.03196691     0.55518070
c     0.62453164     0.46803293     0.44482029
c     0.12453030     0.96803257     0.44482131
h     0.69645749     0.64187258     0.83865804
h     0.19645614     0.14187222     0.83865906
h     0.30354253     0.35812761     0.16134193
h     0.80354118     0.85812726     0.16134295
h     0.30354320     0.64187172     0.66134083
h     0.80354186     0.14187137     0.66134185
h     0.69645681     0.35812845     0.33865915
h     0.19645546     0.85812810     0.33866017
c     0.56222006     0.51931253     0.07741115
c     0.06221871     0.01931217     0.07741217
c     0.43777995     0.48068765     0.92258883
c     0.93777861     0.98068730     0.92258984
c     0.43778039     0.51931371     0.42258802
c     0.93777904     0.01931335     0.42258903
c     0.56221962     0.48068648     0.57741196
c     0.06221828     0.98068613     0.57741297
o     0.58626811     0.65087918     0.08266764
o     0.08626677     0.15087883     0.08266866
o     0.41373190     0.34912099     0.91733234
o     0.91373055     0.84912064     0.91733335
o     0.41373220     0.65088003     0.41733205
o     0.91373085     0.15087967     0.41733307
o     0.58626781     0.34912017     0.58266792
o     0.08626647     0.84911981     0.58266894
h     0.65045763     0.77765811     0.98281493
h     0.15045629     0.27765776     0.98281594
h     0.34954238     0.22234208     0.01718505
h     0.84954104     0.72234172     0.01718606
h     0.34954242     0.77765980     0.51718481
h     0.84954107     0.27765945     0.51718583
h     0.65045760     0.22234039     0.48281516
h     0.15045625     0.72234003     0.48281618
c     0.46966573     0.37208960     0.21417531
c     0.96966438     0.87208924     0.21417633
c     0.53033428     0.62791058     0.78582466
c     0.03033294     0.12791022     0.78582568
c     0.53033489     0.37208940     0.28582365
c     0.03033354     0.87208904     0.28582467
c     0.46966512     0.62791078     0.71417632
c     0.96966378     0.12791042     0.71417734
o     0.40481270     0.34039282     0.34851293
o     0.90481135     0.84039246     0.34851394
o     0.59518732     0.65960736     0.65148705
o     0.09518597     0.15960700     0.65148806
o     0.59518729     0.34039271     0.15148685
o     0.09518594     0.84039236     0.15148787
o     0.40481272     0.65960747     0.84851313
o     0.90481138     0.15960711     0.84851414
h     0.42651984     0.45052695     0.34449409
h     0.92651850     0.95052659     0.34449510
h     0.57348017     0.54947323     0.65550589
h     0.07347883     0.04947287     0.65550691
h     0.57348021     0.45052829     0.15550575
h     0.07347886     0.95052794     0.15550677
h     0.42651980     0.54947189     0.84449423
h     0.92651846     0.04947153     0.84449524
c     0.43986445     0.24968655     0.21685629
c     0.93986310     0.74968619     0.21685731
c     0.56013556     0.75031364     0.78314369
c     0.06013422     0.25031329     0.78314471
c     0.56013560     0.24968691     0.28314359
c     0.06013425     0.74968655     0.28314461
c     0.43986441     0.75031329     0.71685639
c     0.93986306     0.25031293     0.71685740
o     0.34867512     0.11785019     0.35066343
o     0.84867377     0.61784983     0.35066445
o     0.65132490     0.88215001     0.64933654
o     0.15132355     0.38214965     0.64933756
o     0.65132520     0.11785108     0.14933596
o     0.15132385     0.61785073     0.14933698
o     0.34867481     0.88214909     0.85066402
o     0.84867347     0.38214874     0.85066503
h     0.31717689     0.02007613     0.42721494
h     0.81717554     0.52007578     0.42721596
h     0.68282312     0.97992406     0.57278504
h     0.18282178     0.47992370     0.57278605
h     0.68282300     0.02007605     0.07278512
h     0.18282166     0.52007569     0.07278614
h     0.31717701     0.97992413     0.92721485
h     0.81717566     0.47992377     0.92721587
c     0.50075475     0.27392707     0.08619893
c     0.00075340     0.77392671     0.08619994
c     0.49924527     0.72607312     0.91380105
c     0.99924392     0.22607277     0.91380206
c     0.49924547     0.27392747     0.41380049
c     0.99924413     0.77392712     0.41380151
c     0.50075454     0.72607270     0.58619948
c     0.00075320     0.22607235     0.58620050
h     0.47673362     0.17927129     0.08996354
h     0.97673228     0.67927094     0.08996455
h     0.52326639     0.82072888     0.91003644
h     0.02326504     0.32072853     0.91003745
h     0.52326660     0.17927121     0.41003606
h     0.02326526     0.67927086     0.41003708
h     0.47673341     0.82072896     0.58996392
h     0.97673206     0.32072861     0.58996494
o     0.75441995     0.74822664     0.92895535
o     0.25441861     0.24822629     0.92895637
o     0.24558006     0.25177355     0.07104462
o     0.74557872     0.75177319     0.07104564
o     0.24557999     0.74822655     0.57104464
o     0.74557865     0.24822620     0.57104566
o     0.75442002     0.25177362     0.42895533
o     0.25441868     0.75177327     0.42895635
h     0.70358291     0.57486865     0.99662122
h     0.20358156     0.07486830     0.99662223
h     0.29641710     0.42513154     0.00337876
h     0.79641576     0.92513119     0.00337977
h     0.29641760     0.57487054     0.50337822
h     0.79641625     0.07487019     0.50337923
h     0.70358241     0.42512963     0.49662176
h     0.20358107     0.92512928     0.49662278
h     0.79349530     0.60500325     0.89123247
h     0.29349395     0.10500289     0.89123349
h     0.20650471     0.39499693     0.10876751
h     0.70650337     0.89499657     0.10876853
h     0.20650471     0.60500345     0.60876738
h     0.70650337     0.10500309     0.60876839
h     0.79349530     0.39499673     0.39123260
h     0.29349395     0.89499638     0.39123362

K_POINTS automatic
2 2 2 1 1 1

CELL_PARAMETERS cubic
   89.468424000000    -0.000027000000     0.473669000000
   -0.000002000000     6.753718000000     0.000003000000
   53.064654000000    -0.000010000000    16.671996000000
