&control
 title='crystal',
 prefix='crystal',
 pseudo_dir='.',
 calculation='vc-relax',
/
&system
 ibrav=0,
 celldm(1)=1.0,
 nat=    84,
 ntyp=  3,
 ecutwfc=60.0,
 ecutrho=600.0,
 xdm=.true.,
 xdm_a1=0.4073,
 xdm_a2=2.4150,
/
&electrons
 conv_thr = 1d-8,
/
&ions
/
&cell
/
ATOMIC_SPECIES
h      1.007940 h.UPF
c     12.010700 c.UPF
o     15.999400 o.UPF

ATOMIC_POSITIONS crystal
o     0.43029497     0.29055003     0.87866717
o     0.56970503     0.70944995     0.12133284
o     0.43029495     0.20944996     0.37866716
o     0.56970505     0.79055002     0.62133285
o     0.44942986     0.46612989     0.86161630
o     0.55057014     0.53387009     0.13838371
o     0.44942983     0.03387010     0.36161628
o     0.55057017     0.96612988     0.63838373
o     0.93863760     0.15724526     0.65717614
o     0.06136240     0.84275472     0.34282387
o     0.93863758     0.34275473     0.15717612
o     0.06136242     0.65724525     0.84282389
o     0.07125084     0.33143109     0.56661234
o     0.92874916     0.66856889     0.43338767
o     0.07125082     0.16856890     0.06661232
o     0.92874918     0.83143108     0.93338769
o     0.94360571     0.53181479     0.61897355
o     0.05639429     0.46818519     0.38102646
o     0.94360568     0.96818520     0.11897354
o     0.05639432     0.03181478     0.88102647
c     0.64371752     0.36000583     0.76363445
c     0.35628248     0.63999415     0.23636557
c     0.64371750     0.13999416     0.26363443
c     0.35628250     0.86000582     0.73636558
c     0.71712404     0.26100833     0.74110880
c     0.28287596     0.73899165     0.25889121
c     0.71712402     0.23899167     0.24110879
c     0.28287598     0.76100831     0.75889123
c     0.85870979     0.25385317     0.67373327
c     0.14129021     0.74614681     0.32626674
c     0.85870977     0.24614683     0.17373325
c     0.14129023     0.75385315     0.82626676
c     0.92843490     0.34458032     0.62723443
c     0.07156510     0.65541966     0.37276558
c     0.92843488     0.15541967     0.12723442
c     0.07156512     0.84458031     0.87276559
c     0.85786953     0.44320596     0.65356768
c     0.14213047     0.55679402     0.34643233
c     0.85786951     0.05679403     0.15356766
c     0.14213049     0.94320595     0.84643235
c     0.71270092     0.45058064     0.71807811
c     0.28729908     0.54941934     0.28192190
c     0.71270089     0.04941935     0.21807810
c     0.28729911     0.95058063     0.78192192
c     0.50043390     0.37704706     0.83752013
c     0.49956610     0.62295292     0.16247988
c     0.50043388     0.12295293     0.33752012
c     0.49956612     0.87704705     0.66247989
h     0.34635229     0.31484081     0.93302469
h     0.65364771     0.68515917     0.06697532
h     0.34635227     0.18515918     0.43302467
h     0.65364773     0.81484080     0.56697534
h     0.66654839     0.19007451     0.77672185
h     0.33345161     0.80992547     0.22327816
h     0.66654837     0.30992548     0.27672183
h     0.33345163     0.69007450     0.72327818
h     0.04223970     0.16095829     0.60991302
h     0.95776030     0.83904169     0.39008700
h     0.04223967     0.33904171     0.10991300
h     0.95776033     0.66095827     0.89008701
h     0.08512890     0.39676964     0.52135279
h     0.91487110     0.60323034     0.47864723
h     0.08512888     0.10323035     0.02135277
h     0.91487112     0.89676963     0.97864724
h     0.97913728     0.58374050     0.69396830
h     0.02086272     0.41625948     0.30603171
h     0.97913726     0.91625949     0.19396828
h     0.02086274     0.08374049     0.80603173
h     0.65113990     0.52722958     0.73223079
h     0.34886010     0.47277040     0.26776922
h     0.65113988     0.97277042     0.23223077
h     0.34886012     0.02722956     0.76776924
o     0.79538490     0.88422987     0.48285202
o     0.20461510     0.11577011     0.51714799
o     0.79538488     0.61577012     0.98285200
o     0.20461512     0.38422986     0.01714801
h     0.66902924     0.93939185     0.43921891
h     0.33097076     0.06060813     0.56078110
h     0.66902922     0.56060814     0.93921889
h     0.33097078     0.43939184     0.06078112
h     0.91722931     0.91779411     0.56594833
h     0.08277069     0.08220587     0.43405168
h     0.91722929     0.58220588     0.06594832
h     0.08277071     0.41779410     0.93405169

K_POINTS automatic
2 2 2 1 1 1

CELL_PARAMETERS cubic
   11.811921000000     0.000000000000    -0.011289000000
    0.000000000000    24.046926000000     0.000000000000
   -9.478696000000     0.000000000000    18.394791000000
