&control
 title='crystal',
 prefix='crystal',
 pseudo_dir='.',
 calculation='vc-relax',
/
&system
 ibrav=0,
 celldm(1)=1.0,
 nat=    84,
 ntyp=  3,
 ecutwfc=60.0,
 ecutrho=600.0,
 xdm=.true.,
 xdm_a1=0.4073,
 xdm_a2=2.4150,
/
&electrons
 conv_thr = 1d-8,
/
&ions
/
&cell
/
ATOMIC_SPECIES
h      1.007940 h.UPF
c     12.010700 c.UPF
o     15.999400 o.UPF

ATOMIC_POSITIONS crystal
c     0.59509163     0.75336919     0.57567473
c     0.09509480     0.25337131     0.57567579
c     0.40490835     0.24663074     0.42432530
c     0.90491153     0.74663286     0.42432636
c     0.53276886     0.70227924     0.60017518
c     0.03277203     0.20228136     0.60017624
c     0.46723113     0.29772069     0.39982486
c     0.96723430     0.79772281     0.39982591
c     0.43473650     0.44502539     0.81299959
c     0.93473968     0.94502751     0.81300065
c     0.56526348     0.55497454     0.18700044
c     0.06526666     0.05497666     0.18700150
c     0.39661953     0.23587749     0.00514575
c     0.89662271     0.73587961     0.00514681
c     0.60338045     0.76412244     0.99485428
c     0.10338363     0.26412456     0.99485534
c     0.46165908     0.29000791     0.97534762
c     0.96166226     0.79001003     0.97534868
c     0.53834090     0.70999202     0.02465241
c     0.03834408     0.20999414     0.02465347
c     0.55747807     0.54611994     0.76657185
c     0.05748124     0.04612206     0.76657291
c     0.44252192     0.45387999     0.23342818
c     0.94252509     0.95388211     0.23342924
h     0.56289005     0.86296250     0.44994834
h     0.06289323     0.36296461     0.44994940
h     0.43710993     0.13703743     0.55005170
h     0.93711310     0.63703955     0.55005275
h     0.60806770     0.58804492     0.74299262
h     0.10807087     0.08804703     0.74299367
h     0.39193228     0.41195501     0.25700742
h     0.89193546     0.91195713     0.25700848
c     0.71291023     0.03276747     0.32779679
c     0.21291340     0.53276959     0.32779785
c     0.28708976     0.96723246     0.67220324
c     0.78709293     0.46723457     0.67220430
o     0.74598720     0.21895602     0.14887188
o     0.24599037     0.71895814     0.14887293
o     0.25401279     0.78104391     0.85112816
o     0.75401596     0.28104602     0.85112922
h     0.83903389     0.41006255     0.96439393
h     0.33903707     0.91006467     0.96439499
h     0.16096609     0.58993738     0.03560610
h     0.66096927     0.08993950     0.03560716
o     0.37187992     0.39193816     0.84059886
o     0.87188309     0.89194027     0.84059992
o     0.62812007     0.60806177     0.15940117
o     0.12812324     0.10806389     0.15940223
h     0.40399324     0.30693970     0.79907070
h     0.90399642     0.80694181     0.79907176
h     0.59600674     0.69306023     0.20092933
h     0.09600992     0.19306235     0.20093039
o     0.42807555     0.08327497     0.15419332
o     0.92807873     0.58327709     0.15419438
o     0.57192443     0.91672496     0.84580672
o     0.07192761     0.41672708     0.84580777
h     0.51864862     0.17321526     0.03745172
h     0.01865179     0.67321738     0.03745277
h     0.48135136     0.82678467     0.96254832
h     0.98135454     0.32678678     0.96254938
o     0.29961461     0.98572222     0.21081424
o     0.79961779     0.48572434     0.21081530
o     0.70038537     0.01427771     0.78918579
o     0.20038855     0.51427982     0.78918685
h     0.28361108     0.85760706     0.32772449
h     0.78361425     0.35760918     0.32772555
h     0.71638890     0.14239287     0.67227554
h     0.21639208     0.64239499     0.67227660
o     0.77796059     0.09217635     0.28459712
o     0.27796376     0.59217847     0.28459818
o     0.22203939     0.90782358     0.71540291
o     0.72204257     0.40782570     0.71540397
o     0.50919307     0.76863762     0.35421547
o     0.00919624     0.26863974     0.35421653
o     0.49080691     0.23136231     0.64578457
o     0.99081009     0.73136442     0.64578562
h     0.39447031     0.69075543     0.51669827
h     0.89447349     0.19075755     0.51669933
h     0.60552967     0.30924450     0.48330176
h     0.10553285     0.80924662     0.48330282
h     0.45343222     0.63899806     0.54102896
h     0.95343539     0.13900017     0.54103002
h     0.54656777     0.36100188     0.45897108
h     0.04657094     0.86100399     0.45897213

K_POINTS automatic
2 2 2 1 1 1

CELL_PARAMETERS cubic
   45.533845000000    -0.193004000000     1.156925000000
    7.462143000000    16.835355000000     0.615219000000
   26.325395000000    10.183771000000     7.308245000000
