&control
 title='crystal',
 prefix='crystal',
 pseudo_dir='.',
 calculation='vc-relax',
/
&system
 ibrav=0,
 celldm(1)=1.0,
 nat=    84,
 ntyp=  3,
 ecutwfc=60.0,
 ecutrho=600.0,
 xdm=.true.,
 xdm_a1=0.4073,
 xdm_a2=2.4150,
/
&electrons
 conv_thr = 1d-8,
/
&ions
/
&cell
/
ATOMIC_SPECIES
h      1.007940 h.UPF
c     12.010700 c.UPF
o     15.999400 o.UPF

ATOMIC_POSITIONS crystal
c     0.13894649     0.98898832     0.20786577
c     0.86105355     0.01101171     0.79213424
c     0.13894649     0.51101169     0.70786578
c     0.86105354     0.48898835     0.29213423
c     0.15397811     0.90501853     0.16460615
c     0.84602193     0.09498150     0.83539386
c     0.15397811     0.59498149     0.66460615
c     0.84602192     0.40501856     0.33539386
c     0.99883298     0.92634751     0.09400037
c     0.00116706     0.07365252     0.90599964
c     0.99883298     0.57365250     0.59400037
c     0.00116706     0.42634754     0.40599964
c     0.82807608     0.03278308     0.06570738
c     0.17192396     0.96721695     0.93429263
c     0.82807608     0.46721693     0.56570738
c     0.17192396     0.53278311     0.43429263
c     0.81499730     0.11940310     0.10963484
c     0.18500273     0.88059693     0.89036517
c     0.81499730     0.38059692     0.60963485
c     0.18500273     0.61940313     0.39036516
c     0.97004057     0.09554355     0.18046434
c     0.02995946     0.90445648     0.81953567
c     0.97004057     0.40445646     0.68046435
c     0.02995946     0.59554358     0.31953566
c     0.30063778     0.96478582     0.28313871
c     0.69936225     0.03521421     0.71686130
c     0.30063778     0.53521420     0.78313871
c     0.69936225     0.46478585     0.21686130
o     0.29763160     0.06445493     0.32377682
o     0.70236843     0.93554510     0.67622319
o     0.29763160     0.43554509     0.82377683
o     0.70236843     0.56445496     0.17622319
o     0.45093358     0.82924213     0.30420460
o     0.54906646     0.17075790     0.69579541
o     0.45093358     0.67075788     0.80420461
o     0.54906646     0.32924216     0.19579540
o     0.01380284     0.85526366     0.05143018
o     0.98619720     0.14473637     0.94856983
o     0.01380284     0.64473636     0.55143018
o     0.98619720     0.35526369     0.44856983
o     0.68332768     0.06482407     0.99569135
o     0.31667236     0.93517596     0.00430866
o     0.68332768     0.43517594     0.49569135
o     0.31667236     0.56482410     0.50430866
o     0.64693639     0.23276607     0.07973626
o     0.35306364     0.76723396     0.92026375
o     0.64693639     0.26723394     0.57973626
o     0.35306364     0.73276610     0.42026375
h     0.28485922     0.82117808     0.18570197
h     0.71514081     0.17882195     0.81429804
h     0.28485922     0.67882194     0.68570197
h     0.71514081     0.32117811     0.31429804
h     0.95995255     0.16288824     0.21441883
h     0.04004749     0.83711179     0.78558119
h     0.95995255     0.33711177     0.71441883
h     0.04004749     0.66288827     0.28558118
h     0.55952298     0.87018133     0.35567553
h     0.44047706     0.12981870     0.64432449
h     0.55952298     0.62981869     0.85567553
h     0.44047706     0.37018136     0.14432448
h     0.89567730     0.75855563     0.00515456
h     0.10432274     0.24144440     0.99484545
h     0.89567730     0.74144439     0.50515456
h     0.10432274     0.25855566     0.49484545
h     0.56193213     0.99844013     0.97595559
h     0.43806791     0.00155990     0.02404442
h     0.56193213     0.50155989     0.47595559
h     0.43806791     0.49844016     0.52404442
h     0.66148249     0.34373740     0.11571000
h     0.33851754     0.65626263     0.88429001
h     0.66148249     0.15626261     0.61571000
h     0.33851754     0.84373743     0.38429001
o     0.73962492     0.50362596     0.93369669
o     0.26037511     0.49637407     0.06630332
o     0.73962492     0.99637405     0.43369669
o     0.26037511     0.00362599     0.56630332
h     0.81798128     0.35457528     0.93356740
h     0.18201876     0.64542475     0.06643261
h     0.81798128     0.14542473     0.43356740
h     0.18201876     0.85457531     0.56643261
h     0.70242367     0.33118339     0.94883321
h     0.29757637     0.66881664     0.05116681
h     0.70242367     0.16881663     0.44883321
h     0.29757636     0.83118342     0.55116680

K_POINTS automatic
2 2 2 1 1 1

CELL_PARAMETERS cubic
   20.318177000000     0.000000000000     0.067246000000
    0.000000000000     6.707408000000     0.000000000000
  -40.109390000000     0.000000000000    36.611820000000
