&control
 title='crystal',
 prefix='crystal',
 pseudo_dir='.',
 calculation='vc-relax',
/
&system
 ibrav=0,
 celldm(1)=1.0,
 nat=    84,
 ntyp=  3,
 ecutwfc=60.0,
 ecutrho=600.0,
 xdm=.true.,
 xdm_a1=0.4073,
 xdm_a2=2.4150,
/
&electrons
 conv_thr = 1d-8,
/
&ions
/
&cell
/
ATOMIC_SPECIES
h      1.007940 h.UPF
c     12.010700 c.UPF
o     15.999400 o.UPF

ATOMIC_POSITIONS crystal
o     0.55056854     0.08769833     0.97523379
o     0.44943140     0.91230167     0.02476620
o     0.55056857     0.41230167     0.47523379
o     0.44943137     0.58769833     0.52476620
h     0.37451113     0.12062635     0.90380766
h     0.62548882     0.87937365     0.09619232
h     0.37451115     0.37937365     0.40380767
h     0.62548879     0.62062635     0.59619232
o     0.96288416     0.02482046     0.18570102
o     0.03711578     0.97517954     0.81429897
o     0.96288419     0.47517954     0.68570102
o     0.03711575     0.52482046     0.31429897
h     0.71583948     0.00225880     0.10615950
h     0.28416046     0.99774119     0.89384048
h     0.71583951     0.49774120     0.60615951
h     0.28416044     0.50225880     0.39384048
o     0.69987517     0.09074649     0.39294992
o     0.30012478     0.90925351     0.60705006
o     0.69987519     0.40925351     0.89294993
o     0.30012475     0.59074649     0.10705006
h     0.94238924     0.12380577     0.46132119
h     0.05761070     0.87619423     0.53867880
h     0.94238927     0.37619423     0.96132119
h     0.05761068     0.62380577     0.03867880
o     0.49866867     0.33501423     0.09002018
o     0.50133128     0.66498577     0.90997981
o     0.49866869     0.16498577     0.59002018
o     0.50133125     0.83501423     0.40997981
h     0.69394234     0.38355231     0.10889303
h     0.30605761     0.61644769     0.89110696
h     0.69394237     0.11644769     0.60889303
h     0.30605758     0.88355231     0.39110696
o     0.07411237     0.32781720     0.28834958
o     0.92588757     0.67218280     0.71165040
o     0.07411240     0.17218280     0.78834959
o     0.92588754     0.82781720     0.21165040
c     0.49107748     0.22908627     0.18416022
c     0.50892246     0.77091372     0.81583977
c     0.49107751     0.27091373     0.68416022
c     0.50892243     0.72908627     0.31583977
c     0.10302857     0.19455427     0.07579838
c     0.89697137     0.80544572     0.92420160
c     0.10302860     0.30544573     0.57579839
c     0.89697134     0.69455427     0.42420160
h     0.93738355     0.22023026     0.99171704
h     0.06261639     0.77976974     0.00828295
h     0.93738358     0.27976974     0.49171704
h     0.06261637     0.72023026     0.50828295
c     0.92753307     0.12562779     0.07582724
c     0.07246688     0.87437220     0.92417275
c     0.92753310     0.37437221     0.57582724
c     0.07246685     0.62562779     0.42417275
c     0.13293790     0.09124199     0.18318751
c     0.86706204     0.90875801     0.81681248
c     0.13293793     0.40875801     0.68318751
c     0.86706202     0.59124199     0.31681248
c     0.51858577     0.12654504     0.29113515
c     0.48141417     0.87345495     0.70886484
c     0.51858580     0.37345496     0.79113515
c     0.48141415     0.62654504     0.20886484
c     0.69888018     0.19455628     0.29125525
c     0.30111976     0.80544371     0.70874474
c     0.69888021     0.30544372     0.79125525
c     0.30111973     0.69455628     0.20874474
h     0.00498927     0.22128797     0.37461238
h     0.99501068     0.77871202     0.62538761
h     0.00498929     0.27871203     0.87461238
h     0.99501065     0.72128797     0.12538761
c     0.70948838     0.30063318     0.19283304
c     0.29051156     0.69936682     0.80716695
c     0.70948841     0.19936682     0.69283304
c     0.29051154     0.80063318     0.30716695
o     0.04588073     0.95735031     0.36043759
o     0.95411922     0.04264968     0.63956240
o     0.04588076     0.54264969     0.86043759
o     0.95411919     0.45735031     0.13956240
h     0.03171806     0.98463252     0.30292682
h     0.96828188     0.01536747     0.69707317
h     0.03171809     0.51536748     0.80292682
h     0.96828186     0.48463252     0.19707317
h     0.01790104     0.99547376     0.40085019
h     0.98209890     0.00452623     0.59914980
h     0.01790107     0.50452624     0.90085019
h     0.98209888     0.49547376     0.09914980

K_POINTS automatic
2 2 2 1 1 1

CELL_PARAMETERS cubic
    7.125208000000     0.000000000000     0.240950000000
    0.000000000000    33.563258000000     0.000000000000
  -20.827980000000     0.000000000000    20.617083000000
