&control
 title='crystal',
 prefix='crystal',
 pseudo_dir='.',
 calculation='vc-relax',
/
&system
 ibrav=0,
 celldm(1)=1.0,
 nat=    84,
 ntyp=  3,
 ecutwfc=60.0,
 ecutrho=600.0,
 xdm=.true.,
 xdm_a1=0.4073,
 xdm_a2=2.4150,
/
&electrons
 conv_thr = 1d-8,
/
&ions
/
&cell
/
ATOMIC_SPECIES
h      1.007940 h.UPF
c     12.010700 c.UPF
o     15.999400 o.UPF

ATOMIC_POSITIONS crystal
c     0.58734248     0.35521820     0.18798133
c     0.41265752     0.64478181     0.81201869
c     0.58734335     0.14478228     0.68797843
c     0.41265665     0.85521773     0.31202159
c     0.43662748     0.29072454     0.49583082
c     0.56337252     0.70927547     0.50416921
c     0.43662745     0.20927697     0.99583032
c     0.56337254     0.79072305     0.00416970
o     0.35425432     0.35646367     0.61845290
o     0.64574568     0.64353634     0.38154712
o     0.35425375     0.14353544     0.11845307
o     0.64574625     0.85646457     0.88154695
o     0.39657894     0.15790955     0.63074135
o     0.60342106     0.84209046     0.36925867
o     0.39657938     0.34209245     0.13073943
o     0.60342062     0.65790757     0.86926060
h     0.29283784     0.11173968     0.83889759
h     0.70716216     0.88826034     0.16110243
h     0.29283801     0.38826224     0.33889653
h     0.70716199     0.61173778     0.66110350
c     0.64250189     0.44028793     0.01923812
c     0.35749810     0.55971209     0.98076190
c     0.64250198     0.05971263     0.51923755
c     0.35749802     0.94028739     0.48076247
h     0.57538361     0.45267728     0.11378144
h     0.42461638     0.54732273     0.88621858
h     0.57538375     0.04732209     0.61378008
h     0.42461625     0.95267792     0.38621994
c     0.78391114     0.50621858     0.72908950
c     0.21608886     0.49378144     0.27091052
c     0.78391106     0.99378128     0.22908840
c     0.21608894     0.00621873     0.77091162
o     0.84746291     0.58543554     0.54654845
o     0.15253709     0.41456448     0.45345158
o     0.84746354     0.91456476     0.04654669
o     0.15253645     0.08543525     0.95345333
h     0.77596625     0.67022544     0.65940723
h     0.22403375     0.32977457     0.34059279
h     0.77596603     0.82977390     0.15940670
h     0.22403396     0.17022612     0.84059332
c     0.87016306     0.49836172     0.60814378
c     0.12983693     0.50163830     0.39185624
c     0.87016467     0.00163769     0.10813933
c     0.12983532     0.99836232     0.89186069
o     0.00807264     0.58963181     0.32787830
o     0.99192736     0.41036821     0.67212172
o     0.00807163     0.91037070     0.82788020
o     0.99192837     0.08962932     0.17211983
h     0.03195762     0.69315681     0.23907360
h     0.96804238     0.30684321     0.76092642
h     0.03195821     0.80684150     0.73907132
h     0.96804179     0.19315852     0.26092870
c     0.81491002     0.39541378     0.77652064
c     0.18508997     0.60458624     0.22347938
c     0.81491104     0.10458786     0.27651834
c     0.18508895     0.89541215     0.72348168
o     0.90021492     0.38107228     0.65624039
o     0.09978508     0.61892774     0.34375963
o     0.90021398     0.11892866     0.15624124
o     0.09978602     0.88107136     0.84375878
h     0.99266247     0.26527356     0.46007774
h     0.00733752     0.73472646     0.53992229
h     0.99266245     0.23472931     0.96007714
h     0.00733754     0.76527071     0.03992288
c     0.67398359     0.32580802     0.06570888
c     0.32601641     0.67419199     0.93429114
c     0.67398247     0.17419380     0.56571004
c     0.32601753     0.82580621     0.43428998
h     0.63166634     0.25256317     0.19552728
h     0.36833366     0.74743684     0.80447274
h     0.63166638     0.24743901     0.69552619
h     0.36833361     0.75256100     0.30447383
o     0.86757608     0.00519888     0.82887760
o     0.13242391     0.99480113     0.17112242
o     0.86757595     0.49479826     0.32887811
o     0.13242405     0.50520176     0.67112191
h     0.86904241     0.15726053     0.78720582
h     0.13095759     0.84273948     0.21279420
h     0.86904220     0.34273802     0.28720629
h     0.13095779     0.65726199     0.71279373
h     0.90180923     0.17288308     0.79339963
h     0.09819077     0.82711693     0.20660040
h     0.90180907     0.32711376     0.29340003
h     0.09819092     0.67288626     0.70659999

K_POINTS automatic
2 2 2 1 1 1

CELL_PARAMETERS cubic
   84.194915000000    -0.000009000000     0.972168000000
   -0.000001000000     6.697761000000    -0.000002000000
   39.891172000000    -0.000006000000     9.313401000000
