&control
 title='crystal',
 prefix='crystal',
 pseudo_dir='.',
 calculation='vc-relax',
/
&system
 ibrav=0,
 celldm(1)=1.0,
 nat=    42,
 ntyp=  3,
 ecutwfc=60.0,
 ecutrho=600.0,
 xdm=.true.,
 xdm_a1=0.4073,
 xdm_a2=2.4150,
/
&electrons
 conv_thr = 1d-8,
/
&ions
/
&cell
/
ATOMIC_SPECIES
h      1.007940 h.UPF
c     12.010700 c.UPF
o     15.999400 o.UPF

ATOMIC_POSITIONS crystal
o     0.23539934     0.05939684     0.36894426
o     0.76460075     0.94060309     0.63105573
o     0.36073091     0.13622135     0.13679384
o     0.63926918     0.86377858     0.86320615
o     0.70470989     0.57640964     0.41570344
o     0.29529020     0.42359029     0.58429655
o     0.24135550     0.67545808     0.98031960
o     0.75864459     0.32454185     0.01968039
o     0.87866583     0.49378638     0.18158209
o     0.12133426     0.50621355     0.81841789
c     0.24471143     0.03634751     0.25556290
c     0.75528866     0.96365242     0.74443709
c     0.96056978     0.80907452     0.34069947
c     0.03943032     0.19092541     0.65930052
c     0.22360047     0.85414463     0.11630538
c     0.77639962     0.14585530     0.88369461
c     0.95991361     0.62756957     0.20047680
c     0.04008648     0.37243035     0.79952319
c     0.13978279     0.71732257     0.09849460
c     0.86021730     0.28267736     0.90150539
c     0.87089340     0.67460883     0.32201742
c     0.12910669     0.32539109     0.67798256
c     0.13704206     0.89973190     0.23680029
c     0.86295803     0.10026802     0.76319969
o     0.55448778     0.26730139     0.38868226
o     0.44551231     0.73269854     0.61131773
h     0.47238127     0.20798284     0.15028603
h     0.52761882     0.79201709     0.84971396
h     0.75541311     0.43894342     0.26175366
h     0.24458698     0.56105651     0.73824633
h     0.62602824     0.62510458     0.49335090
h     0.37397185     0.37489535     0.50664909
h     0.15676697     0.59043929     0.96672666
h     0.84323312     0.40956064     0.03327333
h     0.89740779     0.84058524     0.43606771
h     0.10259230     0.15941469     0.56393228
h     0.36213869     0.92132839     0.03620860
h     0.63786141     0.07867154     0.96379139
h     0.42822409     0.20469956     0.37269122
h     0.57177601     0.79530037     0.62730876
h     0.69072840     0.16295345     0.45529506
h     0.30927169     0.83704648     0.54470493

K_POINTS automatic
2 2 2 1 1 1

CELL_PARAMETERS cubic
    9.428152000000     0.285910000000    -0.171525000000
    4.538088000000    14.623354000000     0.699915000000
    3.220821000000     6.158858000000    18.180146000000
