&control
 title='crystal',
 prefix='crystal',
 pseudo_dir='.',
 calculation='vc-relax',
/
&system
 ibrav=0,
 celldm(1)=1.0,
 nat=    84,
 ntyp=  3,
 ecutwfc=60.0,
 ecutrho=600.0,
 xdm=.true.,
 xdm_a1=0.4073,
 xdm_a2=2.4150,
/
&electrons
 conv_thr = 1d-8,
/
&ions
/
&cell
/
ATOMIC_SPECIES
h      1.007940 h.UPF
c     12.010700 c.UPF
o     15.999400 o.UPF

ATOMIC_POSITIONS crystal
o     0.29829320     0.14513648     0.81371911
o     0.79829320     0.35486352     0.18628090
o     0.70170679     0.64513649     0.68628091
o     0.20170679     0.85486354     0.31371910
o     0.14556074     0.85305829     0.87029567
o     0.64556074     0.64694171     0.12970433
o     0.85443925     0.35305830     0.62970434
o     0.35443925     0.14694172     0.37029567
o     0.12384277     0.54618812     0.04428476
o     0.62384276     0.95381188     0.95571525
o     0.87615722     0.04618813     0.45571526
o     0.37615722     0.45381190     0.54428475
o     0.49083577     0.07114423     0.11899223
o     0.99083577     0.42885577     0.88100778
o     0.50916422     0.57114424     0.38100778
o     0.00916422     0.92885579     0.61899223
h     0.52626987     0.11560696     0.18004739
h     0.02626987     0.38439304     0.81995262
h     0.47373012     0.61560698     0.31995263
h     0.97373012     0.88439305     0.68004738
o     0.41030536     0.74760156     0.22428340
o     0.91030535     0.75239844     0.77571660
o     0.58969463     0.24760157     0.27571661
o     0.08969463     0.25239845     0.72428340
c     0.35225026     0.85860240     0.06539825
c     0.85225025     0.64139760     0.93460176
c     0.64774973     0.35860241     0.43460176
c     0.14774974     0.14139762     0.56539825
c     0.36507554     0.00969074     0.97249652
c     0.86507554     0.49030926     0.02750349
c     0.63492445     0.50969076     0.52750349
c     0.13492445     0.99030927     0.47249652
h     0.42642509     0.14250880     0.95522473
h     0.92642509     0.35749120     0.04477527
h     0.57357490     0.64250881     0.54477528
h     0.07357490     0.85749122     0.45522473
c     0.29669330     0.00568530     0.90482245
c     0.79669329     0.49431470     0.09517756
c     0.70330669     0.50568532     0.59517756
c     0.20330670     0.99431471     0.40482244
c     0.21554787     0.85364609     0.93084579
c     0.71554786     0.64635391     0.06915422
c     0.78445212     0.35364611     0.56915423
c     0.28445213     0.14635392     0.43084578
c     0.20424481     0.69551594     0.02235991
c     0.70424480     0.80448406     0.97764010
c     0.79575518     0.19551596     0.47764010
c     0.29575519     0.30448407     0.52235990
c     0.27225682     0.69566842     0.08979509
c     0.77225682     0.80433158     0.91020491
c     0.72774317     0.19566844     0.41020492
c     0.22774317     0.30433159     0.58979509
h     0.26377508     0.57738067     0.16139790
h     0.76377507     0.92261933     0.83860211
h     0.73622491     0.07738069     0.33860211
h     0.23622491     0.42261934     0.66139789
c     0.41940228     0.88314777     0.14184139
c     0.91940227     0.61685223     0.85815862
c     0.58059771     0.38314778     0.35815862
c     0.08059772     0.11685224     0.64184139
h     0.35612661     0.25112215     0.79592670
h     0.85612661     0.24887785     0.20407331
h     0.64387338     0.75112216     0.70407332
h     0.14387338     0.74887786     0.29592669
h     0.15468526     0.00250479     0.81228191
h     0.65468525     0.49749521     0.18771809
h     0.84531473     0.50250481     0.68771810
h     0.34531474     0.99749522     0.31228191
h     0.08546334     0.55726153     0.98629502
h     0.58546333     0.94273847     0.01370499
h     0.91453665     0.05726154     0.51370499
h     0.41453665     0.44273849     0.48629502
o     0.44362882     0.38868679     0.73074037
o     0.94362881     0.11131321     0.26925964
o     0.55637117     0.88868681     0.76925964
o     0.05637117     0.61131322     0.23074037
h     0.48107644     0.59542433     0.74818756
h     0.98107643     0.90457567     0.25181245
h     0.51892355     0.09542435     0.75181245
h     0.01892355     0.40457568     0.24818756
h     0.42238198     0.42011364     0.66273684
h     0.92238197     0.07988636     0.33726317
h     0.57761801     0.92011365     0.83726317
h     0.07761802     0.57988638     0.16273683

K_POINTS automatic
2 2 2 1 1 1

CELL_PARAMETERS cubic
   28.671247000000     0.000000000000     0.000000000000
    0.000000000000     7.242395000000     0.000000000000
    0.000000000000     0.000000000000    25.795326000000
