&control
 title='crystal',
 prefix='crystal',
 pseudo_dir='.',
 calculation='vc-relax',
/
&system
 ibrav=0,
 celldm(1)=1.0,
 nat=    42,
 ntyp=  3,
 ecutwfc=60.0,
 ecutrho=600.0,
 xdm=.true.,
 xdm_a1=0.4073,
 xdm_a2=2.4150,
/
&electrons
 conv_thr = 1d-8,
/
&ions
/
&cell
/
ATOMIC_SPECIES
h      1.007940 h.UPF
c     12.010700 c.UPF
o     15.999400 o.UPF

ATOMIC_POSITIONS crystal
o     0.63691005     0.96135531     0.49652470
o     0.36308990     0.46135530     0.50347528
o     0.54706288     0.76457593     0.38840861
o     0.45293708     0.26457592     0.61159137
o     0.82337571     0.16701775     0.11006437
o     0.17662425     0.66701774     0.88993561
o     0.48271536     0.99699589     0.93366770
o     0.51728460     0.49699589     0.06633229
o     0.61052342     0.75104969     0.95517006
o     0.38947653     0.25104968     0.04482992
c     0.21829968     0.90209368     0.27377533
c     0.78170028     0.40209367     0.72622466
c     0.14586618     0.02321171     0.25229380
c     0.85413377     0.52321170     0.74770619
c     0.89736492     0.04945712     0.13442240
c     0.10263504     0.54945711     0.86557759
c     0.71590349     0.95848985     0.03675038
c     0.28409646     0.45848984     0.96324960
c     0.79154991     0.83718250     0.05789783
c     0.20845004     0.33718249     0.94210216
c     0.04102974     0.80953173     0.17914927
c     0.95897021     0.30953172     0.82085072
c     0.47974669     0.86805385     0.39050071
c     0.52025326     0.36805384     0.60949928
h     0.80637681     0.93005493     0.56047825
h     0.19362314     0.43005492     0.43952173
h     0.28067423     0.09593752     0.33272398
h     0.71932573     0.59593751     0.66727601
h     0.64404808     0.17325113     0.99268885
h     0.35595187     0.67325112     0.00731113
h     0.34861571     0.93592862     0.83269789
h     0.65138424     0.43592861     0.16730209
h     0.68130930     0.67080686     0.97484555
h     0.31869065     0.17080685     0.02515444
h     0.10139171     0.71599837     0.19889701
h     0.89860824     0.21599836     0.80110298
o     0.91749956     0.37191168     0.34820933
o     0.08250039     0.87191167     0.65179065
h     0.91141717     0.29061156     0.28219980
h     0.08858279     0.79061155     0.71780018
h     0.92774204     0.35528455     0.49457915
h     0.07225792     0.85528454     0.50542084

K_POINTS automatic
2 2 2 1 1 1

CELL_PARAMETERS cubic
   12.501668000000     0.000000000000    -1.219069000000
    0.000000000000    20.870408000000     0.000000000000
   -6.399687000000     0.000000000000    11.243443000000
