%nprocs=4
%mem=4GB
#p pbepbe aug-cc-pvtz output=wfx scf=(conver=6) int=(grid=ultrafine)

title

0 1
F -1.145818191000000 -3.359684831000000 -0.653874130000000
F -1.562370406000000 -4.674370350000000 -0.887547027000000

01methaneF2105_2.wfx

