%nprocs=4
%mem=4GB
#p pbepbe aug-cc-pvtz output=wfx scf=(conver=6) int=(grid=ultrafine)

title

0 1
F -1.101049679000000 -3.218068940000000 -0.628143863000000
F -1.517601894000000 -4.532754459000000 -0.861816760000000

01methaneF2100_2.wfx

