%nprocs=4
%mem=4GB
#p pbepbe aug-cc-pvtz output=wfx scf=(conver=6) int=(grid=ultrafine)

title

0 1
F -0.919288765000000 -2.643106031000000 -0.523678545000000
F -1.335840980000000 -3.957791550000000 -0.757351442000000

01methaneF2080_2.wfx

