%nprocs=4
%mem=4GB
#p pbepbe aug-cc-pvtz output=wfx scf=(conver=6) int=(grid=ultrafine)

title

0 1
C -0.029223000000000 -0.304334000000000 -0.044139000000000
H -1.013963000000000 0.140625000000000 -0.150390000000000
H -0.061190000000000 -1.086463000000000 0.708351000000000
H 0.678304000000000 0.459656000000000 0.262535000000000
H 0.286077000000000 -0.724543000000000 -0.994403000000000

02methaneCl2090_1.wfx

