%nprocs=4
%mem=4GB
#p pbepbe aug-cc-pvtz output=wfx scf=(conver=6) int=(grid=ultrafine)

title

0 1
CL -1.811091049000000 -2.227363603000000 -0.817226217000000
CL -3.113520049000000 -3.634085603000000 -1.381769217000000

02methaneCl2080_2.wfx

