%nprocs=4
%mem=4GB
#p pbepbe aug-cc-pvtz output=wfx scf=(conver=6) int=(grid=ultrafine)

title

0 1
CL -1.925213158000000 -2.350552710000000 -0.866727095000000
CL -3.227642158000000 -3.757274710000000 -1.431270095000000

02methaneCl2085_2.wfx

