%nprocs=4
%mem=4GB
#p pbepbe aug-cc-pvtz output=wfx scf=(conver=6) int=(grid=ultrafine)

title

0 1
CL -2.150400484000000 -2.593631165000000 -0.964402913000000
CL -3.452829484000000 -4.000353165000000 -1.528945913000000

02methaneCl2095_2.wfx

