%nprocs=4
%mem=4GB
#p pbepbe aug-cc-pvtz output=wfx scf=(conver=6) int=(grid=ultrafine)

title

0 1
CL -4.424274683000000 -5.048164617000000 -1.950704081000000
CL -5.726703683000000 -6.454886617000000 -2.515247081000000

02methaneCl2200_2.wfx

