%nprocs=4
%mem=4GB
#p pbepbe aug-cc-pvtz output=wfx scf=(conver=6) int=(grid=ultrafine)

title

0 1
BR -1.894944789000000 -4.637104180000000 -0.878136972000000
BR -2.755615609000000 -6.721253883000000 -1.250794423000000

03methaneBr2150_2.wfx

