%nprocs=4
%mem=4GB
#p pbepbe aug-cc-pvtz output=wfx scf=(conver=6) int=(grid=ultrafine)

title

0 1
C 0.050957671000000 0.055164191000000 -0.032925885000000
H -1.024445640000000 0.072269161000000 0.117546172000000
H 0.508348983000000 -0.636912672000000 0.667869998000000
H 0.450713107000000 1.050360674000000 0.135265329000000
H 0.274236028000000 -0.252091989000000 -1.050343280000000

03methaneBr2085_1.wfx

