%nprocs=4
%mem=4GB
#p pbepbe aug-cc-pvtz output=wfx scf=(conver=6) int=(grid=ultrafine)

title

0 1
BR -1.061552131000000 -2.625940192000000 -0.516359021000000
BR -1.922222951000000 -4.710089895000000 -0.889016472000000

03methaneBr2085_2.wfx

