%nprocs=4
%mem=4GB
#p pbepbe aug-cc-pvtz output=wfx scf=(conver=6) int=(grid=ultrafine)

title

0 1
BR -0.994989432000000 -2.465309424000000 -0.487463977000000
BR -1.855660252000000 -4.549459127000000 -0.860121428000000

03methaneBr2080_2.wfx

