%nprocs=4
%mem=4GB
#p pbepbe aug-cc-pvtz output=wfx scf=(conver=6) int=(grid=ultrafine)

title

0 1
C -0.032603000000000 -0.245329000000000 -0.035933000000000
I -1.981871883000000 -2.198447298000000 -0.995055871000000
I -3.756750883000000 -3.975452298000000 -1.867877871000000
H -0.980553000000000 0.254481000000000 -0.212468000000000
H -0.160128000000000 -1.020226000000000 0.714308000000000
H 0.692193000000000 0.480189000000000 0.320357000000000
H 0.328323000000000 -0.685520000000000 -0.960895000000000

04methaneI2080.wfx

