%nprocs=4
%mem=4GB
#p pbepbe aug-cc-pvtz output=wfx scf=(conver=6) int=(grid=ultrafine)

title

0 1
C 0.005918650000000 -0.003496527000000 1.853878993000000
F -1.172542855000000 0.674817567000000 1.614587488000000
H 0.830709843000000 0.546048289000000 1.407962789000000
H -0.056058041000000 -0.993747823000000 1.410355380000000
H 0.156078035000000 -0.088328739000000 2.927069055000000
C 0.347002810000000 -0.199547357000000 -3.430807984000000
H 0.266632512000000 -0.154111429000000 -4.512307896000000
H -0.511812799000000 -0.724516051000000 -3.024771713000000
H 1.257744054000000 -0.725157640000000 -3.159935450000000
H 0.372604362000000 0.807216874000000 -3.026144667000000

05fluoromethanemethane150.wfx

