%nprocs=4
%mem=4GB
#p pbepbe aug-cc-pvtz output=wfx scf=(conver=6) int=(grid=ultrafine)

title

0 1
C 0.632758458000000 -0.363945430000000 -4.947193697000000
H 0.552388160000000 -0.318509502000000 -6.028693609000000
H -0.226057151000000 -0.888914124000000 -4.541157426000000
H 1.543499702000000 -0.889555713000000 -4.676321163000000
H 0.658360010000000 0.642818801000000 -4.542530380000000

05fluoromethanemethane200_2.wfx

