%nprocs=4
%mem=4GB
#p pbepbe aug-cc-pvtz output=wfx scf=(conver=6) int=(grid=ultrafine)

title

0 1
C 0.078965683000000 -0.045342924000000 -2.008447045000000
H -0.001404615000000 0.000093004000000 -3.089946957000000
H -0.779849926000000 -0.570311618000000 -1.602410774000000
H 0.989706927000000 -0.570953207000000 -1.737574511000000
H 0.104567235000000 0.961421307000000 -1.603783728000000

05fluoromethanemethane105_2.wfx

