%nprocs=4
%mem=4GB
#p pbepbe aug-cc-pvtz output=wfx scf=(conver=6) int=(grid=ultrafine)

title

0 1
C -0.016240801000000 0.009430315000000 -1.503226051000000
H -0.096611099000000 0.054866243000000 -2.584725963000000
H -0.875056410000000 -0.515538379000000 -1.097189780000000
H 0.894500443000000 -0.516179968000000 -1.232353517000000
H 0.009360751000000 1.016194546000000 -1.098562734000000

05fluoromethanemethane090_2.wfx

