%nprocs=4
%mem=4GB
#p pbepbe aug-cc-pvtz output=wfx scf=(conver=6) int=(grid=ultrafine)

title

0 1
C 0.200245247000000 -0.115116267000000 -2.652026969000000
H 0.119874949000000 -0.069680339000000 -3.733526881000000
H -0.658570362000000 -0.640084961000000 -2.245990698000000
H 1.110986491000000 -0.640726550000000 -2.381154435000000
H 0.225846799000000 0.891647964000000 -2.247363652000000

05fluoromethanemethane125_2.wfx

