%nprocs=4
%mem=4GB
#p pbepbe aug-cc-pvtz output=wfx scf=(conver=6) int=(grid=ultrafine)

title

0 1
C 0.320408328000000 -0.179279667000000 -2.636746790000000
H 0.248377295000000 -0.147626571000000 -3.719371215000000
H -0.545983173000000 -0.691970348000000 -2.230778167000000
H 1.225312989000000 -0.708112890000000 -2.352652097000000
H 0.350206718000000 0.833019809000000 -2.246008106000000

06chloromethanemethane125_2.wfx

