%nprocs=4
%mem=4GB
#p pbepbe aug-cc-pvtz output=wfx scf=(conver=6) int=(grid=ultrafine)

title

0 1
C 0.549336098000000 -0.308708582000000 -3.394878996000000
H 0.477305065000000 -0.277055486000000 -4.477503421000000
H -0.317055403000000 -0.821399263000000 -2.988910373000000
H 1.454240759000000 -0.837541805000000 -3.110784303000000
H 0.579134488000000 0.703590894000000 -3.004140312000000

06chloromethanemethane150_2.wfx

