%nprocs=4
%mem=4GB
#p pbepbe aug-cc-pvtz output=wfx scf=(conver=6) int=(grid=ultrafine)

title

0 1
C -0.027008532000000 0.017139437000000 -1.486218345000000
H -0.099039565000000 0.048792533000000 -2.568842770000000
H -0.893400033000000 -0.495551244000000 -1.080249722000000
H 0.877896129000000 -0.511693786000000 -1.202123652000000
H 0.002789858000000 1.029438913000000 -1.095479661000000

06chloromethanemethane090_2.wfx

