%nprocs=4
%mem=4GB
#p pbepbe aug-cc-pvtz output=wfx scf=(conver=6) int=(grid=ultrafine)

title

0 1
C 0.052125307000000 -0.031919514000000 1.840660293000000
Cl -1.491715802000000 0.847207403000000 1.755184684000000
H 0.811909110000000 0.554725768000000 1.338264649000000
H -0.067811208000000 -0.989274688000000 1.347792712000000
H 0.311197296000000 -0.173143788000000 2.883203118000000
C -0.082327652000000 0.048415213000000 -1.303019923000000
H -0.154358685000000 0.080068309000000 -2.385644348000000
H -0.948719153000000 -0.464275468000000 -0.897051300000000
H 0.822577009000000 -0.480418010000000 -1.018925230000000
H -0.052529262000000 1.060714689000000 -0.912281239000000

06chloromethanemethane085.wfx

