%nprocs=4
%mem=4GB
#p pbepbe aug-cc-pvtz output=wfx scf=(conver=6) int=(grid=ultrafine)

title

0 1
C 0.052125307000000 -0.031919514000000 1.840660293000000
Cl -1.491715802000000 0.847207403000000 1.755184684000000
H 0.811909110000000 0.554725768000000 1.338264649000000
H -0.067811208000000 -0.989274688000000 1.347792712000000
H 0.311197296000000 -0.173143788000000 2.883203118000000
C 0.077602956000000 -0.042004770000000 -1.832656606000000
H 0.005571923000000 -0.010351674000000 -2.915281031000000
H -0.788788545000000 -0.554695451000000 -1.426687983000000
H 0.982507617000000 -0.570837993000000 -1.548561913000000
H 0.107401346000000 0.970294706000000 -1.441917922000000

06chloromethanemethane100.wfx

