%nprocs=4
%mem=4GB
#p pbepbe aug-cc-pvtz output=wfx scf=(conver=6) int=(grid=ultrafine)

title

0 1
C 0.052125307000000 -0.031919514000000 1.840660293000000
Cl -1.491715802000000 0.847207403000000 1.755184684000000
H 0.811909110000000 0.554725768000000 1.338264649000000
H -0.067811208000000 -0.989274688000000 1.347792712000000
H 0.311197296000000 -0.173143788000000 2.883203118000000
C 0.127820939000000 -0.070396516000000 -1.998961771000000
H 0.055789906000000 -0.038743420000000 -3.081586196000000
H -0.738570562000000 -0.583087197000000 -1.592993148000000
H 1.032725600000000 -0.599229739000000 -1.714867078000000
H 0.157619329000000 0.941902960000000 -1.608223087000000

06chloromethanemethane105.wfx

