%nprocs=4
%mem=4GB
#p pbepbe aug-cc-pvtz output=wfx scf=(conver=6) int=(grid=ultrafine)

title

0 1
C 0.127820939000000 -0.070396516000000 -1.998961771000000
H 0.055789906000000 -0.038743420000000 -3.081586196000000
H -0.738570562000000 -0.583087197000000 -1.592993148000000
H 1.032725600000000 -0.599229739000000 -1.714867078000000
H 0.157619329000000 0.941902960000000 -1.608223087000000

06chloromethanemethane105_2.wfx

