%nprocs=4
%mem=4GB
#p pbepbe aug-cc-pvtz output=wfx scf=(conver=6) int=(grid=ultrafine)

title

0 1
C 0.052125307000000 -0.031919514000000 1.840660293000000
Cl -1.491715802000000 0.847207403000000 1.755184684000000
H 0.811909110000000 0.554725768000000 1.338264649000000
H -0.067811208000000 -0.989274688000000 1.347792712000000
H 0.311197296000000 -0.173143788000000 2.883203118000000
C 0.026139641000000 -0.012908950000000 -1.662227318000000
H -0.045891392000000 0.018744146000000 -2.744851743000000
H -0.840251860000000 -0.525599631000000 -1.256258695000000
H 0.931044302000000 -0.541742173000000 -1.378132625000000
H 0.055938031000000 0.999390526000000 -1.271488634000000

06chloromethanemethane095.wfx

