%nprocs=4
%mem=4GB
#p pbepbe aug-cc-pvtz output=wfx scf=(conver=6) int=(grid=ultrafine)

title

0 1
C -0.000047553000000 -0.000418544000000 -5.514713708000000
H -0.000041101000000 -0.000229972000000 -6.600241638000000
H -0.885696024000000 -0.511936554000000 -5.151433587000000
H 0.885690024000000 -0.511781527000000 -5.151423214000000
H -0.000138929000000 1.022214906000000 -5.151147677000000

07trifluoromethanemethane200_2.wfx

