%nprocs=4
%mem=4GB
#p pbepbe aug-cc-pvtz output=wfx scf=(conver=6) int=(grid=ultrafine)

title

0 1
C -0.000005209000000 -0.000039061000000 -1.254630614000000
H 0.000001243000000 0.000149511000000 -2.340158544000000
H -0.885653680000000 -0.511557071000000 -0.891350493000000
H 0.885732368000000 -0.511402044000000 -0.891340120000000
H -0.000096585000000 1.022594389000000 -0.891064583000000

07trifluoromethanemethane080_2.wfx

