%nprocs=4
%mem=4GB
#p pbepbe aug-cc-pvtz output=wfx scf=(conver=6) int=(grid=ultrafine)

title

0 1
C -0.000008913000000 -0.000072255000000 -1.627270088000000
H -0.000002461000000 0.000116317000000 -2.712798018000000
H -0.885657384000000 -0.511590265000000 -1.263989967000000
H 0.885728664000000 -0.511435238000000 -1.263979594000000
H -0.000100289000000 1.022561195000000 -1.263704057000000

07trifluoromethanemethane090_2.wfx

