%nprocs=4
%mem=4GB
#p pbepbe aug-cc-pvtz output=wfx scf=(conver=6) int=(grid=ultrafine)

title

0 1
C -0.000028509000000 -0.000461929000000 2.158149022000000
Cl -1.454063734000000 0.838777303000000 1.616235012000000
Cl 1.454144531000000 0.838659727000000 1.616208515000000
Cl -0.000087400000000 -1.679795034000000 1.617802938000000
H 0.000005696000000 0.000267325000000 3.239305949000000
C -0.000022464000000 0.000378231000000 -1.651499012000000
H 0.000025224000000 -0.001490780000000 -2.737255066000000
H -0.885499646000000 -0.510355774000000 -1.286367491000000
H 0.885623974000000 -0.510205491000000 -1.286331063000000
H -0.000092607000000 1.023554627000000 -1.288986813000000

08trichloromethanemethane090.wfx

