%nprocs=4
%mem=4GB
#p pbepbe aug-cc-pvtz output=wfx scf=(conver=6) int=(grid=ultrafine)

title

0 1
C -0.000024470000000 0.000644345000000 -2.442662035000000
H 0.000023218000000 -0.001224666000000 -3.528418089000000
H -0.885501652000000 -0.510089660000000 -2.077530514000000
H 0.885621968000000 -0.509939377000000 -2.077494086000000
H -0.000094613000000 1.023820741000000 -2.080149836000000

08trichloromethanemethane110_2.wfx

