%nprocs=4
%mem=4GB
#p pbepbe aug-cc-pvtz output=wfx scf=(conver=6) int=(grid=ultrafine)

title

0 1
C -0.000021947000000 0.000309671000000 -1.447669242000000
H 0.000025741000000 -0.001559340000000 -2.533425296000000
H -0.885499129000000 -0.510424334000000 -1.082537721000000
H 0.885624491000000 -0.510274051000000 -1.082501293000000
H -0.000092090000000 1.023486067000000 -1.085157043000000

08trichloromethanemethane085_2.wfx

