%nprocs=4
%mem=4GB
#p pbepbe aug-cc-pvtz output=wfx scf=(conver=6) int=(grid=ultrafine)

title

0 1
C -0.000028509000000 -0.000461929000000 2.158149022000000
Cl -1.454063734000000 0.838777303000000 1.616235012000000
Cl 1.454144531000000 0.838659727000000 1.616208515000000
Cl -0.000087400000000 -1.679795034000000 1.617802938000000
H 0.000005696000000 0.000267325000000 3.239305949000000
C -0.000023477000000 0.000512590000000 -2.050951410000000
H 0.000024211000000 -0.001356421000000 -3.136707464000000
H -0.885500659000000 -0.510221415000000 -1.685819889000000
H 0.885622961000000 -0.510071132000000 -1.685783461000000
H -0.000093620000000 1.023688986000000 -1.688439211000000

08trichloromethanemethane100.wfx

