%nprocs=4
%mem=4GB
#p pbepbe aug-cc-pvtz output=wfx scf=(conver=6) int=(grid=ultrafine)

title

0 1
C -0.000022464000000 0.000378231000000 -1.651499012000000
H 0.000025224000000 -0.001490780000000 -2.737255066000000
H -0.885499646000000 -0.510355774000000 -1.286367491000000
H 0.885623974000000 -0.510205491000000 -1.286331063000000
H -0.000092607000000 1.023554627000000 -1.288986813000000

08trichloromethanemethane090_2.wfx

