%nprocs=4
%mem=4GB
#p pbepbe aug-cc-pvtz output=wfx scf=(conver=6) int=(grid=ultrafine)

title

0 1
C -0.000028509000000 -0.000461929000000 2.158149022000000
Cl -1.454063734000000 0.838777303000000 1.616235012000000
Cl 1.454144531000000 0.838659727000000 1.616208515000000
Cl -0.000087400000000 -1.679795034000000 1.617802938000000
H 0.000005696000000 0.000267325000000 3.239305949000000
C -0.000024470000000 0.000644345000000 -2.442662035000000
H 0.000023218000000 -0.001224666000000 -3.528418089000000
H -0.885501652000000 -0.510089660000000 -2.077530514000000
H 0.885621968000000 -0.509939377000000 -2.077494086000000
H -0.000094613000000 1.023820741000000 -2.080149836000000

08trichloromethanemethane110.wfx

