%nprocs=4
%mem=4GB
#p pbepbe aug-cc-pvtz output=wfx scf=(conver=6) int=(grid=ultrafine)

title

0 1
C -0.000022974000000 0.000445823000000 -1.852451243000000
H 0.000024714000000 -0.001423188000000 -2.938207297000000
H -0.885500156000000 -0.510288182000000 -1.487319722000000
H 0.885623464000000 -0.510137899000000 -1.487283294000000
H -0.000093117000000 1.023622219000000 -1.489939044000000

08trichloromethanemethane095_2.wfx

