%nprocs=4
%mem=4GB
#p pbepbe aug-cc-pvtz output=wfx scf=(conver=6) int=(grid=ultrafine)

title

0 1
C -0.000023477000000 0.000512590000000 -2.050951410000000
H 0.000024211000000 -0.001356421000000 -3.136707464000000
H -0.885500659000000 -0.510221415000000 -1.685819889000000
H 0.885622961000000 -0.510071132000000 -1.685783461000000
H -0.000093620000000 1.023688986000000 -1.688439211000000

08trichloromethanemethane100_2.wfx

