%nprocs=4
%mem=4GB
#p pbepbe aug-cc-pvtz output=wfx scf=(conver=6) int=(grid=ultrafine)

title

0 1
C -0.000028509000000 -0.000461929000000 2.158149022000000
Cl -1.454063734000000 0.838777303000000 1.616235012000000
Cl 1.454144531000000 0.838659727000000 1.616208515000000
Cl -0.000087400000000 -1.679795034000000 1.617802938000000
H 0.000005696000000 0.000267325000000 3.239305949000000
C -0.000021947000000 0.000309671000000 -1.447669242000000
H 0.000025741000000 -0.001559340000000 -2.533425296000000
H -0.885499129000000 -0.510424334000000 -1.082537721000000
H 0.885624491000000 -0.510274051000000 -1.082501293000000
H -0.000092090000000 1.023486067000000 -1.085157043000000

08trichloromethanemethane085.wfx

