%nprocs=4
%mem=4GB
#p pbepbe aug-cc-pvtz output=wfx scf=(conver=6) int=(grid=ultrafine)

title

0 1
C -0.000028509000000 -0.000461929000000 2.158149022000000
Cl -1.454063734000000 0.838777303000000 1.616235012000000
Cl 1.454144531000000 0.838659727000000 1.616208515000000
Cl -0.000087400000000 -1.679795034000000 1.617802938000000
H 0.000005696000000 0.000267325000000 3.239305949000000
C -0.000033043000000 0.001781404000000 -5.823159317000000
H 0.000014645000000 -0.000087607000000 -6.908915371000000
H -0.885510225000000 -0.508952601000000 -5.458027796000000
H 0.885613395000000 -0.508802318000000 -5.457991368000000
H -0.000103186000000 1.024957800000000 -5.460647118000000

08trichloromethanemethane200.wfx

