%nprocs=4
%mem=4GB
#p pbepbe aug-cc-pvtz output=wfx scf=(conver=6) int=(grid=ultrafine)

title

0 1
C -0.000028509000000 -0.000461929000000 2.158149022000000
Cl -1.454063734000000 0.838777303000000 1.616235012000000
Cl 1.454144531000000 0.838659727000000 1.616208515000000
Cl -0.000087400000000 -1.679795034000000 1.617802938000000
H 0.000005696000000 0.000267325000000 3.239305949000000
C -0.000028332000000 0.001156578000000 -3.965541535000000
H 0.000019356000000 -0.000712433000000 -5.051297589000000
H -0.885505514000000 -0.509577427000000 -3.600410014000000
H 0.885618106000000 -0.509427144000000 -3.600373586000000
H -0.000098475000000 1.024332974000000 -3.603029336000000

08trichloromethanemethane150.wfx

