%nprocs=4
%mem=4GB
#p pbepbe aug-cc-pvtz output=wfx scf=(conver=6) int=(grid=ultrafine)

title

0 1
C -0.000028509000000 -0.000461929000000 2.158149022000000
Cl -1.454063734000000 0.838777303000000 1.616235012000000
Cl 1.454144531000000 0.838659727000000 1.616208515000000
Cl -0.000087400000000 -1.679795034000000 1.617802938000000
H 0.000005696000000 0.000267325000000 3.239305949000000
C -0.000022974000000 0.000445823000000 -1.852451243000000
H 0.000024714000000 -0.001423188000000 -2.938207297000000
H -0.885500156000000 -0.510288182000000 -1.487319722000000
H 0.885623464000000 -0.510137899000000 -1.487283294000000
H -0.000093117000000 1.023622219000000 -1.489939044000000

08trichloromethanemethane095.wfx

