%nprocs=4
%mem=4GB
#p pbepbe aug-cc-pvtz output=wfx scf=(conver=6) int=(grid=ultrafine)

title

0 1
C -0.235364089000000 0.132907332000000 -2.153577716000000
F -0.366220278000000 0.236089777000000 -3.526920948000000
H -1.086557097000000 -0.409690453000000 -1.752811920000000
H 0.681720033000000 -0.400322942000000 -1.920697839000000
H -0.199563958000000 1.128640691000000 -1.721500631000000

09fluoromethanedimer100_2.wfx

