%nprocs=4
%mem=4GB
#p pbepbe aug-cc-pvtz output=wfx scf=(conver=6) int=(grid=ultrafine)

title

0 1
C -0.203850859000000 0.112909924000000 -1.843742252000000
F -0.334707048000000 0.216092369000000 -3.217085484000000
H -1.055043867000000 -0.429687861000000 -1.442976456000000
H 0.713233263000000 -0.420320350000000 -1.610862375000000
H -0.168050728000000 1.108643283000000 -1.411665167000000

09fluoromethanedimer090_2.wfx

