%nprocs=4
%mem=4GB
#p pbepbe aug-cc-pvtz output=wfx scf=(conver=6) int=(grid=ultrafine)

title

0 1
C -0.537785093000000 0.324815177000000 -5.126955922000000
F -0.668641282000000 0.427997622000000 -6.500299154000000
H -1.388978101000000 -0.217782608000000 -4.726190126000000
H 0.379299029000000 -0.208415097000000 -4.894076045000000
H -0.501984962000000 1.320548536000000 -4.694878837000000

09fluoromethanedimer200_2.wfx

