%nprocs=4
%mem=4GB
#p pbepbe aug-cc-pvtz output=wfx scf=(conver=6) int=(grid=ultrafine)

title

0 1
C 0.250211388000000 -0.141261283000000 2.278305952000000
F 0.055015573000000 -0.060688554000000 0.911538424000000
H 1.189310250000000 0.342978795000000 2.531275149000000
H 0.282891774000000 -1.187166859000000 2.570525524000000
H -0.571443596000000 0.358513497000000 2.783864006000000
C -0.250960033000000 0.142804079000000 -2.306915744000000
F -0.381816222000000 0.245986524000000 -3.680258976000000
H -1.102153041000000 -0.399793706000000 -1.906149948000000
H 0.666124089000000 -0.390426195000000 -2.074035867000000
H -0.215159902000000 1.138537438000000 -1.874838659000000

09fluoromethanedimer105.wfx

