%nprocs=4
%mem=4GB
#p pbepbe aug-cc-pvtz output=wfx scf=(conver=6) int=(grid=ultrafine)

title

0 1
C 0.250211388000000 -0.141261283000000 2.278305952000000
F 0.055015573000000 -0.060688554000000 0.911538424000000
H 1.189310250000000 0.342978795000000 2.531275149000000
H 0.282891774000000 -1.187166859000000 2.570525524000000
H -0.571443596000000 0.358513497000000 2.783864006000000
C -0.171682962000000 0.092497084000000 -1.527470165000000
F -0.302539151000000 0.195679529000000 -2.900813397000000
H -1.022875970000000 -0.450100701000000 -1.126704369000000
H 0.745401160000000 -0.440733190000000 -1.294590288000000
H -0.135882831000000 1.088230443000000 -1.095393080000000

09fluoromethanedimer080.wfx

