%nprocs=4
%mem=4GB
#p pbepbe aug-cc-pvtz output=wfx scf=(conver=6) int=(grid=ultrafine)

title

0 1
C -0.258353838000000 0.155153560000000 -2.470138140000000
CL -0.441010404000000 0.274567326000000 -4.236651075000000
H -1.107354194000000 -0.386535020000000 -2.070558298000000
H 0.661439937000000 -0.373960874000000 -2.251880569000000
H -0.222927168000000 1.156129213000000 -2.057249480000000

10chloromethanedimer100_2.wfx

