%nprocs=4
%mem=4GB
#p pbepbe aug-cc-pvtz output=wfx scf=(conver=6) int=(grid=ultrafine)

title

0 1
C -0.405954921000000 0.265659815000000 -4.152246112000000
CL -0.588611487000000 0.385073581000000 -5.918759047000000
H -1.254955277000000 -0.276028765000000 -3.752666270000000
H 0.513838854000000 -0.263454619000000 -3.933988541000000
H -0.370528251000000 1.266635468000000 -3.739357452000000

10chloromethanedimer150_2.wfx

