%nprocs=4
%mem=4GB
#p pbepbe aug-cc-pvtz output=wfx scf=(conver=6) int=(grid=ultrafine)

title

0 1
C 0.301152114000000 -0.173118099000000 2.764480435000000
Cl -0.024870834000000 -0.077582132000000 1.017161127000000
H 1.247502252000000 0.314602623000000 2.964654708000000
H 0.346131151000000 -1.217442126000000 3.048836143000000
H -0.501709016000000 0.328185531000000 3.291345152000000
C -0.213031701000000 0.121221697000000 -1.953632929000000
Cl -0.395688267000000 0.240635463000000 -3.720145864000000
H -1.062032057000000 -0.420466883000000 -1.554053087000000
H 0.706762074000000 -0.407892737000000 -1.735375358000000
H -0.177605031000000 1.122197350000000 -1.540744269000000

10chloromethanedimer085.wfx

