%nprocs=4
%mem=4GB
#p pbepbe aug-cc-pvtz output=wfx scf=(conver=6) int=(grid=ultrafine)

title

0 1
C -0.288207190000000 0.177504223000000 -2.810356247000000
CL -0.470863756000000 0.296917989000000 -4.576869182000000
H -1.137207546000000 -0.364184357000000 -2.410776405000000
H 0.631586585000000 -0.351610211000000 -2.592098676000000
H -0.252780520000000 1.178479876000000 -2.397467587000000

10chloromethanedimer110_2.wfx

