%nprocs=4
%mem=4GB
#p pbepbe aug-cc-pvtz output=wfx scf=(conver=6) int=(grid=ultrafine)

title

0 1
C 0.301152114000000 -0.173118099000000 2.764480435000000
Cl -0.024870834000000 -0.077582132000000 1.017161127000000
H 1.247502252000000 0.314602623000000 2.964654708000000
H 0.346131151000000 -1.217442126000000 3.048836143000000
H -0.501709016000000 0.328185531000000 3.291345152000000
C -0.258353838000000 0.155153560000000 -2.470138140000000
Cl -0.441010404000000 0.274567326000000 -4.236651075000000
H -1.107354194000000 -0.386535020000000 -2.070558298000000
H 0.661439937000000 -0.373960874000000 -2.251880569000000
H -0.222927168000000 1.156129213000000 -2.057249480000000

10chloromethanedimer100.wfx

