%nprocs=4
%mem=4GB
#p pbepbe aug-cc-pvtz output=wfx scf=(conver=6) int=(grid=ultrafine)

title

0 1
H -2.220477615000000 -2.144651057000000 4.844167237000000
C -1.413487766000000 -1.430759385000000 4.937384484000000
C -0.110168685000000 -1.874543062000000 5.156038116000000
C -1.676179444000000 -0.065544153000000 4.835877780000000
C 0.930080590000000 -0.953973499000000 5.273385585000000
H 0.093668613000000 -2.933792442000000 5.237626311000000
H -2.687239109000000 0.278733315000000 4.664906191000000
C -0.636629098000000 0.855615928000000 4.953673558000000
C 0.666410012000000 0.411027133000000 5.171687721000000
H 1.941605332000000 -1.297859422000000 5.440928350000000
H -0.840704812000000 1.914930841000000 4.874106391000000
H 1.473731650000000 1.125339083000000 5.261540601000000

11F3benben150_2.wfx

