%nprocs=4
%mem=4GB
#p pbepbe aug-cc-pvtz output=wfx scf=(conver=6) int=(grid=ultrafine)

title

0 1
H -1.973975072000000 -2.232842310000000 3.246003900000000
C -1.166985223000000 -1.518950638000000 3.339221147000000
C 0.136333858000000 -1.962734315000000 3.557874779000000
C -1.429676901000000 -0.153735406000000 3.237714443000000
C 1.176583133000000 -1.042164752000000 3.675222248000000
H 0.340171156000000 -3.021983695000000 3.639462974000000
H -2.440736566000000 0.190542062000000 3.066742854000000
C -0.390126555000000 0.767424675000000 3.355510221000000
C 0.912912555000000 0.322835880000000 3.573524384000000
H 2.188107875000000 -1.386050675000000 3.842765013000000
H -0.594202269000000 1.826739588000000 3.275943054000000
H 1.720234193000000 1.037147830000000 3.663377264000000

11F3benben100_2.wfx

