%nprocs=4
%mem=4GB
#p pbepbe aug-cc-pvtz output=wfx scf=(conver=6) int=(grid=ultrafine)

title

0 1
H -1.949295159000000 -2.241672046000000 3.085995281000000
C -1.142305310000000 -1.527780374000000 3.179212528000000
C 0.161013771000000 -1.971564051000000 3.397866160000000
C -1.404996988000000 -0.162565142000000 3.077705824000000
C 1.201263046000000 -1.050994488000000 3.515213629000000
H 0.364851069000000 -3.030813431000000 3.479454355000000
H -2.416056653000000 0.181712326000000 2.906734235000000
C -0.365446642000000 0.758594939000000 3.195501602000000
C 0.937592468000000 0.314006144000000 3.413515765000000
H 2.212787788000000 -1.394880411000000 3.682756394000000
H -0.569522356000000 1.817909852000000 3.115934435000000
H 1.744914106000000 1.028318094000000 3.503368645000000

11F3benben095_2.wfx

