%nprocs=4
%mem=4GB
#p pbepbe aug-cc-pvtz output=wfx scf=(conver=6) int=(grid=ultrafine)

title

0 1
F -1.914074031000000 -1.171208027000000 -0.110672709000000
H -2.180664731000000 1.398938308000000 -0.409375369000000
C 0.373446598000000 -0.776856318000000 0.213048434000000
C -0.901105553000000 -0.295713511000000 -0.038342168000000
C -1.178590841000000 1.051075840000000 -0.215317349000000
C -0.111215305000000 1.930588158000000 -0.127725254000000
C 1.187438475000000 1.517317904000000 0.123482484000000
C 1.394209663000000 0.156584712000000 0.290367081000000
F -0.346665186000000 3.242328465000000 -0.288420034000000
H 2.000411788000000 2.222856141000000 0.189254724000000
H 0.559538929000000 -1.828333656000000 0.360285918000000
F 2.639006191000000 -0.274021355000000 0.541291643000000
H -2.220477615000000 -2.144651057000000 4.844167237000000
H -2.687239109000000 0.278733315000000 4.664906191000000
C -0.110168685000000 -1.874543062000000 5.156038116000000
C -1.413487766000000 -1.430759385000000 4.937384484000000
C -1.676179444000000 -0.065544153000000 4.835877780000000
C -0.636629098000000 0.855615928000000 4.953673558000000
C 0.666410012000000 0.411027133000000 5.171687721000000
C 0.930080590000000 -0.953973499000000 5.273385585000000
H -0.840704812000000 1.914930841000000 4.874106391000000
H 1.473731650000000 1.125339083000000 5.261540601000000
H 0.093668613000000 -2.933792442000000 5.237626311000000
H 1.941605332000000 -1.297859422000000 5.440928350000000

11F3benben150.wfx

