%nprocs=4
%mem=4GB
#p pbepbe aug-cc-pvtz output=wfx scf=(conver=6) int=(grid=ultrafine)

title

0 1
F -1.914074031000000 -1.171208027000000 -0.110672709000000
H -2.180664731000000 1.398938308000000 -0.409375369000000
C 0.373446598000000 -0.776856318000000 0.213048434000000
C -0.901105553000000 -0.295713511000000 -0.038342168000000
C -1.178590841000000 1.051075840000000 -0.215317349000000
C -0.111215305000000 1.930588158000000 -0.127725254000000
C 1.187438475000000 1.517317904000000 0.123482484000000
C 1.394209663000000 0.156584712000000 0.290367081000000
F -0.346665186000000 3.242328465000000 -0.288420034000000
H 2.000411788000000 2.222856141000000 0.189254724000000
H 0.559538929000000 -1.828333656000000 0.360285918000000
F 2.639006191000000 -0.274021355000000 0.541291643000000
H -1.949295159000000 -2.241672046000000 3.085995281000000
H -2.416056653000000 0.181712326000000 2.906734235000000
C 0.161013771000000 -1.971564051000000 3.397866160000000
C -1.142305310000000 -1.527780374000000 3.179212528000000
C -1.404996988000000 -0.162565142000000 3.077705824000000
C -0.365446642000000 0.758594939000000 3.195501602000000
C 0.937592468000000 0.314006144000000 3.413515765000000
C 1.201263046000000 -1.050994488000000 3.515213629000000
H -0.569522356000000 1.817909852000000 3.115934435000000
H 1.744914106000000 1.028318094000000 3.503368645000000
H 0.364851069000000 -3.030813431000000 3.479454355000000
H 2.212787788000000 -1.394880411000000 3.682756394000000

11F3benben095.wfx

