%nprocs=4
%mem=4GB
#p pbepbe aug-cc-pvtz output=wfx scf=(conver=6) int=(grid=ultrafine)

title

0 1
H -1.875114307000000 -2.268211741000000 2.605054529000000
C -1.068124458000000 -1.554320069000000 2.698271776000000
C 0.235194623000000 -1.998103746000000 2.916925408000000
C -1.330816136000000 -0.189104837000000 2.596765072000000
C 1.275443898000000 -1.077534183000000 3.034272877000000
H 0.439031921000000 -3.057353126000000 2.998513603000000
H -2.341875801000000 0.155172631000000 2.425793483000000
C -0.291265790000000 0.732055244000000 2.714560850000000
C 1.011773320000000 0.287466449000000 2.932575013000000
H 2.286968640000000 -1.421420106000000 3.201815642000000
H -0.495341504000000 1.791370157000000 2.634993683000000
H 1.819094958000000 1.001778399000000 3.022427893000000

11F3benben080_2.wfx

