%nprocs=4
%mem=4GB
#p pbepbe aug-cc-pvtz output=wfx scf=(conver=6) int=(grid=ultrafine)

title

0 1
H -2.466565926000000 -2.056608004000000 6.439644960000000
C -1.659576077000000 -1.342716332000000 6.532862207000000
C -0.356256996000000 -1.786500009000000 6.751515839000000
C -1.922267755000000 0.022498900000000 6.431355503000000
C 0.683992279000000 -0.865930446000000 6.868863308000000
H -0.152419698000000 -2.845749389000000 6.833104034000000
H -2.933327420000000 0.366776368000000 6.260383914000000
C -0.882717409000000 0.943658981000000 6.549151281000000
C 0.420321701000000 0.499070186000000 6.767165444000000
H 1.695517021000000 -1.209816369000000 7.036406073000000
H -1.086793123000000 2.002973894000000 6.469584114000000
H 1.227643339000000 1.213382136000000 6.857018324000000

11F3benben200_2.wfx

