%nprocs=4
%mem=4GB
#p pbepbe aug-cc-pvtz output=wfx scf=(conver=6) int=(grid=ultrafine)

title

0 1
H -1.924585906000000 -2.250512280000000 2.925796434000000
C -1.117596057000000 -1.536620608000000 3.019013681000000
C 0.185723024000000 -1.980404285000000 3.237667313000000
C -1.380287735000000 -0.171405376000000 2.917506977000000
C 1.225972299000000 -1.059834722000000 3.355014782000000
H 0.389560322000000 -3.039653665000000 3.319255508000000
H -2.391347400000000 0.172872092000000 2.746535388000000
C -0.340737389000000 0.749754705000000 3.035302755000000
C 0.962301721000000 0.305165910000000 3.253316918000000
H 2.237497041000000 -1.403720645000000 3.522557547000000
H -0.544813103000000 1.809069618000000 2.955735588000000
H 1.769623359000000 1.019477860000000 3.343169798000000

11F3benben090_2.wfx

