%nprocs=4
%mem=4GB
#p pbepbe aug-cc-pvtz output=wfx scf=(conver=6) int=(grid=ultrafine)

title

0 1
F -1.914074031000000 -1.171208027000000 -0.110672709000000
H -2.180664731000000 1.398938308000000 -0.409375369000000
C 0.373446598000000 -0.776856318000000 0.213048434000000
C -0.901105553000000 -0.295713511000000 -0.038342168000000
C -1.178590841000000 1.051075840000000 -0.215317349000000
C -0.111215305000000 1.930588158000000 -0.127725254000000
C 1.187438475000000 1.517317904000000 0.123482484000000
C 1.394209663000000 0.156584712000000 0.290367081000000
F -0.346665186000000 3.242328465000000 -0.288420034000000
H 2.000411788000000 2.222856141000000 0.189254724000000
H 0.559538929000000 -1.828333656000000 0.360285918000000
F 2.639006191000000 -0.274021355000000 0.541291643000000
H -1.998673344000000 -2.224006005000000 3.406131549000000
H -2.465434838000000 0.199378367000000 3.226870503000000
C 0.111635586000000 -1.953898010000000 3.718002428000000
C -1.191683495000000 -1.510114333000000 3.499348796000000
C -1.454375173000000 -0.144899101000000 3.397842092000000
C -0.414824827000000 0.776260980000000 3.515637870000000
C 0.888214283000000 0.331672185000000 3.733652033000000
C 1.151884861000000 -1.033328447000000 3.835349897000000
H -0.618900541000000 1.835575893000000 3.436070703000000
H 1.695535921000000 1.045984135000000 3.823504913000000
H 0.315472884000000 -3.013147390000000 3.799590623000000
H 2.163409603000000 -1.377214370000000 4.002892662000000

11F3benben105.wfx

