%nprocs=4
%mem=4GB
#p pbepbe aug-cc-pvtz output=wfx scf=(conver=6) int=(grid=ultrafine)

title

0 1
H -1.681768153000000 -1.327509403000000 4.049036705000000
C -0.849516138000000 -0.644476032000000 4.156011862000000
C 0.446975552000000 -1.140418694000000 4.290696505000000
C -1.073692990000000 0.731957984000000 4.166712700000000
C 1.518606040000000 -0.260224235000000 4.437401251000000
H 0.621128394000000 -2.208214658000000 4.284611314000000
H -2.079622950000000 1.117127582000000 4.064729111000000
C -0.001920347000000 1.612003874000000 4.313537576000000
C 1.293868618000000 1.115661932000000 4.448762548000000
H 2.523877863000000 -0.645223871000000 4.541017494000000
H -0.176152661000000 2.679328109000000 4.321292583000000
H 2.125080175000000 1.798155021000000 4.560342483000000

12F6benben125_2.wfx

