%nprocs=4
%mem=4GB
#p pbepbe aug-cc-pvtz output=wfx scf=(conver=6) int=(grid=ultrafine)

title

0 1
H -1.720607618000000 -1.312553849000000 3.205985240000000
C -0.888355603000000 -0.629520478000000 3.312960397000000
C 0.408136087000000 -1.125463140000000 3.447645040000000
C -1.112532455000000 0.746913538000000 3.323661235000000
C 1.479766575000000 -0.245268681000000 3.594349786000000
H 0.582288929000000 -2.193259104000000 3.441559849000000
H -2.118462415000000 1.132083136000000 3.221677646000000
C -0.040759812000000 1.626959428000000 3.470486111000000
C 1.255029153000000 1.130617486000000 3.605711083000000
H 2.485038398000000 -0.630268317000000 3.697966029000000
H -0.214992126000000 2.694283663000000 3.478241118000000
H 2.086240710000000 1.813110575000000 3.717291018000000

12F6benben100_2.wfx

