%nprocs=4
%mem=4GB
#p pbepbe aug-cc-pvtz output=wfx scf=(conver=6) int=(grid=ultrafine)

title

0 1
H -1.712795326000000 -1.315562056000000 3.375559267000000
C -0.880543311000000 -0.632528685000000 3.482534424000000
C 0.415948379000000 -1.128471347000000 3.617219067000000
C -1.104720163000000 0.743905331000000 3.493235262000000
C 1.487578867000000 -0.248276888000000 3.763923813000000
H 0.590101221000000 -2.196267311000000 3.611133876000000
H -2.110650123000000 1.129074929000000 3.391251673000000
C -0.032947520000000 1.623951221000000 3.640060138000000
C 1.262841445000000 1.127609279000000 3.775285110000000
H 2.492850690000000 -0.633276524000000 3.867540056000000
H -0.207179834000000 2.691275456000000 3.647815145000000
H 2.094053002000000 1.810102368000000 3.886865045000000

12F6benben105_2.wfx

