%nprocs=4
%mem=4GB
#p pbepbe aug-cc-pvtz output=wfx scf=(conver=6) int=(grid=ultrafine)

title

0 1
H -1.736305009000000 -1.306509400000000 2.865256849000000
C -0.904052994000000 -0.623476029000000 2.972232006000000
C 0.392438696000000 -1.119418691000000 3.106916649000000
C -1.128229846000000 0.752957987000000 2.982932844000000
C 1.464069184000000 -0.239224232000000 3.253621395000000
H 0.566591538000000 -2.187214655000000 3.100831458000000
H -2.134159806000000 1.138127585000000 2.880949255000000
C -0.056457203000000 1.633003877000000 3.129757720000000
C 1.239331762000000 1.136661935000000 3.264982692000000
H 2.469341007000000 -0.624223868000000 3.357237638000000
H -0.230689517000000 2.700328112000000 3.137512727000000
H 2.070543319000000 1.819155024000000 3.376562627000000

12F6benben090_2.wfx

