%nprocs=4
%mem=4GB
#p pbepbe aug-cc-pvtz output=wfx scf=(conver=6) int=(grid=ultrafine)

title

0 1
F -2.268328468000000 -1.958202889000000 -0.323025092000000
F -2.703690585000000 0.725550383000000 -0.253119040000000
C 0.039970416000000 -1.620649062000000 0.000627529000000
C -1.246714568000000 -1.122331457000000 -0.158188956000000
C -1.468960632000000 0.248281616000000 -0.123448223000000
C -0.404843176000000 1.120110725000000 0.068321788000000
C 0.882869160000000 0.622303553000000 0.223239994000000
C 1.104164281000000 -0.748842052000000 0.192245986000000
F -0.620157741000000 2.430732722000000 0.113060107000000
F 1.901232288000000 1.456424170000000 0.399377483000000
F 0.250821528000000 -2.933836485000000 -0.010169125000000
F 2.333223855000000 -1.227390582000000 0.354782679000000
H -1.728437943000000 -1.309538698000000 3.036019790000000
H -2.126292740000000 1.135098287000000 3.051712196000000
C 0.400305762000000 -1.122447989000000 3.277679590000000
C -0.896185928000000 -0.626505327000000 3.142994947000000
C -1.120362780000000 0.749928689000000 3.153695785000000
C -0.048590137000000 1.629974579000000 3.300520661000000
C 1.247198828000000 1.133632637000000 3.435745633000000
C 1.471936250000000 -0.242253530000000 3.424384336000000
H -0.222822451000000 2.697298814000000 3.308275668000000
H 2.078410385000000 1.816125726000000 3.547325568000000
H 0.574458604000000 -2.190243953000000 3.271594399000000
H 2.477208073000000 -0.627253166000000 3.528000579000000

12F6benben095.wfx

