%nprocs=4
%mem=4GB
#p pbepbe aug-cc-pvtz output=wfx scf=(conver=6) int=(grid=ultrafine)

title

0 1
H -1.728437943000000 -1.309538698000000 3.036019790000000
C -0.896185928000000 -0.626505327000000 3.142994947000000
C 0.400305762000000 -1.122447989000000 3.277679590000000
C -1.120362780000000 0.749928689000000 3.153695785000000
C 1.471936250000000 -0.242253530000000 3.424384336000000
H 0.574458604000000 -2.190243953000000 3.271594399000000
H -2.126292740000000 1.135098287000000 3.051712196000000
C -0.048590137000000 1.629974579000000 3.300520661000000
C 1.247198828000000 1.133632637000000 3.435745633000000
H 2.477208073000000 -0.627253166000000 3.528000579000000
H -0.222822451000000 2.697298814000000 3.308275668000000
H 2.078410385000000 1.816125726000000 3.547325568000000

12F6benben095_2.wfx

