%nprocs=4
%mem=4GB
#p pbepbe aug-cc-pvtz output=wfx scf=(conver=6) int=(grid=ultrafine)

title

0 1
H -1.752162035000000 -1.300403481000000 2.521063403000000
C -0.919910020000000 -0.617370110000000 2.628038560000000
C 0.376581670000000 -1.113312772000000 2.762723203000000
C -1.144086872000000 0.759063906000000 2.638739398000000
C 1.448212158000000 -0.233118313000000 2.909427949000000
H 0.550734512000000 -2.181108736000000 2.756638012000000
H -2.150016832000000 1.144233504000000 2.536755809000000
C -0.072314229000000 1.639109796000000 2.785564274000000
C 1.223474736000000 1.142767854000000 2.920789246000000
H 2.453483981000000 -0.618117949000000 3.013044192000000
H -0.246546543000000 2.706434031000000 2.793319281000000
H 2.054686293000000 1.825260943000000 3.032369181000000

12F6benben080_2.wfx

