%nprocs=4
%mem=4GB
#p pbepbe aug-cc-pvtz output=wfx scf=(conver=6) int=(grid=ultrafine)

title

0 1
F -2.268328468000000 -1.958202889000000 -0.323025092000000
F -2.703690585000000 0.725550383000000 -0.253119040000000
C 0.039970416000000 -1.620649062000000 0.000627529000000
C -1.246714568000000 -1.122331457000000 -0.158188956000000
C -1.468960632000000 0.248281616000000 -0.123448223000000
C -0.404843176000000 1.120110725000000 0.068321788000000
C 0.882869160000000 0.622303553000000 0.223239994000000
C 1.104164281000000 -0.748842052000000 0.192245986000000
F -0.620157741000000 2.430732722000000 0.113060107000000
F 1.901232288000000 1.456424170000000 0.399377483000000
F 0.250821528000000 -2.933836485000000 -0.010169125000000
F 2.333223855000000 -1.227390582000000 0.354782679000000
H -1.566827405000000 -1.371768577000000 6.543946624000000
H -1.964682202000000 1.072868408000000 6.559639030000000
C 0.561916300000000 -1.184677868000000 6.785606424000000
C -0.734575390000000 -0.688735206000000 6.650921781000000
C -0.958752242000000 0.687698810000000 6.661622619000000
C 0.113020401000000 1.567744700000000 6.808447495000000
C 1.408809366000000 1.071402758000000 6.943672467000000
C 1.633546788000000 -0.304483409000000 6.932311170000000
H -0.061211913000000 2.635068935000000 6.816202502000000
H 2.240020923000000 1.753895847000000 7.055252402000000
H 0.736069142000000 -2.252473832000000 6.779521233000000
H 2.638818611000000 -0.689483045000000 7.035927413000000

12F6benben200.wfx

