%nprocs=4
%mem=4GB
#p pbepbe aug-cc-pvtz output=wfx scf=(conver=6) int=(grid=ultrafine)

title

0 1
O 8.214051984999999 1.375995579000000 2.186377368000000
C 8.511006657999999 0.737453856000000 1.201317920000000
H 9.560742895000001 0.553642878000000 0.924524657000000
H 7.746632193000000 0.310466453000000 0.535977484000000

13chloromethanefmdh200_2.wfx

