%nprocs=4
%mem=4GB
#p pbepbe aug-cc-pvtz output=wfx scf=(conver=6) int=(grid=ultrafine)

title

0 1
C 0.179810349000000 -0.077197552000000 -0.118024640000000
Cl 1.722679479000000 0.399031247000000 0.628076100000000
H 0.130360699000000 -1.159076002000000 -0.155096513000000
H -0.630477191000000 0.314338739000000 0.485507040000000
H 0.134959164000000 0.335748179000000 -1.118887999000000
O 5.021132775000000 0.895454957000000 1.419893847000000
C 5.318087448000000 0.256913234000000 0.434834399000000
H 6.367823685000000 0.073102256000000 0.158041136000000
H 4.553712983000000 -0.170074169000000 -0.230506037000000

13chloromethanefmdh100.wfx

