%nprocs=4
%mem=4GB
#p pbepbe aug-cc-pvtz output=wfx scf=(conver=6) int=(grid=ultrafine)

title

0 1
O 5.370559065000000 0.948044301000000 1.503776174000000
C 5.667513738000000 0.309502578000000 0.518716726000000
H 6.717249975000000 0.125691600000000 0.241923463000000
H 4.903139273000000 -0.117484825000000 -0.146623710000000

13chloromethanefmdh110_2.wfx

