%nprocs=4
%mem=4GB
#p pbepbe aug-cc-pvtz output=wfx scf=(conver=6) int=(grid=ultrafine)

title

0 1
C 0.179810349000000 -0.077197552000000 -0.118024640000000
Cl 1.722679479000000 0.399031247000000 0.628076100000000
H 0.130360699000000 -1.159076002000000 -0.155096513000000
H -0.630477191000000 0.314338739000000 0.485507040000000
H 0.134959164000000 0.335748179000000 -1.118887999000000
O 5.370559065000000 0.948044301000000 1.503776174000000
C 5.667513738000000 0.309502578000000 0.518716726000000
H 6.717249975000000 0.125691600000000 0.241923463000000
H 4.903139273000000 -0.117484825000000 -0.146623710000000

13chloromethanefmdh110.wfx

