%nprocs=4
%mem=4GB
#p pbepbe aug-cc-pvtz output=wfx scf=(conver=6) int=(grid=ultrafine)

title

0 1
C 0.179810349000000 -0.077197552000000 -0.118024640000000
Cl 1.722679479000000 0.399031247000000 0.628076100000000
H 0.130360699000000 -1.159076002000000 -0.155096513000000
H -0.630477191000000 0.314338739000000 0.485507040000000
H 0.134959164000000 0.335748179000000 -1.118887999000000
O 5.872366780000000 1.023567349000000 1.624238772000000
C 6.169321453000000 0.385025626000000 0.639179324000000
H 7.219057690000000 0.201214648000000 0.362386061000000
H 5.404946988000000 -0.041961777000000 -0.026161112000000

13chloromethanefmdh125.wfx

