%nprocs=4
%mem=4GB
#p pbepbe aug-cc-pvtz output=wfx scf=(conver=6) int=(grid=ultrafine)

title

0 1
C 0.179810349000000 -0.077197552000000 -0.118024640000000
Cl 1.722679479000000 0.399031247000000 0.628076100000000
H 0.130360699000000 -1.159076002000000 -0.155096513000000
H -0.630477191000000 0.314338739000000 0.485507040000000
H 0.134959164000000 0.335748179000000 -1.118887999000000
O 8.214051984999999 1.375995579000000 2.186377368000000
C 8.511006657999999 0.737453856000000 1.201317920000000
H 9.560742895000001 0.553642878000000 0.924524657000000
H 7.746632193000000 0.310466453000000 0.535977484000000

13chloromethanefmdh200.wfx

