%nprocs=4
%mem=4GB
#p pbepbe aug-cc-pvtz output=wfx scf=(conver=6) int=(grid=ultrafine)

title

0 1
C 0.081577546000000 -0.079576968000000 -0.122248507000000
Br 1.796548323000000 0.397128500000000 0.629679005000000
H 0.013255521000000 -1.160016154000000 -0.156779811000000
H -0.692267287000000 0.331402893000000 0.514488442000000
H 0.018180933000000 0.339827727000000 -1.118895585000000
O 4.930953050000000 0.859108748000000 1.366894329000000
C 5.400354635000000 0.253192130000000 0.429062729000000
H 6.487475183000000 0.157717135000000 0.286609230000000
H 4.762011487000000 -0.230543123000000 -0.324972499000000

14bromomethanefmdh100.wfx

