%nprocs=4
%mem=4GB
#p pbepbe aug-cc-pvtz output=wfx scf=(conver=6) int=(grid=ultrafine)

title

0 1
O 5.119278674000000 0.886866082000000 1.411188716000000
C 5.588680259000000 0.280949464000000 0.473357116000000
H 6.675800807000000 0.185474469000000 0.330903617000000
H 4.950337111000000 -0.202785789000000 -0.280678112000000

14bromomethanefmdh105_2.wfx

