%nprocs=4
%mem=4GB
#p pbepbe aug-cc-pvtz output=wfx scf=(conver=6) int=(grid=ultrafine)

title

0 1
O 4.930953050000000 0.859108748000000 1.366894329000000
C 5.400354635000000 0.253192130000000 0.429062729000000
H 6.487475183000000 0.157717135000000 0.286609230000000
H 4.762011487000000 -0.230543123000000 -0.324972499000000

14bromomethanefmdh100_2.wfx

