%nprocs=4
%mem=4GB
#p pbepbe aug-cc-pvtz output=wfx scf=(conver=6) int=(grid=ultrafine)

title

0 1
O 4.399572587000000 0.780788525000000 1.241913079000000
C 4.868974172000000 0.174871907000000 0.304081479000000
H 5.956094720000000 0.079396912000000 0.161627980000000
H 4.230631024000000 -0.308863346000000 -0.449953749000000

14bromomethanefmdh085_2.wfx

