%nprocs=4
%mem=4GB
#p pbepbe aug-cc-pvtz output=wfx scf=(conver=6) int=(grid=ultrafine)

title

0 1
O 5.790278782000000 0.964213136000000 1.509846984000000
C 6.366160260000000 0.373689668000000 0.622228845000000
H 7.464273694000000 0.333851237000000 0.571600186000000
H 5.817644652000000 -0.150226870000000 -0.174633805000000

15iodomethanefmdh125_2.wfx

