%nprocs=4
%mem=4GB
#p pbepbe aug-cc-pvtz output=wfx scf=(conver=6) int=(grid=ultrafine)

title

0 1
C -0.095501280000000 -0.091133031000000 -0.141315705000000
I 1.830395880000000 0.396977839000000 0.615165203000000
H -0.179397714000000 -1.169911689000000 -0.184336422000000
H -0.836289841000000 0.323841164000000 0.530854584000000
H -0.191259588000000 0.340771952000000 -1.129757270000000
O 5.315104426000000 0.896146561000000 1.402487790000000
C 5.890985904000000 0.305623093000000 0.514869651000000
H 6.989099338000000 0.265784662000000 0.464240992000000
H 5.342470296000000 -0.218293445000000 -0.281992999000000

15iodomethanefmdh110.wfx

