%nprocs=4
%mem=4GB
#p pbepbe aug-cc-pvtz output=wfx scf=(conver=6) int=(grid=ultrafine)

title

0 1
O 5.156712974000000 0.873457702000000 1.366701391000000
C 5.732594452000000 0.282934234000000 0.479083252000000
H 6.830707886000000 0.243095803000000 0.428454593000000
H 5.184078844000000 -0.240982304000000 -0.317779398000000

15iodomethanefmdh105_2.wfx

