%nprocs=4
%mem=4GB
#p pbepbe aug-cc-pvtz output=wfx scf=(conver=6) int=(grid=ultrafine)

title

0 1
C -0.095501280000000 -0.091133031000000 -0.141315705000000
I 1.830395880000000 0.396977839000000 0.615165203000000
H -0.179397714000000 -1.169911689000000 -0.184336422000000
H -0.836289841000000 0.323841164000000 0.530854584000000
H -0.191259588000000 0.340771952000000 -1.129757270000000
O 4.364755714000000 0.760013411000000 1.187769400000000
C 4.940637192000000 0.169489943000000 0.300151261000000
H 6.038750626000000 0.129651512000000 0.249522602000000
H 4.392121584000000 -0.354426595000000 -0.496711389000000

15iodomethanefmdh080.wfx

