%nprocs=4
%mem=4GB
#p pbepbe aug-cc-pvtz output=wfx scf=(conver=6) int=(grid=ultrafine)

title

0 1
C -0.095501280000000 -0.091133031000000 -0.141315705000000
I 1.830395880000000 0.396977839000000 0.615165203000000
H -0.179397714000000 -1.169911689000000 -0.184336422000000
H -0.836289841000000 0.323841164000000 0.530854584000000
H -0.191259588000000 0.340771952000000 -1.129757270000000
O 4.681538618000000 0.805391127000000 1.259342197000000
C 5.257420096000000 0.214867659000000 0.371724058000000
H 6.355533530000000 0.175029228000000 0.321095399000000
H 4.708904488000000 -0.309048879000000 -0.425138592000000

15iodomethanefmdh090.wfx

