%nprocs=4
%mem=4GB
#p pbepbe aug-cc-pvtz output=wfx scf=(conver=6) int=(grid=ultrafine)

title

0 1
C -0.095501280000000 -0.091133031000000 -0.141315705000000
I 1.830395880000000 0.396977839000000 0.615165203000000
H -0.179397714000000 -1.169911689000000 -0.184336422000000
H -0.836289841000000 0.323841164000000 0.530854584000000
H -0.191259588000000 0.340771952000000 -1.129757270000000
O 4.998224919000000 0.850755006000000 1.330893167000000
C 5.574106397000000 0.260231538000000 0.443275028000000
H 6.672219831000000 0.220393107000000 0.392646369000000
H 5.025590789000000 -0.263685000000000 -0.353587622000000

15iodomethanefmdh100.wfx

