%nprocs=4
%mem=4GB
#p pbepbe aug-cc-pvtz output=wfx scf=(conver=6) int=(grid=ultrafine)

title

0 1
O 4.492923064000000 1.154616740000000 0.754809897000000
C 5.040753347000000 0.124032055000000 0.430525272000000
H 6.131705480000000 0.001860060000000 0.495812286000000
H 4.473390047000000 -0.740743101000000 0.054581814000000

16F3chloromethanefmdh090_2.wfx

