%nprocs=4
%mem=4GB
#p pbepbe aug-cc-pvtz output=wfx scf=(conver=6) int=(grid=ultrafine)

title

0 1
O 4.791042041000000 1.212574728000000 0.806274100000000
C 5.338872324000000 0.181990043000000 0.481989475000000
H 6.429824457000000 0.059818048000000 0.547276489000000
H 4.771509024000000 -0.682785113000000 0.106046017000000

16F3chloromethanefmdh100_2.wfx

