%nprocs=4
%mem=4GB
#p pbepbe aug-cc-pvtz output=wfx scf=(conver=6) int=(grid=ultrafine)

title

0 1
O 4.642030944000000 1.183605142000000 0.780550352000000
C 5.189861227000000 0.153020457000000 0.456265727000000
H 6.280813360000000 0.030848462000000 0.521552741000000
H 4.622497927000000 -0.711754699000000 0.080322269000000

16F3chloromethanefmdh095_2.wfx

