%nprocs=4
%mem=4GB
#p pbepbe aug-cc-pvtz output=wfx scf=(conver=6) int=(grid=ultrafine)

title

0 1
O 5.536678221000000 1.357535554000000 0.934993084000000
C 6.084508504000000 0.326950869000000 0.610708459000000
H 7.175460637000000 0.204778874000000 0.675995473000000
H 5.517145204000000 -0.537824287000000 0.234765001000000

16F3chloromethanefmdh125_2.wfx

