%nprocs=4
%mem=4GB
#p pbepbe aug-cc-pvtz output=wfx scf=(conver=6) int=(grid=ultrafine)

title

0 1
C 0.228087368000000 -0.006027308000000 -0.103512024000000
Cl 1.808884452000000 0.632806687000000 0.291464994000000
F 0.331959317000000 -1.250132504000000 -0.555496397000000
F -0.551167778000000 -0.013339450000000 0.969446208000000
F -0.350921815000000 0.733335757000000 -1.039651530000000
O 4.642030944000000 1.183605142000000 0.780550352000000
C 5.189861227000000 0.153020457000000 0.456265727000000
H 6.280813360000000 0.030848462000000 0.521552741000000
H 4.622497927000000 -0.711754699000000 0.080322269000000

16F3chloromethanefmdh095.wfx

