%nprocs=4
%mem=4GB
#p pbepbe aug-cc-pvtz output=wfx scf=(conver=6) int=(grid=ultrafine)

title

0 1
C 0.228087368000000 -0.006027308000000 -0.103512024000000
Cl 1.808884452000000 0.632806687000000 0.291464994000000
F 0.331959317000000 -1.250132504000000 -0.555496397000000
F -0.551167778000000 -0.013339450000000 0.969446208000000
F -0.350921815000000 0.733335757000000 -1.039651530000000
O 4.194707306000000 1.096639935000000 0.703328986000000
C 4.742537589000000 0.066055250000000 0.379044361000000
H 5.833489722000000 -0.056116745000000 0.444331375000000
H 4.175174289000000 -0.798719906000000 0.003100903000000

16F3chloromethanefmdh080.wfx

