%nprocs=4
%mem=4GB
#p pbepbe aug-cc-pvtz output=wfx scf=(conver=6) int=(grid=ultrafine)

title

0 1
O 7.940361010000000 1.824840993000000 1.349940232000000
C 8.488191293000000 0.794256308000000 1.025655607000000
H 9.579143426000000 0.672084313000000 1.090942621000000
H 7.920827993000000 -0.070518848000000 0.649712149000000

16F3chloromethanefmdh200_2.wfx

