%nprocs=4
%mem=4GB
#p pbepbe aug-cc-pvtz output=wfx scf=(conver=6) int=(grid=ultrafine)

title

0 1
O 4.343815185000000 1.125628338000000 0.729069442000000
C 4.891645468000000 0.095043653000000 0.404784817000000
H 5.982597601000000 -0.027128342000000 0.470071831000000
H 4.324282168000000 -0.769731503000000 0.028841359000000

16F3chloromethanefmdh085_2.wfx

