%nprocs=4
%mem=4GB
#p pbepbe aug-cc-pvtz output=wfx scf=(conver=6) int=(grid=ultrafine)

title

0 1
C 0.092348417000000 -0.047899443000000 -0.084180609000000
Br 1.850295174000000 0.401756602000000 0.541215366000000
F -0.041248424000000 -1.365231569000000 -0.186834437000000
F -0.830122197000000 0.403465307000000 0.756154716000000
F -0.127685037000000 0.489606579000000 -1.278313038000000
O 5.075133049000000 0.904201586000000 1.278556123000000
C 5.764713402000000 0.285380896000000 0.497220977000000
H 6.862297335000000 0.303266916000000 0.555131795000000
H 5.325376461000000 -0.323544113000000 -0.306909519000000

17F3bromomethanefmdh110.wfx

