%nprocs=4
%mem=4GB
#p pbepbe aug-cc-pvtz output=wfx scf=(conver=6) int=(grid=ultrafine)

title

0 1
O 4.928553890000000 0.881363860000000 1.245041636000000
C 5.618134243000000 0.262543170000000 0.463706490000000
H 6.715718176000000 0.280429190000000 0.521617308000000
H 5.178797302000000 -0.346381839000000 -0.340424006000000

17F3bromomethanefmdh105_2.wfx

