%nprocs=4
%mem=4GB
#p pbepbe aug-cc-pvtz output=wfx scf=(conver=6) int=(grid=ultrafine)

title

0 1
O 4.635395572000000 0.835688408000000 1.178012661000000
C 5.324975925000000 0.216867718000000 0.396677515000000
H 6.422559858000000 0.234753738000000 0.454588333000000
H 4.885638984000000 -0.392057291000000 -0.407452981000000

17F3bromomethanefmdh095_2.wfx

