%nprocs=4
%mem=4GB
#p pbepbe aug-cc-pvtz output=wfx scf=(conver=6) int=(grid=ultrafine)

title

0 1
C 0.092348417000000 -0.047899443000000 -0.084180609000000
Br 1.850295174000000 0.401756602000000 0.541215366000000
F -0.041248424000000 -1.365231569000000 -0.186834437000000
F -0.830122197000000 0.403465307000000 0.756154716000000
F -0.127685037000000 0.489606579000000 -1.278313038000000
O 5.514870525000000 0.972714763000000 1.379099585000000
C 6.204450878000000 0.353894073000000 0.597764439000000
H 7.302034811000000 0.371780093000000 0.655675257000000
H 5.765113937000000 -0.255030936000000 -0.206366057000000

17F3bromomethanefmdh125.wfx

