%nprocs=4
%mem=4GB
#p pbepbe aug-cc-pvtz output=wfx scf=(conver=6) int=(grid=ultrafine)

title

0 1
C 0.092348417000000 -0.047899443000000 -0.084180609000000
Br 1.850295174000000 0.401756602000000 0.541215366000000
F -0.041248424000000 -1.365231569000000 -0.186834437000000
F -0.830122197000000 0.403465307000000 0.756154716000000
F -0.127685037000000 0.489606579000000 -1.278313038000000
O 4.342237254000000 0.790012957000000 1.110983687000000
C 5.031817607000000 0.171192267000000 0.329648541000000
H 6.129401540000000 0.189078287000000 0.387559359000000
H 4.592480666000000 -0.437732742000000 -0.474481955000000

17F3bromomethanefmdh085.wfx

