%nprocs=4
%mem=4GB
#p pbepbe aug-cc-pvtz output=wfx scf=(conver=6) int=(grid=ultrafine)

title

0 1
O 5.514870525000000 0.972714763000000 1.379099585000000
C 6.204450878000000 0.353894073000000 0.597764439000000
H 7.302034811000000 0.371780093000000 0.655675257000000
H 5.765113937000000 -0.255030936000000 -0.206366057000000

17F3bromomethanefmdh125_2.wfx

