%nprocs=4
%mem=4GB
#p pbepbe aug-cc-pvtz output=wfx scf=(conver=6) int=(grid=ultrafine)

title

0 1
O 6.247766320000000 1.086903392000000 1.546672021000000
C 6.937346673000000 0.468082702000000 0.765336875000000
H 8.034930606000000 0.485968722000000 0.823247693000000
H 6.498009732000000 -0.140842307000000 -0.038793621000000

17F3bromomethanefmdh150_2.wfx

