%nprocs=4
%mem=4GB
#p pbepbe aug-cc-pvtz output=wfx scf=(conver=6) int=(grid=ultrafine)

title

0 1
C 0.092348417000000 -0.047899443000000 -0.084180609000000
Br 1.850295174000000 0.401756602000000 0.541215366000000
F -0.041248424000000 -1.365231569000000 -0.186834437000000
F -0.830122197000000 0.403465307000000 0.756154716000000
F -0.127685037000000 0.489606579000000 -1.278313038000000
O 4.928553890000000 0.881363860000000 1.245041636000000
C 5.618134243000000 0.262543170000000 0.463706490000000
H 6.715718176000000 0.280429190000000 0.521617308000000
H 5.178797302000000 -0.346381839000000 -0.340424006000000

17F3bromomethanefmdh105.wfx

