%nprocs=4
%mem=4GB
#p pbepbe aug-cc-pvtz output=wfx scf=(conver=6) int=(grid=ultrafine)

title

0 1
O 6.395080521000000 1.075784620000000 1.516983567000000
C 7.142367030000000 0.473883835000000 0.775501483000000
H 8.233910729000000 0.535111035000000 0.884214957000000
H 6.762887973000000 -0.160230577000000 -0.038995838000000

18F3iodomethanefmdh150_2.wfx

