%nprocs=4
%mem=4GB
#p pbepbe aug-cc-pvtz output=wfx scf=(conver=6) int=(grid=ultrafine)

title

0 1
O 4.447785333000000 0.782609726000000 1.090248329000000
C 5.195071842000000 0.180708941000000 0.348766245000000
H 6.286615541000000 0.241936141000000 0.457479719000000
H 4.815592785000000 -0.453405471000000 -0.465731076000000

18F3iodomethanefmdh085_2.wfx

