%nprocs=4
%mem=4GB
#p pbepbe aug-cc-pvtz output=wfx scf=(conver=6) int=(grid=ultrafine)

title

0 1
O 4.897064503000000 0.850250921000000 1.188704513000000
C 5.644351012000000 0.248350136000000 0.447222429000000
H 6.735894711000000 0.309577336000000 0.555935903000000
H 5.264871955000000 -0.385764276000000 -0.367274892000000

18F3iodomethanefmdh100_2.wfx

