%nprocs=4
%mem=4GB
#p pbepbe aug-cc-pvtz output=wfx scf=(conver=6) int=(grid=ultrafine)

title

0 1
O 5.196745021000000 0.895369301000000 1.254377267000000
C 5.944031530000000 0.293468516000000 0.512895183000000
H 7.035575229000000 0.354695716000000 0.621608657000000
H 5.564552473000000 -0.340645896000000 -0.301602138000000

18F3iodomethanefmdh110_2.wfx

