%nprocs=4
%mem=4GB
#p pbepbe aug-cc-pvtz output=wfx scf=(conver=6) int=(grid=ultrafine)

title

0 1
O 4.297993395000000 0.760057811000000 1.057422541000000
C 5.045279904000000 0.158157026000000 0.315940457000000
H 6.136823603000000 0.219384226000000 0.424653931000000
H 4.665800847000000 -0.475957386000000 -0.498556864000000

18F3iodomethanefmdh080_2.wfx

