%nprocs=4
%mem=4GB
#p pbepbe aug-cc-pvtz output=wfx scf=(conver=6) int=(grid=ultrafine)

title

0 1
C -0.453743740000000 0.000182739000000 1.059200327000000
C 0.583994572000000 -0.000028402000000 1.988244810000000
C 1.911123808000000 -0.000142760000000 1.563951774000000
C 2.200015462000000 -0.000060948000000 0.200857138000000
C 1.171852556000000 0.000151689000000 -0.738466754000000
H -1.486276324000000 0.000268975000000 1.377240603000000
H 0.351319424000000 -0.000103142000000 3.044291019000000
H 2.712830438000000 -0.000290390000000 2.288837764000000
H 3.227238082000000 -0.000162856000000 -0.136887263000000
H 1.383274700000000 0.000214894000000 -1.797905634000000
C -0.149841459000000 0.000281008000000 -0.299799844000000
Cl -1.432288391000000 0.000559697000000 -1.466414983000000
O -4.400588653000000 0.000026532000000 -4.287784550000000
C -5.548005496000000 0.001817700000000 -3.880582447000000
C -6.707113308000000 -0.000678803000000 -4.855043962000000
C -5.836221862000000 0.006544740000000 -2.394430930000000
H -6.621779019000000 0.873176615000000 -5.498560925000000
H -6.622861330000000 -0.878825437000000 -5.492820257000000
H -7.677240676000000 0.001511312000000 -4.368199662000000
H -6.897086180000000 0.007928793000000 -2.164459581000000
H -5.366555952000000 -0.867242568000000 -1.945968052000000
H -5.365423561000000 0.882442673000000 -1.951323770000000

19benClacetone125.wfx

