%nprocs=4
%mem=4GB
#p pbepbe aug-cc-pvtz output=wfx scf=(conver=6) int=(grid=ultrafine)

title

0 1
O -4.020206541000000 0.000094856000000 -3.926231331000000
C -5.167623384000000 0.001886024000000 -3.519029228000000
C -6.326731196000000 -0.000610479000000 -4.493490743000000
C -5.455839750000000 0.006613064000000 -2.032877711000000
H -6.241396907000000 0.873244939000000 -5.137007706000000
H -6.242479218000000 -0.878757113000000 -5.131267038000000
H -7.296858564000000 0.001579636000000 -4.006646443000000
H -6.516704068000000 0.007997117000000 -1.802906362000000
H -4.986173840000000 -0.867174244000000 -1.584414833000000
H -4.985041449000000 0.882510997000000 -1.589770551000000

19benClacetone110_2.wfx

