%nprocs=4
%mem=4GB
#p pbepbe aug-cc-pvtz output=wfx scf=(conver=6) int=(grid=ultrafine)

title

0 1
O -6.431268881000000 -0.000338218000000 -6.217946221000000
C -7.578685724000000 0.001452950000000 -5.810744118000000
C -8.737793536000000 -0.001043553000000 -6.785205633000000
C -7.866902090000000 0.006179990000000 -4.324592601000000
H -8.652459246999999 0.872811865000000 -7.428722596000000
H -8.653541558000001 -0.879190187000000 -7.422981928000000
H -9.707920904000000 0.001146562000000 -6.298361333000000
H -8.927766408000000 0.007564043000000 -4.094621252000000
H -7.397236180000000 -0.867607318000000 -3.876129723000000
H -7.396103789000000 0.882077923000000 -3.881485441000000

19benClacetone200_2.wfx

