%nprocs=4
%mem=4GB
#p pbepbe aug-cc-pvtz output=wfx scf=(conver=6) int=(grid=ultrafine)

title

0 1
O -3.314430450000000 0.000221627000000 -3.255391116000000
C -4.461847293000000 0.002012795000000 -2.848189013000000
C -5.620955105000000 -0.000483708000000 -3.822650528000000
C -4.750063659000000 0.006739835000000 -1.362037496000000
H -5.535620816000000 0.873371710000000 -4.466167491000000
H -5.536703127000000 -0.878630342000000 -4.460426823000000
H -6.591082473000000 0.001706407000000 -3.335806228000000
H -5.810927977000000 0.008123888000000 -1.132066147000000
H -4.280397749000000 -0.867047473000000 -0.913574618000000
H -4.279265358000000 0.882637768000000 -0.918930336000000

19benClacetone080_2.wfx

