%nprocs=4
%mem=4GB
#p pbepbe aug-cc-pvtz output=wfx scf=(conver=6) int=(grid=ultrafine)

title

0 1
O -4.400588653000000 0.000026532000000 -4.287784550000000
C -5.548005496000000 0.001817700000000 -3.880582447000000
C -6.707113308000000 -0.000678803000000 -4.855043962000000
C -5.836221862000000 0.006544740000000 -2.394430930000000
H -6.621779019000000 0.873176615000000 -5.498560925000000
H -6.622861330000000 -0.878825437000000 -5.492820257000000
H -7.677240676000000 0.001511312000000 -4.368199662000000
H -6.897086180000000 0.007928793000000 -2.164459581000000
H -5.366555952000000 -0.867242568000000 -1.945968052000000
H -5.365423561000000 0.882442673000000 -1.951323770000000

19benClacetone125_2.wfx

