%nprocs=4
%mem=4GB
#p pbepbe aug-cc-pvtz output=wfx scf=(conver=6) int=(grid=ultrafine)

title

0 1
C -0.453743740000000 0.000182739000000 1.059200327000000
C 0.583994572000000 -0.000028402000000 1.988244810000000
C 1.911123808000000 -0.000142760000000 1.563951774000000
C 2.200015462000000 -0.000060948000000 0.200857138000000
C 1.171852556000000 0.000151689000000 -0.738466754000000
H -1.486276324000000 0.000268975000000 1.377240603000000
H 0.351319424000000 -0.000103142000000 3.044291019000000
H 2.712830438000000 -0.000290390000000 2.288837764000000
H 3.227238082000000 -0.000162856000000 -0.136887263000000
H 1.383274700000000 0.000214894000000 -1.797905634000000
C -0.149841459000000 0.000281008000000 -0.299799844000000
Cl -1.432288391000000 0.000559697000000 -1.466414983000000
O -3.784875362000000 0.000137126000000 -3.702549032000000
C -4.932292205000000 0.001928294000000 -3.295346929000000
C -6.091400017000000 -0.000568209000000 -4.269808444000000
C -5.220508571000000 0.006655334000000 -1.809195412000000
H -6.006065728000000 0.873287209000000 -4.913325407000000
H -6.007148039000000 -0.878714843000000 -4.907584739000000
H -7.061527385000000 0.001621906000000 -3.782964144000000
H -6.281372889000000 0.008039387000000 -1.579224063000000
H -4.750842661000000 -0.867131974000000 -1.360732534000000
H -4.749710270000000 0.882553267000000 -1.366088252000000

19benClacetone100.wfx

