%nprocs=4
%mem=4GB
#p pbepbe aug-cc-pvtz output=wfx scf=(conver=6) int=(grid=ultrafine)

title

0 1
C -0.453743740000000 0.000182739000000 1.059200327000000
C 0.583994572000000 -0.000028402000000 1.988244810000000
C 1.911123808000000 -0.000142760000000 1.563951774000000
C 2.200015462000000 -0.000060948000000 0.200857138000000
C 1.171852556000000 0.000151689000000 -0.738466754000000
H -1.486276324000000 0.000268975000000 1.377240603000000
H 0.351319424000000 -0.000103142000000 3.044291019000000
H 2.712830438000000 -0.000290390000000 2.288837764000000
H 3.227238082000000 -0.000162856000000 -0.136887263000000
H 1.383274700000000 0.000214894000000 -1.797905634000000
C -0.149841459000000 0.000281008000000 -0.299799844000000
Cl -1.432288391000000 0.000559697000000 -1.466414983000000
O -6.431268881000000 -0.000338218000000 -6.217946221000000
C -7.578685724000000 0.001452950000000 -5.810744118000000
C -8.737793536000000 -0.001043553000000 -6.785205633000000
C -7.866902090000000 0.006179990000000 -4.324592601000000
H -8.652459246999999 0.872811865000000 -7.428722596000000
H -8.653541558000001 -0.879190187000000 -7.422981928000000
H -9.707920904000000 0.001146562000000 -6.298361333000000
H -8.927766408000000 0.007564043000000 -4.094621252000000
H -7.397236180000000 -0.867607318000000 -3.876129723000000
H -7.396103789000000 0.882077923000000 -3.881485441000000

19benClacetone200.wfx

