%nprocs=4
%mem=4GB
#p pbepbe aug-cc-pvtz output=wfx scf=(conver=6) int=(grid=ultrafine)

title

0 1
O -3.667318495000000 0.000158242000000 -3.590811224000000
C -4.814735338000000 0.001949410000000 -3.183609121000000
C -5.973843150000000 -0.000547093000000 -4.158070636000000
C -5.102951704000000 0.006676450000000 -1.697457604000000
H -5.888508861000000 0.873308325000000 -4.801587599000000
H -5.889591172000000 -0.878693727000000 -4.795846931000000
H -6.943970518000000 0.001643022000000 -3.671226336000000
H -6.163816022000000 0.008060503000000 -1.467486255000000
H -4.633285794000000 -0.867110858000000 -1.248994726000000
H -4.632153403000000 0.882574383000000 -1.254350444000000

19benClacetone095_2.wfx

