%nprocs=4
%mem=4GB
#p pbepbe aug-cc-pvtz output=wfx scf=(conver=6) int=(grid=ultrafine)

title

0 1
O -3.432060180000000 0.000200499000000 -3.367198181000000
C -4.579477023000000 0.001991667000000 -2.959996078000000
C -5.738584835000000 -0.000504836000000 -3.934457593000000
C -4.867693389000000 0.006718707000000 -1.473844561000000
H -5.653250546000000 0.873350582000000 -4.577974556000000
H -5.654332857000000 -0.878651470000000 -4.572233888000000
H -6.708712203000000 0.001685279000000 -3.447613293000000
H -5.928557707000000 0.008102760000000 -1.243873212000000
H -4.398027479000000 -0.867068601000000 -1.025381683000000
H -4.396895088000000 0.882616640000000 -1.030737401000000

19benClacetone085_2.wfx

