%nprocs=4
%mem=4GB
#p pbepbe aug-cc-pvtz output=wfx scf=(conver=6) int=(grid=ultrafine)

title

0 1
C 1.217119800000000 0.000086352000000 -0.737292531000000
C 2.232687859000000 0.000174717000000 0.216499979000000
C 1.925210087000000 0.000130109000000 1.575499453000000
C 0.592512132000000 0.000178132000000 1.981957864000000
C -0.433049194000000 0.000070250000000 1.038766795000000
H 1.448302007000000 -0.000020318000000 -1.792785360000000
H 3.264633432000000 0.000102432000000 -0.107052277000000
H 2.717093974000000 -0.000023151000000 2.311239059000000
H 0.345707498000000 0.000109507000000 3.034933333000000
H -1.468501456000000 -0.000093207000000 1.347574970000000
C -0.111081725000000 -0.000108736000000 -0.316810844000000
Br -1.493755973000000 -0.001747763000000 -1.606462802000000
O -4.070836971000000 0.001193128000000 -3.895471614000000
C -5.228304001000000 0.030798890000000 -3.516378253000000
C -5.554077884000000 0.031089327000000 -2.038712388000000
C -6.360613151000000 0.067896547000000 -4.519954170000000
H -6.235225071000000 0.944441370000000 -5.153184049000000
H -6.283803456000000 -0.806975147000000 -5.163177803000000
H -7.342100495000000 0.092454599000000 -4.057363983000000
H -6.620173017000000 0.059206435000000 -1.836908014000000
H -5.120092235000000 -0.858630147000000 -1.585465133000000
H -5.071930760000000 0.890207985000000 -1.575227040000000

20benBracetone110.wfx

