%nprocs=4
%mem=4GB
#p pbepbe aug-cc-pvtz output=wfx scf=(conver=6) int=(grid=ultrafine)

title

0 1
O -3.602290383000000 0.000658436000000 -3.479300268000000
C -4.759757413000000 0.030264198000000 -3.100206907000000
C -5.085531296000000 0.030554635000000 -1.622541042000000
C -5.892066563000000 0.067361855000000 -4.103782824000000
H -6.151626429000000 0.058671743000000 -1.420736668000000
H -4.651545647000000 -0.859164839000000 -1.169293787000000
H -4.603384172000000 0.889673293000000 -1.159055694000000
H -5.766678483000000 0.943906678000000 -4.737012703000000
H -5.815256868000000 -0.807509839000000 -4.747006457000000
H -6.873553907000000 0.091919907000000 -3.641192637000000

20benBracetone090_2.wfx

