%nprocs=4
%mem=4GB
#p pbepbe aug-cc-pvtz output=wfx scf=(conver=6) int=(grid=ultrafine)

title

0 1
O -4.422246911000000 0.001594147000000 -4.207600124000000
C -5.579713941000000 0.031199909000000 -3.828506763000000
C -5.905487824000000 0.031490346000000 -2.350840898000000
C -6.712023091000000 0.068297566000000 -4.832082680000000
H -6.971582957000000 0.059607454000000 -2.149036524000000
H -5.471502175000000 -0.858229128000000 -1.897593643000000
H -5.423340700000000 0.890609004000000 -1.887355550000000
H -6.586635011000000 0.944842389000000 -5.465312559000000
H -6.635213396000000 -0.806574128000000 -5.475306313000000
H -7.693510435000000 0.092855618000000 -4.369492493000000

20benBracetone125_2.wfx

