%nprocs=4
%mem=4GB
#p pbepbe aug-cc-pvtz output=wfx scf=(conver=6) int=(grid=ultrafine)

title

0 1
O -3.485153736000000 0.000524763000000 -3.375257432000000
C -4.642620766000000 0.030130525000000 -2.996164071000000
C -4.968394649000000 0.030420962000000 -1.518498206000000
C -5.774929916000000 0.067228182000000 -3.999739988000000
H -6.034489782000000 0.058538070000000 -1.316693832000000
H -4.534409000000000 -0.859298512000000 -1.065250951000000
H -4.486247525000000 0.889539620000000 -1.055012858000000
H -5.649541836000000 0.943773005000000 -4.632969867000000
H -5.698120221000000 -0.807643512000000 -4.642963621000000
H -6.756417260000000 0.091786234000000 -3.537149801000000

20benBracetone085_2.wfx

