%nprocs=4
%mem=4GB
#p pbepbe aug-cc-pvtz output=wfx scf=(conver=6) int=(grid=ultrafine)

title

0 1
C 1.217119800000000 0.000086352000000 -0.737292531000000
C 2.232687859000000 0.000174717000000 0.216499979000000
C 1.925210087000000 0.000130109000000 1.575499453000000
C 0.592512132000000 0.000178132000000 1.981957864000000
C -0.433049194000000 0.000070250000000 1.038766795000000
H 1.448302007000000 -0.000020318000000 -1.792785360000000
H 3.264633432000000 0.000102432000000 -0.107052277000000
H 2.717093974000000 -0.000023151000000 2.311239059000000
H 0.345707498000000 0.000109507000000 3.034933333000000
H -1.468501456000000 -0.000093207000000 1.347574970000000
C -0.111081725000000 -0.000108736000000 -0.316810844000000
Br -1.493755973000000 -0.001747763000000 -1.606462802000000
O -3.485153736000000 0.000524763000000 -3.375257432000000
C -4.642620766000000 0.030130525000000 -2.996164071000000
C -4.968394649000000 0.030420962000000 -1.518498206000000
C -5.774929916000000 0.067228182000000 -3.999739988000000
H -5.649541836000000 0.943773005000000 -4.632969867000000
H -5.698120221000000 -0.807643512000000 -4.642963621000000
H -6.756417260000000 0.091786234000000 -3.537149801000000
H -6.034489782000000 0.058538070000000 -1.316693832000000
H -4.534409000000000 -0.859298512000000 -1.065250951000000
H -4.486247525000000 0.889539620000000 -1.055012858000000

20benBracetone085.wfx

