%nprocs=4
%mem=4GB
#p pbepbe aug-cc-pvtz output=wfx scf=(conver=6) int=(grid=ultrafine)

title

0 1
O -3.719427030000000 0.000792109000000 -3.583343105000000
C -4.876894060000000 0.030397871000000 -3.204249744000000
C -5.202667943000000 0.030688308000000 -1.726583879000000
C -6.009203210000000 0.067495528000000 -4.207825661000000
H -6.268763076000000 0.058805416000000 -1.524779505000000
H -4.768682294000000 -0.859031166000000 -1.273336624000000
H -4.720520819000000 0.889806966000000 -1.263098531000000
H -5.883815130000000 0.944040351000000 -4.841055540000000
H -5.932393515000000 -0.807376166000000 -4.851049294000000
H -6.990690554000000 0.092053580000000 -3.745235474000000

20benBracetone095_2.wfx

