%nprocs=4
%mem=4GB
#p pbepbe aug-cc-pvtz output=wfx scf=(conver=6) int=(grid=ultrafine)

title

0 1
O -3.892575443000000 -0.000134323000000 -3.763885079000000
C -3.743253826000000 0.003780627000000 -4.973799763000000
C -2.356382388000000 0.013937789000000 -5.576829020000000
C -4.946727493000000 -0.001506526000000 -5.890203290000000
H -1.823673614000000 0.891339575000000 -5.213460395000000
H -1.812713769000000 -0.858474197000000 -5.217700473000000
H -2.363313241000000 0.016529661000000 -6.662111311000000
H -5.558905375000000 0.870137400000000 -5.665399639000000
H -5.548006918000000 -0.881758828000000 -5.669571336000000
H -4.682682747000000 0.002648316000000 -6.942870696000000

21benIacetone095_2.wfx

