%nprocs=4
%mem=4GB
#p pbepbe aug-cc-pvtz output=wfx scf=(conver=6) int=(grid=ultrafine)

title

0 1
O -3.774981903000000 -0.000115611000000 -3.657264135000000
C -3.625660286000000 0.003799339000000 -4.867178819000000
C -2.238788848000000 0.013956501000000 -5.470208076000000
C -4.829133953000000 -0.001487814000000 -5.783582346000000
H -1.706080074000000 0.891358287000000 -5.106839451000000
H -1.695120229000000 -0.858455485000000 -5.111079529000000
H -2.245719701000000 0.016548373000000 -6.555490367000000
H -5.441311835000000 0.870156112000000 -5.558778695000000
H -5.430413378000000 -0.881740116000000 -5.562950392000000
H -4.565089207000000 0.002667028000000 -6.836249752000000

21benIacetone090_2.wfx

