%nprocs=4
%mem=4GB
#p pbepbe aug-cc-pvtz output=wfx scf=(conver=6) int=(grid=ultrafine)

title

0 1
C -0.436019870000000 -0.000001503000000 1.035407288000000
C 0.589762206000000 -0.000013214000000 1.978500062000000
C 1.922247312000000 -0.000006201000000 1.571695588000000
C 2.228266034000000 -0.000021972000000 0.212569121000000
C 1.211087138000000 -0.000006405000000 -0.740153580000000
H -1.469242030000000 -0.000001950000000 1.352224613000000
H 0.343101091000000 -0.000008425000000 3.031629685000000
H 2.714694228000000 0.000011502000000 2.307032918000000
H 3.260261396000000 -0.000026554000000 -0.111551520000000
H 1.450707808000000 -0.000010108000000 -1.793985522000000
C -0.120402824000000 0.000022122000000 -0.323575940000000
I -1.658224104000000 0.000221203000000 -1.738019970000000
O -4.245356062000000 -0.000190456000000 -4.083747911000000
C -4.096034445000000 0.003724494000000 -5.293662595000000
C -2.709163007000000 0.013881656000000 -5.896691852000000
C -5.299508112000000 -0.001562659000000 -6.210066122000000
H -2.176454233000000 0.891283442000000 -5.533323227000000
H -2.165494388000000 -0.858530330000000 -5.537563305000000
H -2.716093860000000 0.016473528000000 -6.981974143000000
H -5.911685994000000 0.870081267000000 -5.985262471000000
H -5.900787537000000 -0.881814961000000 -5.989434168000000
H -5.035463366000000 0.002592183000000 -7.262733528000000

21benIacetone110.wfx

