%nprocs=4
%mem=4GB
#p pbepbe aug-cc-pvtz output=wfx scf=(conver=6) int=(grid=ultrafine)

title

0 1
O -4.010094900000000 -0.000153022000000 -3.870438853000000
C -3.860773283000000 0.003761928000000 -5.080353537000000
C -2.473901845000000 0.013919090000000 -5.683382794000000
C -5.064246950000000 -0.001525225000000 -5.996757064000000
H -1.941193071000000 0.891320876000000 -5.320014169000000
H -1.930233226000000 -0.858492896000000 -5.324254247000000
H -2.480832698000000 0.016510962000000 -6.768665085000000
H -5.676424832000000 0.870118701000000 -5.771953413000000
H -5.665526375000000 -0.881777527000000 -5.776125110000000
H -4.800202204000000 0.002629617000000 -7.049424470000000

21benIacetone100_2.wfx

