%nprocs=4
%mem=4GB
#p pbepbe aug-cc-pvtz output=wfx scf=(conver=6) int=(grid=ultrafine)

title

0 1
O -4.245356062000000 -0.000190456000000 -4.083747911000000
C -4.096034445000000 0.003724494000000 -5.293662595000000
C -2.709163007000000 0.013881656000000 -5.896691852000000
C -5.299508112000000 -0.001562659000000 -6.210066122000000
H -2.176454233000000 0.891283442000000 -5.533323227000000
H -2.165494388000000 -0.858530330000000 -5.537563305000000
H -2.716093860000000 0.016473528000000 -6.981974143000000
H -5.911685994000000 0.870081267000000 -5.985262471000000
H -5.900787537000000 -0.881814961000000 -5.989434168000000
H -5.035463366000000 0.002592183000000 -7.262733528000000

21benIacetone110_2.wfx

