%nprocs=4
%mem=4GB
#p pbepbe aug-cc-pvtz output=wfx scf=(conver=6) int=(grid=ultrafine)

title

0 1
C -0.235164025000000 0.002086093000000 0.132755180000000
C -0.238177601000000 0.001189285000000 1.525603690000000
C 0.981045016000000 -0.000426079000000 -0.546038572000000
H -1.172880264000000 0.004699747000000 -0.404018294000000
C 0.955845752000000 -0.002137887000000 2.242723198000000
CL -1.748955125000000 0.004260493000000 2.378483547000000
C 2.182877035000000 -0.003791485000000 0.158976860000000
H 0.985592531000000 0.000253534000000 -1.627466794000000
C 2.165456711000000 -0.004625136000000 1.552251769000000
H 0.930822557000000 -0.002763332000000 3.322933540000000
H 3.124112655000000 -0.005745788000000 -0.372313104000000
H 3.093652555000000 -0.007217456000000 2.107162249000000

22benClNm3085_1.wfx

