%nprocs=4
%mem=4GB
#p pbepbe aug-cc-pvtz output=wfx scf=(conver=6) int=(grid=ultrafine)

title

0 1
N -4.329817673000000 0.003381180000000 3.852202686000000
C -5.157907454000000 -1.074188647000000 3.346638223000000
C -4.040217961000000 -0.203106190000000 5.257867864000000
C -4.991189696000000 1.279045596000000 3.657820827000000
H -6.127865812000000 -1.135386370000000 3.866564284000000
H -5.347701031000000 -0.924288288000000 2.285035126000000
H -4.641345787000000 -2.024305265000000 3.472646163000000
H -4.953430764000000 -0.220034849000000 5.874834073000000
H -3.520188047000000 -1.150495662000000 5.390248709000000
H -3.396553227000000 0.596323411000000 5.621362652000000
H -5.952692740000000 1.337466862000000 4.193527322000000
H -4.350378016000000 2.083157597000000 4.015861399000000
H -5.180292596000000 1.436721860000000 2.597233818000000

22benClNm3095_2.wfx

