%nprocs=4
%mem=4GB
#p pbepbe aug-cc-pvtz output=wfx scf=(conver=6) int=(grid=ultrafine)

title

0 1
C -0.235164025000000 0.002086093000000 0.132755180000000
C -0.238177601000000 0.001189285000000 1.525603690000000
C 0.955845752000000 -0.002137887000000 2.242723198000000
C 2.165456711000000 -0.004625136000000 1.552251769000000
C 2.182877035000000 -0.003791485000000 0.158976860000000
C 0.981045016000000 -0.000426079000000 -0.546038572000000
Cl -1.748955125000000 0.004260493000000 2.378483547000000
H 0.930822557000000 -0.002763332000000 3.322933540000000
H 3.093652555000000 -0.007217456000000 2.107162249000000
H 3.124112655000000 -0.005745788000000 -0.372313104000000
H 0.985592531000000 0.000253534000000 -1.627466794000000
H -1.172880264000000 0.004699747000000 -0.404018294000000
N -3.922326772000000 0.003520015000000 3.619518020000000
C -4.750416553000000 -1.074049812000000 3.113953557000000
C -3.632727060000000 -0.202967355000000 5.025183198000000
C -4.583698795000000 1.279184431000000 3.425136161000000
H -4.545939863000000 -0.219896014000000 5.642149407000000
H -3.112697146000000 -1.150356827000000 5.157564043000000
H -2.989062326000000 0.596462246000000 5.388677986000000
H -5.545201839000000 1.337605697000000 3.960842656000000
H -3.942887115000000 2.083296432000000 3.783176733000000
H -4.772801695000000 1.436860695000000 2.364549152000000
H -5.720374911000000 -1.135247535000000 3.633879618000000
H -4.940210130000000 -0.924149453000000 2.052350460000000
H -4.233854886000000 -2.024166430000000 3.239961497000000

22benClNm3080.wfx

