%nprocs=4
%mem=4GB
#p pbepbe aug-cc-pvtz output=wfx scf=(conver=6) int=(grid=ultrafine)

title

0 1
N -4.601478274000000 0.003288624000000 4.007325796000000
C -5.429568055000000 -1.074281203000000 3.501761333000000
C -4.311878562000000 -0.203198746000000 5.412990974000000
C -5.262850297000000 1.278953040000000 3.812943937000000
H -6.399526413000000 -1.135478926000000 4.021687394000000
H -5.619361632000000 -0.924380844000000 2.440158236000000
H -4.913006388000000 -2.024397821000000 3.627769273000000
H -5.225091365000000 -0.220127405000000 6.029957183000000
H -3.791848648000000 -1.150588218000000 5.545371819000000
H -3.668213828000000 0.596230855000000 5.776485762000000
H -6.224353341000000 1.337374306000000 4.348650432000000
H -4.622038617000000 2.083065041000000 4.170984509000000
H -5.451953197000000 1.436629304000000 2.752356928000000

22benClNm3105_2.wfx

