%nprocs=4
%mem=4GB
#p pbepbe aug-cc-pvtz output=wfx scf=(conver=6) int=(grid=ultrafine)

title

0 1
N -4.193987373000000 0.003427459000000 3.774641130000000
C -5.022077154000000 -1.074142368000000 3.269076667000000
C -3.904387661000000 -0.203059911000000 5.180306308000000
C -4.855359396000000 1.279091875000000 3.580259271000000
H -5.992035512000000 -1.135340091000000 3.789002728000000
H -5.211870731000000 -0.924242009000000 2.207473570000000
H -4.505515487000000 -2.024258986000000 3.395084607000000
H -4.817600464000000 -0.219988570000000 5.797272517000000
H -3.384357747000000 -1.150449383000000 5.312687153000000
H -3.260722927000000 0.596369690000000 5.543801096000000
H -5.816862440000000 1.337513141000000 4.115965766000000
H -4.214547716000000 2.083203876000000 3.938299843000000
H -5.044462296000000 1.436768139000000 2.519672262000000

22benClNm3090_2.wfx

