%nprocs=4
%mem=4GB
#p pbepbe aug-cc-pvtz output=wfx scf=(conver=6) int=(grid=ultrafine)

title

0 1
C -0.223913000000000 0.002109000000000 0.127404000000000
C -0.229554000000000 0.001265000000000 1.520572000000000
C 0.966066000000000 -0.002100000000000 2.235729000000000
C 2.176417000000000 -0.004636000000000 1.545888000000000
C 2.194095000000000 -0.003818000000000 0.152623000000000
C 0.992179000000000 -0.000449000000000 -0.552274000000000
Br -1.869237000000000 0.004669000000000 2.446186000000000
H 0.946534000000000 -0.002734000000000 3.316252000000000
H 3.104760000000000 -0.007248000000000 2.100804000000000
H 3.135463000000000 -0.005789000000000 -0.378706000000000
H 0.996880000000000 0.000205000000000 -1.633817000000000
H -1.159029000000000 0.004715000000000 -0.414303000000000
N -4.469679000000000 0.003227000000000 3.932338000000000
C -5.295499000000000 -1.075498000000000 3.424183000000000
C -4.176880000000000 -0.203431000000000 5.337800000000000
C -5.128463000000000 1.280412000000000 3.735655000000000
H -5.087995000000000 -0.220714000000000 5.956688000000000
H -3.655388000000000 -1.150355000000000 5.467942000000000
H -3.531737000000000 0.595910000000000 5.698936000000000
H -6.089881000000000 1.341697000000000 4.269886000000000
H -4.485402000000000 2.083207000000000 4.092686000000000
H -5.314942000000000 1.436913000000000 2.674407000000000
H -6.265731000000000 -1.138956000000000 3.941964000000000
H -5.482507000000000 -0.924686000000000 2.362192000000000
H -4.776575000000000 -2.024443000000000 3.549517000000000

23benBrNm3100.wfx

