%nprocs=4
%mem=4GB
#p pbepbe aug-cc-pvtz output=wfx scf=(conver=6) int=(grid=ultrafine)

title

0 1
C -0.223913000000000 0.002109000000000 0.127404000000000
C -0.229554000000000 0.001265000000000 1.520572000000000
C 0.966066000000000 -0.002100000000000 2.235729000000000
C 2.176417000000000 -0.004636000000000 1.545888000000000
C 2.194095000000000 -0.003818000000000 0.152623000000000
C 0.992179000000000 -0.000449000000000 -0.552274000000000
Br -1.869237000000000 0.004669000000000 2.446186000000000
H 0.946534000000000 -0.002734000000000 3.316252000000000
H 3.104760000000000 -0.007248000000000 2.100804000000000
H 3.135463000000000 -0.005789000000000 -0.378706000000000
H 0.996880000000000 0.000205000000000 -1.633817000000000
H -1.159029000000000 0.004715000000000 -0.414303000000000
N -4.599787922000000 0.003154852000000 4.006695219000000
C -5.425607922000000 -1.075570148000000 3.498540219000000
C -4.306988922000000 -0.203503148000000 5.412157219000000
C -5.258571922000000 1.280339852000000 3.810012219000000
H -5.218103922000000 -0.220786148000000 6.031045219000000
H -3.785496922000000 -1.150427148000000 5.542299219000000
H -3.661845922000000 0.595837852000000 5.773293219000000
H -6.219989922000000 1.341624852000000 4.344243219000000
H -4.615510922000000 2.083134852000000 4.167043219000000
H -5.445050922000000 1.436840852000000 2.748764219000000
H -6.395839922000000 -1.139028148000000 4.016321219000000
H -5.612615922000000 -0.924758148000000 2.436549219000000
H -4.906683922000000 -2.024515148000000 3.623874219000000

23benBrNm3105.wfx

