%nprocs=4
%mem=4GB
#p pbepbe aug-cc-pvtz output=wfx scf=(conver=6) int=(grid=ultrafine)

title

0 1
N -5.119876322000000 0.002866452000000 4.303925619000000
C -5.945696322000000 -1.075858548000000 3.795770619000000
C -4.827077322000000 -0.203791548000000 5.709387619000000
C -5.778660322000000 1.280051452000000 4.107242619000000
H -6.915928322000000 -1.139316548000000 4.313551619000000
H -6.132704322000000 -0.925046548000000 2.733779619000000
H -5.426772322000000 -2.024803548000000 3.921104619000000
H -5.738192322000000 -0.221074548000000 6.328275619000000
H -4.305585322000000 -1.150715548000000 5.839529619000000
H -4.181934322000000 0.595549452000000 6.070523619000000
H -6.740078322000000 1.341336452000000 4.641473619000000
H -5.135599322000000 2.082846452000000 4.464273619000000
H -5.965139322000000 1.436552452000000 3.045994619000000

23benBrNm3125_2.wfx

