%nprocs=4
%mem=4GB
#p pbepbe aug-cc-pvtz output=wfx scf=(conver=6) int=(grid=ultrafine)

title

0 1
C -0.223913000000000 0.002109000000000 0.127404000000000
C -0.229554000000000 0.001265000000000 1.520572000000000
C 0.966066000000000 -0.002100000000000 2.235729000000000
C 2.176417000000000 -0.004636000000000 1.545888000000000
C 2.194095000000000 -0.003818000000000 0.152623000000000
C 0.992179000000000 -0.000449000000000 -0.552274000000000
Br -1.869237000000000 0.004669000000000 2.446186000000000
H 0.946534000000000 -0.002734000000000 3.316252000000000
H 3.104760000000000 -0.007248000000000 2.100804000000000
H 3.135463000000000 -0.005789000000000 -0.378706000000000
H 0.996880000000000 0.000205000000000 -1.633817000000000
H -1.159029000000000 0.004715000000000 -0.414303000000000
N -4.729810022000000 0.003082752000000 4.081002819000000
C -5.555630022000000 -1.075642248000000 3.572847819000000
C -4.437011022000000 -0.203575248000000 5.486464819000000
C -5.388594022000000 1.280267752000000 3.884319819000000
H -5.348126022000000 -0.220858248000000 6.105352819000000
H -3.915519022000000 -1.150499248000000 5.616606819000000
H -3.791868022000000 0.595765752000000 5.847600819000000
H -6.350012022000000 1.341552752000000 4.418550819000000
H -4.745533022000000 2.083062752000000 4.241350819000000
H -5.575073022000000 1.436768752000000 2.823071819000000
H -6.525862022000000 -1.139100248000000 4.090628819000000
H -5.742638022000000 -0.924830248000000 2.510856819000000
H -5.036706022000000 -2.024587248000000 3.698181819000000

23benBrNm3110.wfx

