%nprocs=4
%mem=4GB
#p pbepbe aug-cc-pvtz output=wfx scf=(conver=6) int=(grid=ultrafine)

title

0 1
N -3.949677422000000 0.003515352000000 3.635157219000000
C -4.775497422000000 -1.075209648000000 3.127002219000000
C -3.656878422000000 -0.203142648000000 5.040619219000000
C -4.608461422000000 1.280700352000000 3.438474219000000
H -5.745729422000000 -1.138667648000000 3.644783219000000
H -4.962505422000000 -0.924397648000000 2.065011219000000
H -4.256573422000000 -2.024154648000000 3.252336219000000
H -4.567993422000000 -0.220425648000000 5.659507219000000
H -3.135386422000000 -1.150066648000000 5.170761219000000
H -3.011735422000000 0.596198352000000 5.401755219000000
H -5.569879422000000 1.341985352000000 3.972705219000000
H -3.965400422000000 2.083495352000000 3.795505219000000
H -4.794940422000000 1.437201352000000 2.377226219000000

23benBrNm3080_2.wfx

