%nprocs=4
%mem=4GB
#p pbepbe aug-cc-pvtz output=wfx scf=(conver=6) int=(grid=ultrafine)

title

0 1
N -4.339743722000000 0.003299052000000 3.858080019000000
C -5.165563722000000 -1.075425948000000 3.349925019000000
C -4.046944722000000 -0.203358948000000 5.263542019000000
C -4.998527722000000 1.280484052000000 3.661397019000000
H -6.135795722000000 -1.138883948000000 3.867706019000000
H -5.352571722000000 -0.924613948000000 2.287934019000000
H -4.646639722000000 -2.024370948000000 3.475259019000000
H -4.958059722000000 -0.220641948000000 5.882430019000000
H -3.525452722000000 -1.150282948000000 5.393684019000000
H -3.401801722000000 0.595982052000000 5.624678019000000
H -5.959945722000000 1.341769052000000 4.195628019000000
H -4.355466722000000 2.083279052000000 4.018428019000000
H -5.185006722000000 1.436985052000000 2.600149019000000

23benBrNm3095_2.wfx

