%nprocs=4
%mem=4GB
#p pbepbe aug-cc-pvtz output=wfx scf=(conver=6) int=(grid=ultrafine)

title

0 1
C -0.223913000000000 0.002109000000000 0.127404000000000
C -0.229554000000000 0.001265000000000 1.520572000000000
C 0.966066000000000 -0.002100000000000 2.235729000000000
C 2.176417000000000 -0.004636000000000 1.545888000000000
C 2.194095000000000 -0.003818000000000 0.152623000000000
C 0.992179000000000 -0.000449000000000 -0.552274000000000
Br -1.869237000000000 0.004669000000000 2.446186000000000
H 0.946534000000000 -0.002734000000000 3.316252000000000
H 3.104760000000000 -0.007248000000000 2.100804000000000
H 3.135463000000000 -0.005789000000000 -0.378706000000000
H 0.996880000000000 0.000205000000000 -1.633817000000000
H -1.159029000000000 0.004715000000000 -0.414303000000000
N -5.119876322000000 0.002866452000000 4.303925619000000
C -5.945696322000000 -1.075858548000000 3.795770619000000
C -4.827077322000000 -0.203791548000000 5.709387619000000
C -5.778660322000000 1.280051452000000 4.107242619000000
H -5.738192322000000 -0.221074548000000 6.328275619000000
H -4.305585322000000 -1.150715548000000 5.839529619000000
H -4.181934322000000 0.595549452000000 6.070523619000000
H -6.740078322000000 1.341336452000000 4.641473619000000
H -5.135599322000000 2.082846452000000 4.464273619000000
H -5.965139322000000 1.436552452000000 3.045994619000000
H -6.915928322000000 -1.139316548000000 4.313551619000000
H -6.132704322000000 -0.925046548000000 2.733779619000000
H -5.426772322000000 -2.024803548000000 3.921104619000000

23benBrNm3125.wfx

