%nprocs=4
%mem=4GB
#p pbepbe aug-cc-pvtz output=wfx scf=(conver=6) int=(grid=ultrafine)

title

0 1
C -0.223913000000000 0.002109000000000 0.127404000000000
C -0.229554000000000 0.001265000000000 1.520572000000000
C 0.966066000000000 -0.002100000000000 2.235729000000000
C 2.176417000000000 -0.004636000000000 1.545888000000000
C 2.194095000000000 -0.003818000000000 0.152623000000000
C 0.992179000000000 -0.000449000000000 -0.552274000000000
Br -1.869237000000000 0.004669000000000 2.446186000000000
H 0.946534000000000 -0.002734000000000 3.316252000000000
H 3.104760000000000 -0.007248000000000 2.100804000000000
H 3.135463000000000 -0.005789000000000 -0.378706000000000
H 0.996880000000000 0.000205000000000 -1.633817000000000
H -1.159029000000000 0.004715000000000 -0.414303000000000
N -4.209721622000000 0.003371152000000 3.783772419000000
C -5.035541622000000 -1.075353848000000 3.275617419000000
C -3.916922622000000 -0.203286848000000 5.189234419000000
C -4.868505622000000 1.280556152000000 3.587089419000000
H -4.828037622000000 -0.220569848000000 5.808122419000000
H -3.395430622000000 -1.150210848000000 5.319376419000000
H -3.271779622000000 0.596054152000000 5.550370419000000
H -5.829923622000000 1.341841152000000 4.121320419000000
H -4.225444622000000 2.083351152000000 3.944120419000000
H -5.054984622000000 1.437057152000000 2.525841419000000
H -6.005773622000000 -1.138811848000000 3.793398419000000
H -5.222549622000000 -0.924541848000000 2.213626419000000
H -4.516617622000000 -2.024298848000000 3.400951419000000

23benBrNm3090.wfx

