%nprocs=4
%mem=4GB
#p pbepbe aug-cc-pvtz output=wfx scf=(conver=6) int=(grid=ultrafine)

title

0 1
N -4.469679000000000 0.003227000000000 3.932338000000000
C -5.295499000000000 -1.075498000000000 3.424183000000000
C -4.176880000000000 -0.203431000000000 5.337800000000000
C -5.128463000000000 1.280412000000000 3.735655000000000
H -6.265731000000000 -1.138956000000000 3.941964000000000
H -5.482507000000000 -0.924686000000000 2.362192000000000
H -4.776575000000000 -2.024443000000000 3.549517000000000
H -5.087995000000000 -0.220714000000000 5.956688000000000
H -3.655388000000000 -1.150355000000000 5.467942000000000
H -3.531737000000000 0.595910000000000 5.698936000000000
H -6.089881000000000 1.341697000000000 4.269886000000000
H -4.485402000000000 2.083207000000000 4.092686000000000
H -5.314942000000000 1.436913000000000 2.674407000000000

23benBrNm3100_2.wfx

