%nprocs=4
%mem=4GB
#p pbepbe aug-cc-pvtz output=wfx scf=(conver=6) int=(grid=ultrafine)

title

0 1
C 1.037288000000000 0.000539000000000 -0.582102000000000
C -0.176487000000000 -0.000271000000000 0.102715000000000
C -0.183174000000000 -0.000518000000000 1.498133000000000
C 1.019880000000000 0.000040000000000 2.205172000000000
C 2.228616000000000 0.000848000000000 1.511505000000000
C 2.241753000000000 0.001096000000000 0.118273000000000
I -2.004073000000000 -0.001696000000000 2.534377000000000
H 1.013157000000000 -0.000135000000000 3.286244000000000
H 3.159115000000000 0.001279000000000 2.063225000000000
H 3.181398000000000 0.001715000000000 -0.416415000000000
H 1.038283000000000 0.000729000000000 -1.663869000000000
H -1.109304000000000 -0.000688000000000 -0.443732000000000
N -4.344005971000000 -0.001948909000000 3.868583833000000
C -5.193661971000000 1.033121091000000 3.307477833000000
C -4.963477971000000 -1.306064909000000 3.714598833000000
C -4.072024971000000 0.268593091000000 5.268895833000000
H -4.990628971000000 0.283679091000000 5.875024833000000
H -3.408450971000000 -0.497308909000000 5.666990833000000
H -3.578791971000000 1.234396091000000 5.365537833000000
H -6.170294971000000 1.087537091000000 3.812148833000000
H -4.702240971000000 2.000124091000000 3.401048833000000
H -5.362129971000000 0.834559091000000 2.250313833000000
H -5.928242971000000 -1.372185909000000 4.240270833000000
H -5.131473971000000 -1.508582909000000 2.658124833000000
H -4.301304971000000 -2.074410909000000 4.110213833000000

24benINm3090.wfx

