%nprocs=4
%mem=4GB
#p pbepbe aug-cc-pvtz output=wfx scf=(conver=6) int=(grid=ultrafine)

title

0 1
N -4.214014521000000 -0.001934859000000 3.794463983000000
C -5.063670521000000 1.033135141000000 3.233357983000000
C -4.833486521000000 -1.306050859000000 3.640478983000000
C -3.942033521000000 0.268607141000000 5.194775983000000
H -6.040303521000000 1.087551141000000 3.738028983000000
H -4.572249521000000 2.000138141000000 3.326928983000000
H -5.232138521000000 0.834573141000000 2.176193983000000
H -5.798251521000000 -1.372171859000000 4.166150983000000
H -5.001482521000000 -1.508568859000000 2.584004983000000
H -4.171313521000000 -2.074396859000000 4.036093983000000
H -4.860637521000000 0.283693141000000 5.800904983000000
H -3.278459521000000 -0.497294859000000 5.592870983000000
H -3.448800521000000 1.234410141000000 5.291417983000000

24benINm3085_2.wfx

