%nprocs=4
%mem=4GB
#p pbepbe aug-cc-pvtz output=wfx scf=(conver=6) int=(grid=ultrafine)

title

0 1
N -5.903903371000000 -0.002117509000000 4.758022033000000
C -6.753559371000000 1.032952491000000 4.196916033000000
C -6.523375371000000 -1.306233509000000 4.604037033000000
C -5.631922371000000 0.268424491000000 6.158334033000000
H -7.730192371000000 1.087368491000000 4.701587033000000
H -6.262138371000000 1.999955491000000 4.290487033000000
H -6.922027371000000 0.834390491000000 3.139752033000000
H -7.488140371000000 -1.372354509000000 5.129709033000000
H -6.691371371000000 -1.508751509000000 3.547563033000000
H -5.861202371000000 -2.074579509000000 4.999652033000000
H -6.550526371000000 0.283510491000000 6.764463033000000
H -4.968348371000000 -0.497477509000000 6.556429033000000
H -5.138689371000000 1.234227491000000 6.254976033000000

24benINm3150_2.wfx

