%nprocs=4
%mem=4GB
#p pbepbe aug-cc-pvtz output=wfx scf=(conver=6) int=(grid=ultrafine)

title

0 1
C 1.037288000000000 0.000539000000000 -0.582102000000000
C -0.176487000000000 -0.000271000000000 0.102715000000000
C -0.183174000000000 -0.000518000000000 1.498133000000000
C 1.019880000000000 0.000040000000000 2.205172000000000
C 2.228616000000000 0.000848000000000 1.511505000000000
C 2.241753000000000 0.001096000000000 0.118273000000000
I -2.004073000000000 -0.001696000000000 2.534377000000000
H 1.013157000000000 -0.000135000000000 3.286244000000000
H 3.159115000000000 0.001279000000000 2.063225000000000
H 3.181398000000000 0.001715000000000 -0.416415000000000
H 1.038283000000000 0.000729000000000 -1.663869000000000
H -1.109304000000000 -0.000688000000000 -0.443732000000000
N -4.863971771000000 -0.002005109000000 4.165063233000000
C -5.713627771000000 1.033064891000000 3.603957233000000
C -5.483443771000000 -1.306121109000000 4.011078233000000
C -4.591990771000000 0.268536891000000 5.565375233000000
H -5.510594771000000 0.283622891000000 6.171504233000000
H -3.928416771000000 -0.497365109000000 5.963470233000000
H -4.098757771000000 1.234339891000000 5.662017233000000
H -6.690260771000000 1.087480891000000 4.108628233000000
H -5.222206771000000 2.000067891000000 3.697528233000000
H -5.882095771000000 0.834502891000000 2.546793233000000
H -6.448208771000000 -1.372242109000000 4.536750233000000
H -5.651439771000000 -1.508639109000000 2.954604233000000
H -4.821270771000000 -2.074467109000000 4.406693233000000

24benINm3110.wfx

