%nprocs=4
%mem=4GB
#p pbepbe aug-cc-pvtz output=wfx scf=(conver=6) int=(grid=ultrafine)

title

0 1
N -4.863971771000000 -0.002005109000000 4.165063233000000
C -5.713627771000000 1.033064891000000 3.603957233000000
C -5.483443771000000 -1.306121109000000 4.011078233000000
C -4.591990771000000 0.268536891000000 5.565375233000000
H -6.690260771000000 1.087480891000000 4.108628233000000
H -5.222206771000000 2.000067891000000 3.697528233000000
H -5.882095771000000 0.834502891000000 2.546793233000000
H -6.448208771000000 -1.372242109000000 4.536750233000000
H -5.651439771000000 -1.508639109000000 2.954604233000000
H -4.821270771000000 -2.074467109000000 4.406693233000000
H -5.510594771000000 0.283622891000000 6.171504233000000
H -3.928416771000000 -0.497365109000000 5.963470233000000
H -4.098757771000000 1.234339891000000 5.662017233000000

24benINm3110_2.wfx

