%nprocs=4
%mem=4GB
#p pbepbe aug-cc-pvtz output=wfx scf=(conver=6) int=(grid=ultrafine)

title

0 1
S -3.953617801000000 5.473802035000000 -0.783154902000000
H -4.619965755000000 4.540307124000000 -1.467827111000000
C -2.624512849000000 5.714810711000000 -1.995583288000000
H -1.963751622000000 6.466574297000000 -1.573015588000000
H -2.061129143000000 4.799053557000000 -2.144592272000000
H -3.014699233000000 6.081665372000000 -2.939480831000000

25benBrmSH090_2.wfx

