%nprocs=4
%mem=4GB
#p pbepbe aug-cc-pvtz output=wfx scf=(conver=6) int=(grid=ultrafine)

title

0 1
S -4.087997772000000 5.642436454000000 -0.846187012000000
H -4.754345726000000 4.708941543000000 -1.530859221000000
C -2.758892820000000 5.883445130000000 -2.058615398000000
H -2.098131593000000 6.635208716000000 -1.636047698000000
H -2.195509114000000 4.967687976000000 -2.207624382000000
H -3.149079204000000 6.250299791000000 -3.002512941000000

25benBrmSH095_2.wfx

