%nprocs=4
%mem=4GB
#p pbepbe aug-cc-pvtz output=wfx scf=(conver=6) int=(grid=ultrafine)

title

0 1
C -0.189833176000000 -0.645396435000000 0.069807761000000
C 1.121636324000000 -0.354065576000000 0.439096514000000
C 1.486520953000000 0.962572632000000 0.712107225000000
C 0.549329390000000 1.989209324000000 0.617868956000000
C -0.757627135000000 1.681862630000000 0.246856908000000
C -1.138190460000000 0.370551816000000 -0.028582325000000
Br -2.038462778000000 3.070459841000000 0.115165429000000
H 1.852935245000000 -1.146434699000000 0.514119204000000
H 0.825048723000000 3.012176989000000 0.829385472000000
H 2.502259769000000 1.196433556000000 1.000317333000000
H -2.157140187000000 0.151608161000000 -0.313181471000000
H -0.480820487000000 -1.664983631000000 -0.142918416000000
S -3.653741445000000 5.097484980000000 -0.642495257000000
H -4.320089399000000 4.163990069000000 -1.327167466000000
C -2.324636493000000 5.338493656000000 -1.854923643000000
H -1.663875266000000 6.090257242000000 -1.432355943000000
H -1.761252787000000 4.422736502000000 -2.003932627000000
H -2.714822877000000 5.705348317000000 -2.798821186000000

25benBrmSH080.wfx

