%nprocs=4
%mem=4GB
#p pbepbe aug-cc-pvtz output=wfx scf=(conver=6) int=(grid=ultrafine)

title

0 1
S -4.458662776000000 6.107586708000000 -1.020050696000000
H -5.125010730000000 5.174091797000000 -1.704722905000000
C -3.129557824000000 6.348595384000000 -2.232479082000000
H -2.468796597000000 7.100358970000000 -1.809911382000000
H -2.566174118000000 5.432838230000000 -2.381488066000000
H -3.519744208000000 6.715450045000000 -3.176376625000000

25benBrmSH110_2.wfx

