%nprocs=4
%mem=4GB
#p pbepbe aug-cc-pvtz output=wfx scf=(conver=6) int=(grid=ultrafine)

title

0 1
S -5.340181512000000 7.213811086000000 -1.433534824000000
H -6.006529466000000 6.280316175000000 -2.118207033000000
C -4.011076560000000 7.454819762000000 -2.645963210000000
H -3.350315333000000 8.206583348000001 -2.223395510000000
H -3.447692854000000 6.539062608000000 -2.794972194000000
H -4.401262944000000 7.821674423000000 -3.589860753000000

25benBrmSH150_2.wfx

