%nprocs=4
%mem=4GB
#p pbepbe aug-cc-pvtz output=wfx scf=(conver=6) int=(grid=ultrafine)

title

0 1
S -3.653741445000000 5.097484980000000 -0.642495257000000
H -4.320089399000000 4.163990069000000 -1.327167466000000
C -2.324636493000000 5.338493656000000 -1.854923643000000
H -1.663875266000000 6.090257242000000 -1.432355943000000
H -1.761252787000000 4.422736502000000 -2.003932627000000
H -2.714822877000000 5.705348317000000 -2.798821186000000

25benBrmSH080_2.wfx

