%nprocs=4
%mem=4GB
#p pbepbe aug-cc-pvtz output=wfx scf=(conver=6) int=(grid=ultrafine)

title

0 1
S -4.215936931000000 5.802988251000000 -0.906198001000000
H -4.882284885000000 4.869493340000000 -1.590870210000000
C -2.886831979000000 6.043996927000000 -2.118626387000000
H -2.226070752000000 6.795760513000000 -1.696058687000000
H -2.323448273000000 5.128239773000000 -2.267635371000000
H -3.277018363000000 6.410851588000000 -3.062523930000000

25benBrmSH100_2.wfx

