%nprocs=4
%mem=4GB
#p pbepbe aug-cc-pvtz output=wfx scf=(conver=6) int=(grid=ultrafine)

title

0 1
S -4.857551203000000 9.690845727999999 1.940267224000000
H -6.073657697000000 9.199389145000000 1.686655874000000
C -4.434003032000000 10.104781724000000 0.224219899000000
H -3.429301029000000 10.517075266000001 0.253017077000000
H -4.428735206000000 9.218148396000000 -0.401900990000000
H -5.110198613000000 10.852819306000001 -0.176816109000000

26benImSH200_2.wfx

