%nprocs=4
%mem=4GB
#p pbepbe aug-cc-pvtz output=wfx scf=(conver=6) int=(grid=ultrafine)

title

0 1
S -3.605441843000000 7.249860161000000 1.428418733000000
H -4.821548337000000 6.758403578000000 1.174807383000000
C -3.181893672000000 7.663796157000000 -0.287628592000000
H -2.177191669000000 8.076089699000001 -0.258831414000000
H -3.176625846000000 6.777162829000000 -0.913749481000000
H -3.858089253000000 8.411833739000000 -0.688664600000000

26benImSH125_2.wfx

