%nprocs=4
%mem=4GB
#p pbepbe aug-cc-pvtz output=wfx scf=(conver=6) int=(grid=ultrafine)

title

0 1
S -2.816531899000000 5.711881252000000 1.105921053000000
H -4.032638393000000 5.220424669000000 0.852309703000000
C -2.392983728000000 6.125817248000000 -0.610126272000000
H -1.388281725000000 6.538110790000000 -0.581329094000000
H -2.387715902000000 5.239183920000000 -1.236247161000000
H -3.069179309000000 6.873854830000000 -1.011162280000000

26benImSH085_2.wfx

