%nprocs=4
%mem=4GB
#p pbepbe aug-cc-pvtz output=wfx scf=(conver=6) int=(grid=ultrafine)

title

0 1
S -4.037223678000000 8.091618284999999 1.604926383000000
H -5.253330172000000 7.600161702000000 1.351315033000000
C -3.613675507000000 8.505554281000000 -0.111120942000000
H -2.608973504000000 8.917847823000001 -0.082323764000000
H -3.608407681000000 7.618920953000000 -0.737241831000000
H -4.289871088000000 9.253591863000000 -0.512156950000000

26benImSH150_2.wfx

