%nprocs=4
%mem=4GB
#p pbepbe aug-cc-pvtz output=wfx scf=(conver=6) int=(grid=ultrafine)

title

0 1
S -3.331620965000000 6.716046714000000 1.316483780000000
H -4.547727459000000 6.224590131000000 1.062872430000000
C -2.908072794000000 7.129982710000000 -0.399563545000000
H -1.903370791000000 7.542276252000000 -0.370766367000000
H -2.902804968000000 6.243349382000000 -1.025684434000000
H -3.584268375000000 7.878020292000000 -0.800599553000000

26benImSH110_2.wfx

