%nprocs=4
%mem=4GB
#p pbepbe aug-cc-pvtz output=wfx scf=(conver=6) int=(grid=ultrafine)

title

0 1
C -0.755422531000000 -0.796459123000000 -1.023590391000000
C 0.634274834000000 -0.880017014000000 -1.075233285000000
C 1.406955202000000 0.199695367000000 -0.653144334000000
C 0.798863737000000 1.361204515000000 -0.180597909000000
C -0.593166787000000 1.434312023000000 -0.133597923000000
C -1.376239198000000 0.359205222000000 -0.553258516000000
I -1.514344238000000 3.173268101000000 0.573601106000000
H 1.110906949000000 -1.778801728000000 -1.440619836000000
H 1.399172302000000 2.197767355000000 0.147412751000000
H 2.486417780000000 0.142466525000000 -0.689380574000000
H -2.454252250000000 0.422581120000000 -0.512807958000000
H -1.362353593000000 -1.630564523000000 -1.348743149000000
S -3.605441843000000 7.249860161000000 1.428418733000000
H -4.821548337000000 6.758403578000000 1.174807383000000
C -3.181893672000000 7.663796157000000 -0.287628592000000
H -2.177191669000000 8.076089699000001 -0.258831414000000
H -3.176625846000000 6.777162829000000 -0.913749481000000
H -3.858089253000000 8.411833739000000 -0.688664600000000

26benImSH125.wfx

