%nprocs=4
%mem=4GB
#p pbepbe aug-cc-pvtz output=wfx scf=(conver=6) int=(grid=ultrafine)

title

0 1
BR -0.032732065000000 -2.945330701000000 1.755694636000000
C 0.095849547000000 -4.872879648000000 1.851426431000000
H 0.027155344000000 -5.268957982000000 0.845669936000000
H 1.049316042000000 -5.127614400000000 2.297721227000000
H -0.720911266000000 -5.237858755000000 2.462032765000000

27CH3Brben090_2.wfx

