%nprocs=4
%mem=4GB
#p pbepbe aug-cc-pvtz output=wfx scf=(conver=6) int=(grid=ultrafine)

title

0 1
H 0.007708134000000 0.214277133000000 0.052325531000000
C 0.010385622000000 0.200473849000000 1.133644571000000
C 1.217878091000000 0.246168636000000 1.828432064000000
C 1.221255777000000 0.223183280000000 3.221703755000000
C 0.017504067000000 0.154434365000000 3.920526125000000
C -1.189794814000000 0.108384428000000 3.226223411000000
C -1.193620703000000 0.131422512000000 1.832737209000000
H 2.152051476000000 0.294829039000000 1.285814970000000
H 2.158358824000000 0.255184368000000 3.760583554000000
H 0.020469186000000 0.133277566000000 5.001767838000000
H -2.123727010000000 0.050629146000000 3.768357732000000
H -2.130144916000000 0.090891901000000 1.293508374000000
Br -0.035267882000000 -3.125039141000000 1.764709975000000
C 0.093313730000000 -5.052588088000000 1.860441770000000
H 0.024619527000000 -5.448666422000000 0.854685275000000
H 1.046780225000000 -5.307322840000000 2.306736566000000
H -0.723447083000000 -5.417567195000000 2.471048104000000

27CH3Brben095.wfx

