%nprocs=4
%mem=4GB
#p pbepbe aug-cc-pvtz output=wfx scf=(conver=6) int=(grid=ultrafine)

title

0 1
BR -0.037799732000000 -3.304466448000000 1.773711211000000
C 0.090781880000000 -5.232015395000000 1.869443006000000
H 0.022087677000000 -5.628093729000000 0.863686511000000
H 1.044248375000000 -5.486750147000000 2.315737802000000
H -0.725978933000000 -5.596994502000000 2.480049340000000

27CH3Brben100_2.wfx

