%nprocs=4
%mem=4GB
#p pbepbe aug-cc-pvtz output=wfx scf=(conver=6) int=(grid=ultrafine)

title

0 1
BR -0.035267882000000 -3.125039141000000 1.764709975000000
C 0.093313730000000 -5.052588088000000 1.860441770000000
H 0.024619527000000 -5.448666422000000 0.854685275000000
H 1.046780225000000 -5.307322840000000 2.306736566000000
H -0.723447083000000 -5.417567195000000 2.471048104000000

27CH3Brben095_2.wfx

