%nprocs=4
%mem=4GB
#p pbepbe aug-cc-pvtz output=wfx scf=(conver=6) int=(grid=ultrafine)

title

0 1
BR -0.088646813000000 -6.907900555000000 1.954482800000000
C 0.039934799000000 -8.835449501999999 2.050214595000000
H -0.028759404000000 -9.231527836000000 1.044458100000000
H 0.993401294000000 -9.090184254000000 2.496509391000000
H -0.776826014000000 -9.200428608999999 2.660820929000000

27CH3Brben200_2.wfx

