%nprocs=4
%mem=4GB
#p pbepbe aug-cc-pvtz output=wfx scf=(conver=6) int=(grid=ultrafine)

title

0 1
H 0.007708134000000 0.214277133000000 0.052325531000000
C 0.010385622000000 0.200473849000000 1.133644571000000
C 1.217878091000000 0.246168636000000 1.828432064000000
C 1.221255777000000 0.223183280000000 3.221703755000000
C 0.017504067000000 0.154434365000000 3.920526125000000
C -1.189794814000000 0.108384428000000 3.226223411000000
C -1.193620703000000 0.131422512000000 1.832737209000000
H 2.152051476000000 0.294829039000000 1.285814970000000
H 2.158358824000000 0.255184368000000 3.760583554000000
H 0.020469186000000 0.133277566000000 5.001767838000000
H -2.123727010000000 0.050629146000000 3.768357732000000
H -2.130144916000000 0.090891901000000 1.293508374000000
Br -0.027650793000000 -2.585230811000000 1.737629694000000
C 0.100930819000000 -4.512779758000000 1.833361489000000
H 0.032236616000000 -4.908858092000000 0.827604994000000
H 1.054397314000000 -4.767514510000000 2.279656285000000
H -0.715829994000000 -4.877758865000000 2.443967823000000

27CH3Brben080.wfx

