%nprocs=4
%mem=4GB
#p pbepbe aug-cc-pvtz output=wfx scf=(conver=6) int=(grid=ultrafine)

title

0 1
BR -0.030193229000000 -2.765408296000000 1.746668563000000
C 0.098388383000000 -4.692957243000000 1.842400358000000
H 0.029694180000000 -5.089035577000000 0.836643863000000
H 1.051854878000000 -4.947691995000000 2.288695154000000
H -0.718372430000000 -5.057936350000000 2.453006692000000

27CH3Brben085_2.wfx

