%nprocs=4
%mem=4GB
#p pbepbe aug-cc-pvtz output=wfx scf=(conver=6) int=(grid=ultrafine)

title

0 1
I -0.155916218000000 -3.679411335000000 1.868604367000000
C 0.118605041000000 -5.782822035000000 1.857584848000000
H 0.123009261000000 -6.116529343000000 0.824661512000000
H 1.067456850000000 -6.000753710000000 2.337752796000000
H -0.703466213000000 -6.232917667000000 2.405248535000000

28CH3Iben110_2.wfx

