%nprocs=4
%mem=4GB
#p pbepbe aug-cc-pvtz output=wfx scf=(conver=6) int=(grid=ultrafine)

title

0 1
I -0.184451906000000 -3.499855148000000 1.877362544000000
C 0.090069353000000 -5.603265848000000 1.866343025000000
H 0.094473573000000 -5.936973156000000 0.833419689000000
H 1.038921162000000 -5.821197523000000 2.346510973000000
H -0.732001901000000 -6.053361480000000 2.414006712000000

28CH3Iben105_2.wfx

