%nprocs=4
%mem=4GB
#p pbepbe aug-cc-pvtz output=wfx scf=(conver=6) int=(grid=ultrafine)

title

0 1
I 0.355984692000000 -6.900464714000000 1.711491678000000
C 0.630505951000000 -9.003875413999999 1.700472159000000
H 0.634910171000000 -9.337582722000001 0.667548823000000
H 1.579357760000000 -9.221807089000000 2.180640107000000
H -0.191565303000000 -9.453971045999999 2.248135846000000

28CH3Iben200_2.wfx

