%nprocs=4
%mem=4GB
#p pbepbe aug-cc-pvtz output=wfx scf=(conver=6) int=(grid=ultrafine)

title

0 1
I 0.071875133000000 -5.112751433000000 1.798690618000000
C 0.346396392000000 -7.216162133000000 1.787671099000000
H 0.350800612000000 -7.549869441000000 0.754747763000000
H 1.295248201000000 -7.434093808000000 2.267839047000000
H -0.475674862000000 -7.666257765000000 2.335334786000000

28CH3Iben150_2.wfx

