%nprocs=4
%mem=4GB
#p pbepbe aug-cc-pvtz output=wfx scf=(conver=6) int=(grid=ultrafine)

title

0 1
I -0.070408166000000 -4.217456867000000 1.842360226000000
C 0.204113093000000 -6.320867567000000 1.831340707000000
H 0.208517313000000 -6.654574875000000 0.798417371000000
H 1.152964902000000 -6.538799242000000 2.311508655000000
H -0.617958161000000 -6.770963199000000 2.379004394000000

28CH3Iben125_2.wfx

