%nprocs=4
%mem=4GB
#p pbepbe aug-cc-pvtz output=wfx scf=(conver=6) int=(grid=ultrafine)

title

0 1
I -0.270197169000000 -2.960317002000000 1.903679490000000
C 0.004324090000000 -5.063727702000000 1.892659971000000
H 0.008728310000000 -5.397435010000000 0.859736635000000
H 0.953175899000000 -5.281659377000000 2.372827919000000
H -0.817747164000000 -5.513823334000000 2.440323658000000

28CH3Iben090_2.wfx

