%nprocs=4
%mem=4GB
#p pbepbe aug-cc-pvtz output=wfx scf=(conver=6) int=(grid=ultrafine)

title

0 1
BR -0.263597863000000 -3.225247538000000 1.994041372000000
C 0.054727977000000 -5.120235988000000 1.928973593000000
F 0.083677645000000 -5.543479849000000 0.671433985000000
F 1.216711981000000 -5.415034814000000 2.498246903000000
F -0.905259361000000 -5.774785842000000 2.570304160000000

29CF3Brben100_2.wfx

