%nprocs=4
%mem=4GB
#p pbepbe aug-cc-pvtz output=wfx scf=(conver=6) int=(grid=ultrafine)

title

0 1
I 0.006630342000000 -4.074212404000000 1.758803779000000
C 0.109383218000000 -6.191953539000000 1.881064258000000
F 0.138493549000000 -6.735657555000000 0.666415513000000
F 1.205434843000000 -6.575553435000000 2.531918231000000
F -0.946880578000000 -6.680480903000000 2.527233100000000

30CF3Iben125_2.wfx

