%nprocs=4
%mem=4GB
#p pbepbe aug-cc-pvtz output=wfx scf=(conver=6) int=(grid=ultrafine)

title

0 1
I 0.001339740000000 -2.661796378000000 1.708889689000000
C 0.104092616000000 -4.779537513000000 1.831150168000000
F 0.133202947000000 -5.323241529000000 0.616501423000000
F 1.200144241000000 -5.163137409000000 2.482004141000000
F -0.952171180000000 -5.268064877000000 2.477319010000000

30CF3Iben085_2.wfx

