%nprocs=4
%mem=4GB
#p pbepbe aug-cc-pvtz output=wfx scf=(conver=6) int=(grid=ultrafine)

title

0 1
I 0.003989276000000 -3.369135013000000 1.733886689000000
C 0.106742152000000 -5.486876148000000 1.856147168000000
F 0.135852483000000 -6.030580164000000 0.641498423000000
F 1.202793777000000 -5.870476044000000 2.507001141000000
F -0.949521644000000 -5.975403512000000 2.502316010000000

30CF3Iben105_2.wfx

