%nprocs=4
%mem=4GB
#p pbepbe aug-cc-pvtz output=wfx scf=(conver=6) int=(grid=ultrafine)

title

0 1
I 0.000675271000000 -2.484404992000000 1.702620764000000
C 0.103428147000000 -4.602146127000000 1.824881243000000
F 0.132538478000000 -5.145850143000000 0.610232498000000
F 1.199479772000000 -4.985746023000000 2.475735216000000
F -0.952835649000000 -5.090673491000000 2.471050085000000

30CF3Iben080_2.wfx

