%nprocs=4
%mem=4GB
#p pbepbe aug-cc-pvtz output=wfx scf=(conver=6) int=(grid=ultrafine)

title

0 1
H -0.034768801000000 0.294585208000000 0.057187563000000
C -0.017014316000000 0.261960410000000 1.141050258000000
C 1.201240991000000 0.285824105000000 1.820042020000000
C 1.223051195000000 0.249206224000000 3.213256330000000
C 0.027949888000000 0.188858607000000 3.927964260000000
C -1.189662929000000 0.164642236000000 3.250361662000000
C -1.212924754000000 0.201264985000000 1.856906008000000
H 2.130707182000000 0.332626520000000 1.263780775000000
H 2.169947323000000 0.266273588000000 3.740739601000000
H 0.045570678000000 0.158814598000000 5.011482817000000
H -2.118962097000000 0.116212797000000 3.806470317000000
H -2.160018595000000 0.183694220000000 1.329378876000000
I 0.002665908000000 -3.015839284000000 1.721401392000000
C 0.105418784000000 -5.133580419000000 1.843661871000000
F 0.134529115000000 -5.677284435000000 0.629013126000000
F 1.201470409000000 -5.517180315000000 2.494515844000000
F -0.950845012000000 -5.622107783000000 2.489830713000000

30CF3Iben095.wfx

