%nprocs=4
%mem=4GB
#p pbepbe aug-cc-pvtz output=wfx scf=(conver=6) int=(grid=ultrafine)

title

0 1
O -0.822589646000000 0.130751992000000 -0.004670180000000
H 0.151322978000000 0.236946671000000 -0.005208468000000
C -1.094495060000000 -1.171586630000000 -0.000235811000000
F -2.408360005000000 -1.348046797000000 0.002362133000000
F -0.590968467000000 -1.812045684000000 -1.074390844000000
F -0.587525050000000 -1.805322781000000 1.076316471000000
O 2.363006546000000 0.343481156000000 -0.006067641000000
H 2.817684734000000 -0.027661015000000 -0.765997838000000
H 2.817691831000000 -0.028630837000000 0.753388234000000

31trifluorometOHwat125.wfx

