%nprocs=4
%mem=4GB
#p pbepbe aug-cc-pvtz output=wfx scf=(conver=6) int=(grid=ultrafine)

title

0 1
O 1.566836420000000 0.305130474000000 -0.005758352000000
H 2.021514608000000 -0.066011697000000 -0.765688549000000
H 2.021521705000000 -0.066981519000000 0.753697523000000

31trifluorometOHwat080_2.wfx

