%nprocs=4
%mem=4GB
#p pbepbe aug-cc-pvtz output=wfx scf=(conver=6) int=(grid=ultrafine)

title

0 1
O 1.832226462000000 0.317914034000000 -0.005861448000000
H 2.286904650000000 -0.053228137000000 -0.765791645000000
H 2.286911747000000 -0.054197959000000 0.753594427000000

31trifluorometOHwat095_2.wfx

