%nprocs=4
%mem=4GB
#p pbepbe aug-cc-pvtz output=wfx scf=(conver=6) int=(grid=ultrafine)

title

0 1
O 3.667017192000000 0.448175205000000 -0.009179584000000
H 4.037263820000000 -0.011876797000000 -0.767425190000000
H 4.038270507000000 -0.008696606000000 0.750537742000000

32trichlorometOHwat200_2.wfx

