%nprocs=4
%mem=4GB
#p pbepbe aug-cc-pvtz output=wfx scf=(conver=6) int=(grid=ultrafine)

title

0 1
O 2.022426827000000 0.380715197000000 -0.007313203000000
H 2.392673455000000 -0.079336805000000 -0.765558809000000
H 2.393680142000000 -0.076156614000000 0.752404123000000

32trichlorometOHwat105_2.wfx

