%nprocs=4
%mem=4GB
#p pbepbe aug-cc-pvtz output=wfx scf=(conver=6) int=(grid=ultrafine)

title

0 1
O 1.676197276000000 0.366513090000000 -0.006920281000000
H 2.046443904000000 -0.093538912000000 -0.765165887000000
H 2.047450591000000 -0.090358721000000 0.752797045000000

32trichlorometOHwat085_2.wfx

