%nprocs=4
%mem=4GB
#p pbepbe aug-cc-pvtz output=wfx scf=(conver=6) int=(grid=ultrafine)

title

0 1
O 2.368656377000000 0.394917304000000 -0.007706125000000
H 2.738903005000000 -0.065134698000000 -0.765951731000000
H 2.739909692000000 -0.061954507000000 0.752011201000000

32trichlorometOHwat125_2.wfx

