%nprocs=4
%mem=4GB
#p pbepbe aug-cc-pvtz output=wfx scf=(conver=6) int=(grid=ultrafine)

title

0 1
O -0.778073626000000 0.205937567000000 -0.003744167000000
H 0.204621770000000 0.306150037000000 -0.005250247000000
C -1.064673043000000 -1.099865265000000 -0.000037626000000
Cl -2.818149715000000 -1.288073131000000 0.002340120000000
Cl -0.388554792000000 -1.946140752000000 -1.447422763000000
Cl -0.385461107000000 -1.938612521000000 1.450299192000000
O 2.022426827000000 0.380715197000000 -0.007313203000000
H 2.392673455000000 -0.079336805000000 -0.765558809000000
H 2.393680142000000 -0.076156614000000 0.752404123000000

32trichlorometOHwat105.wfx

