%nprocs=4
%mem=4GB
#p pbepbe aug-cc-pvtz output=wfx scf=(conver=6) int=(grid=ultrafine)

title

0 1
O 1.935769523000000 0.377160572000000 -0.007214859000000
H 2.306016151000000 -0.082891430000000 -0.765460465000000
H 2.307022838000000 -0.079711239000000 0.752502467000000

32trichlorometOHwat100_2.wfx

