%nprocs=4
%mem=4GB
#p pbepbe aug-cc-pvtz output=wfx scf=(conver=6) int=(grid=ultrafine)

title

0 1
O 1.589639888000000 0.362962563000000 -0.006822050000000
H 1.959886516000000 -0.097089439000000 -0.765067656000000
H 1.960893203000000 -0.093909248000000 0.752895276000000

32trichlorometOHwat080_2.wfx

