%nprocs=4
%mem=4GB
#p pbepbe aug-cc-pvtz output=wfx scf=(conver=6) int=(grid=ultrafine)

title

0 1
O 1.762754664000000 0.370063617000000 -0.007018511000000
H 2.133001292000000 -0.089988385000000 -0.765264117000000
H 2.134007979000000 -0.086808194000000 0.752698815000000

32trichlorometOHwat090_2.wfx

