%nprocs=4
%mem=4GB
#p pbepbe aug-cc-pvtz output=wfx scf=(conver=6) int=(grid=ultrafine)

title

0 1
F 0.324738231000000 -0.000096172000000 0.367513243000000
H 0.106356599000000 -0.000015606000000 1.274535595000000
O -0.172804018000000 0.000148837000000 2.977023926000000
H -1.016537578000000 -0.000036604000000 3.432992751000000
C 0.876426903000000 0.000022101000000 3.940751135000000
H 1.807816896000000 0.000063118000000 3.385025861000000
H 0.843957277000000 0.889172090000000 4.568576086000000
H 0.843926687000000 -0.889257764000000 4.568390406000000

33HFmethanol100.wfx

