%nprocs=4
%mem=4GB
#p pbepbe aug-cc-pvtz output=wfx scf=(conver=6) int=(grid=ultrafine)

title

0 1
F 0.324738231000000 -0.000096172000000 0.367513243000000
H 0.106356599000000 -0.000015606000000 1.274535595000000
O -0.200736261000000 0.000165291000000 3.147371441000000
H -1.044469821000000 -0.000020150000000 3.603340266000000
C 0.848494660000000 0.000038555000000 4.111098650000000
H 1.779884653000000 0.000079572000000 3.555373376000000
H 0.816025034000000 0.889188544000000 4.738923601000000
H 0.815994444000000 -0.889241310000000 4.738737921000000

33HFmethanol110.wfx

