%nprocs=4
%mem=4GB
#p pbepbe aug-cc-pvtz output=wfx scf=(conver=6) int=(grid=ultrafine)

title

0 1
O -0.208684599000000 0.000006661000000 2.991797639000000
H -1.020898046000000 -0.000005807000000 3.503015623000000
C 0.896096257000000 0.000000670000000 3.890548848000000
H 1.792727405000000 -0.000000848000000 3.279383720000000
H 0.904455797000000 0.888980995000000 4.520188180000000
H 0.904451453000000 -0.888981999000000 4.520184913000000

34HClmethanol095_2.wfx

