%nprocs=4
%mem=4GB
#p pbepbe aug-cc-pvtz output=wfx scf=(conver=6) int=(grid=ultrafine)

title

0 1
Cl 0.377733920000000 -0.000000483000000 0.006430557000000
H 0.049409273000000 -0.000001882000000 1.255616511000000
O -0.290183284000000 0.000009358000000 3.540034128000000
H -1.102396731000000 -0.000003110000000 4.051252112000000
C 0.814597572000000 0.000003367000000 4.438785337000000
H 1.711228720000000 0.000001849000000 3.827620209000000
H 0.822957112000000 0.888983692000000 5.068424669000000
H 0.822952768000000 -0.888979302000000 5.068421402000000

34HClmethanol125.wfx

