%nprocs=4
%mem=4GB
#p pbepbe aug-cc-pvtz output=wfx scf=(conver=6) int=(grid=ultrafine)

title

0 1
Cl 0.377733920000000 -0.000000483000000 0.006430557000000
H 0.049409273000000 -0.000001882000000 1.255616511000000
O -0.222253009000000 0.000007110000000 3.083071474000000
H -1.034466456000000 -0.000005358000000 3.594289458000000
C 0.882527847000000 0.000001119000000 3.981822683000000
H 1.779158995000000 -0.000000399000000 3.370657555000000
H 0.890887387000000 0.888981444000000 4.611462015000000
H 0.890883043000000 -0.888981550000000 4.611458748000000

34HClmethanol100.wfx

