%nprocs=4
%mem=4GB
#p pbepbe aug-cc-pvtz output=wfx scf=(conver=6) int=(grid=ultrafine)

title

0 1
Cl 0.377733920000000 -0.000000483000000 0.006430557000000
H 0.049409273000000 -0.000001882000000 1.255616511000000
O -0.195101485000000 0.000006211000000 2.900424891000000
H -1.007314932000000 -0.000006257000000 3.411642875000000
C 0.909679371000000 0.000000220000000 3.799176100000000
H 1.806310519000000 -0.000001298000000 3.188010972000000
H 0.918038911000000 0.888980545000000 4.428815432000000
H 0.918034567000000 -0.888982449000000 4.428812165000000

34HClmethanol090.wfx

