%nprocs=4
%mem=4GB
#p pbepbe aug-cc-pvtz output=wfx scf=(conver=6) int=(grid=ultrafine)

title

0 1
O -0.235850827000000 0.000007560000000 3.174543135000000
H -1.048064274000000 -0.000004908000000 3.685761119000000
C 0.868930029000000 0.000001569000000 4.073294344000000
H 1.765561177000000 0.000000051000000 3.462129216000000
H 0.877289569000000 0.888981894000000 4.702933676000000
H 0.877285225000000 -0.888981100000000 4.702930409000000

34HClmethanol105_2.wfx

