%nprocs=4
%mem=4GB
#p pbepbe aug-cc-pvtz output=wfx scf=(conver=6) int=(grid=ultrafine)

title

0 1
Br 0.430759046000000 -0.000115215000000 -0.107945607000000
H 0.017750410000000 -0.000013811000000 1.259967353000000
O -0.214452302000000 0.000152368000000 2.849716016000000
H -1.006112937000000 -0.000070777000000 3.392583717000000
C 0.923095016000000 -0.000004861000000 3.706051016000000
H 1.796406990000000 0.000068065000000 3.061585030000000
H 0.956117337000000 0.888884932000000 4.335271391000000
H 0.956077114000000 -0.889076586000000 4.335015263000000

35HBrmethanol085.wfx

