%nprocs=4
%mem=4GB
#p pbepbe aug-cc-pvtz output=wfx scf=(conver=6) int=(grid=ultrafine)

title

0 1
O -0.323717365000000 0.000230566000000 3.597786469000000
H -1.115378000000000 0.000007421000000 4.140654170000000
C 0.813829953000000 0.000073337000000 4.454121469000000
H 1.687141927000000 0.000146263000000 3.809655483000000
H 0.846852274000000 0.888963130000000 5.083341844000000
H 0.846812051000000 -0.888998388000000 5.083085716000000

35HBrmethanol125_2.wfx

