%nprocs=4
%mem=4GB
#p pbepbe aug-cc-pvtz output=wfx scf=(conver=6) int=(grid=ultrafine)

title

0 1
I 0.494360760000000 0.000136728000000 -0.299186147000000
H -0.026818451000000 0.000009824000000 1.227779722000000
O -0.286207460000000 -0.000195782000000 3.111162072000000
H -1.043852894000000 0.000048253000000 3.700817056000000
C 0.895423982000000 -0.000015516000000 3.904117929000000
H 1.733434375000000 -0.000116929000000 3.213903930000000
H 0.964659926000000 0.888907553000000 4.530883788000000
H 0.964706907000000 -0.888709271000000 4.531204001000000

36HImethanol095.wfx

