%nprocs=4
%mem=4GB
#p pbepbe aug-cc-pvtz output=wfx scf=(conver=6) int=(grid=ultrafine)

title

0 1
O -0.572885495000000 -0.000423019000000 5.192685703000000
H -1.330530929000000 -0.000178984000000 5.782340687000000
C 0.608745947000000 -0.000242753000000 5.985641560000000
H 1.446756340000000 -0.000344166000000 5.295427561000000
H 0.677981891000000 0.888680316000000 6.612407419000000
H 0.678028872000000 -0.888936508000000 6.612727632000000

36HImethanol200_2.wfx

