%nprocs=4
%mem=4GB
#p pbepbe aug-cc-pvtz output=wfx scf=(conver=6) int=(grid=ultrafine)

title

0 1
I 0.494360760000000 0.000136728000000 -0.299186147000000
H -0.026818451000000 0.000009824000000 1.227779722000000
O -0.436372145000000 -0.000314811000000 4.201483974000000
H -1.194017579000000 -0.000070776000000 4.791138958000000
C 0.745259297000000 -0.000134545000000 4.994439831000000
H 1.583269690000000 -0.000235958000000 4.304225832000000
H 0.814495241000000 0.888788524000000 5.621205690000000
H 0.814542222000000 -0.888828300000000 5.621525903000000

36HImethanol150.wfx

