%nprocs=4
%mem=4GB
#p pbepbe aug-cc-pvtz output=wfx scf=(conver=6) int=(grid=ultrafine)

title

0 1
I 0.494360760000000 0.000136728000000 -0.299186147000000
H -0.026818451000000 0.000009824000000 1.227779722000000
O -0.368115470000000 -0.000260707000000 3.705883109000000
H -1.125760904000000 -0.000016672000000 4.295538093000000
C 0.813515972000000 -0.000080441000000 4.498838966000000
H 1.651526365000000 -0.000181854000000 3.808624967000000
H 0.882751916000000 0.888842628000000 5.125604825000000
H 0.882798897000000 -0.888774196000000 5.125925038000000

36HImethanol125.wfx

