%nprocs=4
%mem=4GB
#p pbepbe aug-cc-pvtz output=wfx scf=(conver=6) int=(grid=ultrafine)

title

0 1
F -0.071729041000000 -0.108855435000000 0.260652232000000
H -0.003218488000000 -0.010570213000000 1.202783243000000
N 0.053387290000000 0.049010236000000 2.915062160000000
H 1.008201758000000 0.081611278000000 3.247542602000000
C -0.622440711000000 -1.144789251000000 3.439397970000000
H -1.645308003000000 -1.158692763000000 3.073884010000000
H -0.123430739000000 -2.029191483000000 3.053577508000000
H -0.640440774000000 -1.201652603000000 4.528221966000000
H -0.395713292000000 0.884606234000000 3.266205308000000

37HFmethylamine100.wfx

