%nprocs=4
%mem=4GB
#p pbepbe aug-cc-pvtz output=wfx scf=(conver=6) int=(grid=ultrafine)

title

0 1
N 0.109996370000000 0.108594161000000 4.627440962000000
H 1.064810838000000 0.141195203000000 4.959921404000000
C -0.565831631000000 -1.085205326000000 5.151776772000000
H -0.339104212000000 0.944190159000000 4.978584110000000
H -1.588698923000000 -1.099108838000000 4.786262812000000
H -0.066821659000000 -1.969607558000000 4.765956310000000
H -0.583831694000000 -1.142068678000000 6.240600768000000

37HFmethylamine200_2.wfx

