%nprocs=4
%mem=4GB
#p pbepbe aug-cc-pvtz output=wfx scf=(conver=6) int=(grid=ultrafine)

title

0 1
F -0.071729041000000 -0.108855435000000 0.260652232000000
H -0.003218488000000 -0.010570213000000 1.202783243000000
N 0.050560303000000 0.046034689000000 2.829548099000000
H 1.005374771000000 0.078635731000000 3.162028541000000
C -0.625267698000000 -1.147764798000000 3.353883909000000
H -1.648134990000000 -1.161668310000000 2.988369949000000
H -0.126257726000000 -2.032167030000000 2.968063447000000
H -0.643267761000000 -1.204628150000000 4.442707905000000
H -0.398540279000000 0.881630687000000 3.180691247000000

37HFmethylamine095.wfx

