%nprocs=4
%mem=4GB
#p pbepbe aug-cc-pvtz output=wfx scf=(conver=6) int=(grid=ultrafine)

title

0 1
F -0.071729041000000 -0.108855435000000 0.260652232000000
H -0.003218488000000 -0.010570213000000 1.202783243000000
N 0.047730014000000 0.043055667000000 2.743934153000000
H 1.002544482000000 0.075656709000000 3.076414595000000
C -0.628097987000000 -1.150743820000000 3.268269963000000
H -1.650965279000000 -1.164647332000000 2.902756003000000
H -0.129088015000000 -2.035146052000000 2.882449501000000
H -0.646098050000000 -1.207607172000000 4.357093959000000
H -0.401370568000000 0.878651665000000 3.095077301000000

37HFmethylamine090.wfx

