%nprocs=4
%mem=4GB
#p pbepbe aug-cc-pvtz output=wfx scf=(conver=6) int=(grid=ultrafine)

title

0 1
F -0.071729041000000 -0.108855435000000 0.260652232000000
H -0.003218488000000 -0.010570213000000 1.202783243000000
N 0.059051170000000 0.054971756000000 3.086389937000000
H 1.013865638000000 0.087572798000000 3.418870379000000
C -0.616776831000000 -1.138827731000000 3.610725747000000
H -1.639644123000000 -1.152731243000000 3.245211787000000
H -0.117766859000000 -2.023229963000000 3.224905285000000
H -0.634776894000000 -1.195691083000000 4.699549743000000
H -0.390049412000000 0.890567754000000 3.437533085000000

37HFmethylamine110.wfx

