%nprocs=4
%mem=4GB
#p pbepbe aug-cc-pvtz output=wfx scf=(conver=6) int=(grid=ultrafine)

title

0 1
N 0.059955691000000 0.063156036000000 2.814377221000000
H 1.011625177000000 0.084604391000000 3.157133137000000
C -0.627216115000000 -1.149160431000000 3.274905992000000
H -0.397681495000000 0.890209198000000 3.175169029000000
H -1.640948876000000 -1.146558142000000 2.883878098000000
H -0.118709809000000 -2.017016553000000 2.864035696000000
H -0.669231274000000 -1.247347418000000 4.359708184000000

38HClmethylamine090_2.wfx

