%nprocs=4
%mem=4GB
#p pbepbe aug-cc-pvtz output=wfx scf=(conver=6) int=(grid=ultrafine)

title

0 1
Cl -0.107209379000000 -0.167310542000000 -0.020023104000000
H 0.009530218000000 0.008128887000000 1.304817825000000
N 0.054353231000000 0.057042313000000 2.646659497000000
H 1.006022717000000 0.078490668000000 2.989415413000000
C -0.632818575000000 -1.155274154000000 3.107188268000000
H -1.646551336000000 -1.152671865000000 2.716160374000000
H -0.124312269000000 -2.023130276000000 2.696317972000000
H -0.674833734000000 -1.253461141000000 4.191990460000000
H -0.403283955000000 0.884095475000000 3.007451305000000

38HClmethylamine080.wfx

