%nprocs=4
%mem=4GB
#p pbepbe aug-cc-pvtz output=wfx scf=(conver=6) int=(grid=ultrafine)

title

0 1
N 0.062756921000000 0.066212897000000 2.898236083000000
H 1.014426407000000 0.087661252000000 3.240991999000000
C -0.624414885000000 -1.146103570000000 3.358764854000000
H -0.394880265000000 0.893266059000000 3.259027891000000
H -1.638147646000000 -1.143501281000000 2.967736960000000
H -0.115908579000000 -2.013959692000000 2.947894558000000
H -0.666430044000000 -1.244290557000000 4.443567046000000

38HClmethylamine095_2.wfx

