%nprocs=4
%mem=4GB
#p pbepbe aug-cc-pvtz output=wfx scf=(conver=6) int=(grid=ultrafine)

title

0 1
Cl -0.107209379000000 -0.167310542000000 -0.020023104000000
H 0.009530218000000 0.008128887000000 1.304817825000000
N 0.079564299000000 0.084554067000000 3.401389255000000
H 1.031233785000000 0.106002422000000 3.744145171000000
C -0.607607507000000 -1.127762400000000 3.861918026000000
H -1.621340268000000 -1.125160111000000 3.470890132000000
H -0.099101201000000 -1.995618522000000 3.451047730000000
H -0.649622666000000 -1.225949387000000 4.946720218000000
H -0.378072887000000 0.911607229000000 3.762181063000000

38HClmethylamine125.wfx

