%nprocs=4
%mem=4GB
#p pbepbe aug-cc-pvtz output=wfx scf=(conver=6) int=(grid=ultrafine)

title

0 1
H 0.855171335000000 -0.000008119000000 -0.588786261000000
O 0.271546070000000 0.000016357000000 0.175592508000000
C 1.084050448000000 0.000001807000000 1.335251990000000
H 0.417831608000000 -0.000002486000000 2.192984764000000
H 1.718489566000000 -0.886312946000000 1.398035525000000
H 1.718498554000000 0.886309236000000 1.398050411000000
F 1.274029167000000 0.000010942000000 -3.641471175000000
C -0.036465320000000 0.000005290000000 -4.105310761000000
H -0.018756568000000 0.000004934000000 -5.190873042000000
H -0.537926053000000 -0.888573328000000 -3.734631982000000
H -0.537933106000000 0.888580081000000 -3.734632407000000

39methanolfluoromethane150.wfx

