%nprocs=4
%mem=4GB
#p pbepbe aug-cc-pvtz output=wfx scf=(conver=6) int=(grid=ultrafine)

title

0 1
H 0.855171335000000 -0.000008119000000 -0.588786261000000
O 0.271546070000000 0.000016357000000 0.175592508000000
C 1.084050448000000 0.000001807000000 1.335251990000000
H 0.417831608000000 -0.000002486000000 2.192984764000000
H 1.718489566000000 -0.886312946000000 1.398035525000000
H 1.718498554000000 0.886309236000000 1.398050411000000
F 1.106491471000000 0.000003318000000 -2.420436838000000
C -0.204003016000000 -0.000002334000000 -2.884276424000000
H -0.186294264000000 -0.000002690000000 -3.969838705000000
H -0.705463749000000 -0.888580952000000 -2.513597645000000
H -0.705470802000000 0.888572457000000 -2.513598070000000

39methanolfluoromethane090.wfx

