%nprocs=4
%mem=4GB
#p pbepbe aug-cc-pvtz output=wfx scf=(conver=6) int=(grid=ultrafine)

title

0 1
H 0.855171335000000 -0.000008119000000 -0.588786261000000
O 0.271546070000000 0.000016357000000 0.175592508000000
C 1.084050448000000 0.000001807000000 1.335251990000000
H 0.417831608000000 -0.000002486000000 2.192984764000000
H 1.718489566000000 -0.886312946000000 1.398035525000000
H 1.718498554000000 0.886309236000000 1.398050411000000
F 1.148375895000000 0.000005224000000 -2.725695422000000
C -0.162118592000000 -0.000000428000000 -3.189535008000000
H -0.144409840000000 -0.000000784000000 -4.275097289000000
H -0.663579325000000 -0.888579046000000 -2.818856229000000
H -0.663586378000000 0.888574363000000 -2.818856654000000

39methanolfluoromethane105.wfx

