%nprocs=4
%mem=4GB
#p pbepbe aug-cc-pvtz output=wfx scf=(conver=6) int=(grid=ultrafine)

title

0 1
H 0.855171335000000 -0.000008119000000 -0.588786261000000
O 0.271546070000000 0.000016357000000 0.175592508000000
C 1.084050448000000 0.000001807000000 1.335251990000000
H 0.417831608000000 -0.000002486000000 2.192984764000000
H 1.718489566000000 -0.886312946000000 1.398035525000000
H 1.718498554000000 0.886309236000000 1.398050411000000
F 1.134400827000000 0.000004588000000 -2.623843489000000
C -0.176093660000000 -0.000001064000000 -3.087683075000000
H -0.158384908000000 -0.000001420000000 -4.173245356000000
H -0.677554393000000 -0.888579682000000 -2.717004296000000
H -0.677561446000000 0.888573727000000 -2.717004721000000

39methanolfluoromethane100.wfx

