%nprocs=4
%mem=4GB
#p pbepbe aug-cc-pvtz output=wfx scf=(conver=6) int=(grid=ultrafine)

title

0 1
H 0.855171335000000 -0.000008119000000 -0.588786261000000
O 0.271546070000000 0.000016357000000 0.175592508000000
C 1.084050448000000 0.000001807000000 1.335251990000000
H 0.417831608000000 -0.000002486000000 2.192984764000000
H 1.718489566000000 -0.886312946000000 1.398035525000000
H 1.718498554000000 0.886309236000000 1.398050411000000
F 1.078568522000000 0.000002047000000 -2.216931115000000
C -0.231925965000000 -0.000003605000000 -2.680770701000000
H -0.214217213000000 -0.000003961000000 -3.766332982000000
H -0.733386698000000 -0.888582223000000 -2.310091922000000
H -0.733393751000000 0.888571186000000 -2.310092347000000

39methanolfluoromethane080.wfx

