%nprocs=4
%mem=4GB
#p pbepbe aug-cc-pvtz output=wfx scf=(conver=6) int=(grid=ultrafine)

title

0 1
F 1.120452946000000 0.000003953000000 -2.522189699000000
C -0.190041541000000 -0.000001699000000 -2.986029285000000
H -0.172332789000000 -0.000002055000000 -4.071591566000000
H -0.691502274000000 -0.888580317000000 -2.615350506000000
H -0.691509327000000 0.888573092000000 -2.615350931000000

39methanolfluoromethane095_2.wfx

