%nprocs=4
%mem=4GB
#p pbepbe aug-cc-pvtz output=wfx scf=(conver=6) int=(grid=ultrafine)

title

0 1
F 1.092529997000000 0.000002683000000 -2.318683977000000
C -0.217964490000000 -0.000002969000000 -2.782523563000000
H -0.200255738000000 -0.000003325000000 -3.868085844000000
H -0.719425223000000 -0.888581587000000 -2.411844784000000
H -0.719432276000000 0.888571822000000 -2.411845209000000

39methanolfluoromethane085_2.wfx

