%nprocs=4
%mem=4GB
#p pbepbe aug-cc-pvtz output=wfx scf=(conver=6) int=(grid=ultrafine)

title

0 1
CL 1.476777557000000 -0.000015992000000 -2.690262773000000
C -0.308321327000000 -0.000003990000000 -2.701345708000000
H -0.638121527000000 0.000002418000000 -3.732974727000000
H -0.650345420000000 -0.887071770000000 -2.183403702000000
H -0.650335625000000 0.887061629000000 -2.183394162000000

40methanolchloromethane085_2.wfx

