%nprocs=4
%mem=4GB
#p pbepbe aug-cc-pvtz output=wfx scf=(conver=6) int=(grid=ultrafine)

title

0 1
H 1.101371146000000 -0.000117739000000 -0.587770996000000
O 0.397090227000000 -0.000027546000000 0.067866526000000
C 1.005829292000000 0.000013334000000 1.347930653000000
H 0.205003605000000 -0.000000430000000 2.081297025000000
H 1.620180682000000 -0.886685805000000 1.514496095000000
H 1.620127834000000 0.886756142000000 1.514470494000000
Cl 1.476777557000000 -0.000015992000000 -2.690262773000000
C -0.308321327000000 -0.000003990000000 -2.701345708000000
H -0.638121527000000 0.000002418000000 -3.732974727000000
H -0.650345420000000 -0.887071770000000 -2.183403702000000
H -0.650335625000000 0.887061629000000 -2.183394162000000

40methanolchloromethane085.wfx

