%nprocs=4
%mem=4GB
#p pbepbe aug-cc-pvtz output=wfx scf=(conver=6) int=(grid=ultrafine)

title

0 1
CL 1.653431126000000 0.000031887000000 -3.679624342000000
C -0.131667758000000 0.000043889000000 -3.690707277000000
H -0.461467958000000 0.000050297000000 -4.722336296000000
H -0.473691851000000 -0.887023891000000 -3.172765271000000
H -0.473682056000000 0.887109508000000 -3.172755731000000

40methanolchloromethane125_2.wfx

