%nprocs=4
%mem=4GB
#p pbepbe aug-cc-pvtz output=wfx scf=(conver=6) int=(grid=ultrafine)

title

0 1
CL 1.520940949000000 -0.000004022000000 -2.937603165000000
C -0.264157935000000 0.000007980000000 -2.948686100000000
H -0.593958135000000 0.000014388000000 -3.980315119000000
H -0.606182028000000 -0.887059800000000 -2.430744094000000
H -0.606172233000000 0.887073599000000 -2.430734554000000

40methanolchloromethane095_2.wfx

