%nprocs=4
%mem=4GB
#p pbepbe aug-cc-pvtz output=wfx scf=(conver=6) int=(grid=ultrafine)

title

0 1
H 1.101371146000000 -0.000117739000000 -0.587770996000000
O 0.397090227000000 -0.000027546000000 0.067866526000000
C 1.005829292000000 0.000013334000000 1.347930653000000
H 0.205003605000000 -0.000000430000000 2.081297025000000
H 1.620180682000000 -0.886685805000000 1.514496095000000
H 1.620127834000000 0.886756142000000 1.514470494000000
Cl 1.793652897000000 0.000069892000000 -4.464946895000000
C 0.008554013000000 0.000081894000000 -4.476029830000000
H -0.321246187000000 0.000088302000000 -5.507658849000000
H -0.333470080000000 -0.886985886000000 -3.958087824000000
H -0.333460285000000 0.887147513000000 -3.958078284000000

40methanolchloromethane150.wfx

