%nprocs=4
%mem=4GB
#p pbepbe aug-cc-pvtz output=wfx scf=(conver=6) int=(grid=ultrafine)

title

0 1
CL 1.498859253000000 -0.000010007000000 -2.813932969000000
C -0.286239631000000 0.000001995000000 -2.825015904000000
H -0.616039831000000 0.000008403000000 -3.856644923000000
H -0.628263724000000 -0.887065785000000 -2.307073898000000
H -0.628253929000000 0.887067614000000 -2.307064358000000

40methanolchloromethane090_2.wfx

