&control
 title='crystal',
 prefix='crystal',
 pseudo_dir='.',
 calculation='vc-relax',
/
&system
 ibrav=0,
 celldm(1)=1.0,
 nat=   108,
 ntyp=  4,
 ecutwfc=60.0,
 ecutrho=600.0,
 xdm=.true.,
 xdm_a1=0.4073,
 xdm_a2=2.4150,
/
&electrons
 conv_thr = 1d-8,
/
&ions
/
&cell
/
ATOMIC_SPECIES
h      1.007940 h.UPF
c     12.010700 c.UPF
o     15.999400 o.UPF
s     32.065000 s.UPF

ATOMIC_POSITIONS crystal
s     0.27890693     0.84833109     0.80386903
s     0.72109304     0.15166888     0.19613103
s     0.72099574     0.34832339     0.69595829
s     0.27900423     0.65167659     0.30404177
o     0.06079205     0.81333591     0.78428563
o     0.93920791     0.18666406     0.21571443
o     0.93908419     0.31332705     0.71553833
o     0.06091578     0.68667293     0.28446172
o     0.82179221     0.67237619     0.80336654
o     0.17820776     0.32762379     0.19663352
o     0.17809272     0.17236165     0.69660374
o     0.82190725     0.82763832     0.30339632
o     0.27670782     0.89360545     0.94801454
o     0.72329215     0.10639453     0.05198551
o     0.72320057     0.39359149     0.55178377
o     0.27679940     0.60640849     0.44821629
o     0.42185142     0.78976845     0.80063449
o     0.57814854     0.21023152     0.19936557
o     0.57801910     0.28975998     0.69924202
o     0.42198087     0.71024000     0.30075803
c     0.02016745     0.75921493     0.65392750
c     0.97983251     0.24078505     0.34607256
c     0.97972244     0.25922100     0.84593706
c     0.02027753     0.74077898     0.15406299
c     0.82475949     0.72648309     0.67567137
c     0.17524048     0.27351689     0.32432869
c     0.17512261     0.22650382     0.82420369
c     0.82487735     0.77349616     0.17579637
c     0.79090693     0.64945524     0.63530801
c     0.20909304     0.35054474     0.36469205
c     0.20902647     0.14949129     0.86470357
c     0.79097350     0.85050869     0.13529648
c     0.28661712     0.90312211     0.62993192
c     0.71338284     0.09687786     0.37006813
c     0.71334733     0.40312062     0.86985986
c     0.28665264     0.59687936     0.13014019
c     0.33144898     0.87149427     0.48382752
c     0.66855098     0.12850571     0.51617253
c     0.66852920     0.37149590     0.01599091
c     0.33147076     0.62850408     0.98400914
c     0.32181082     0.91447681     0.34490964
c     0.67818914     0.08552316     0.65509042
c     0.67820040     0.41448212     0.15488636
c     0.32179957     0.58551786     0.84511370
c     0.27161920     0.98840264     0.34990169
c     0.72838076     0.01159733     0.65009836
c     0.72841146     0.48840848     0.14984339
c     0.27158850     0.51159150     0.85015667
c     0.23422730     0.01904091     0.49911933
c     0.76577266     0.98095907     0.50088073
c     0.76580893     0.51904494     0.00060823
c     0.23419104     0.48095504     0.99939183
c     0.23940380     0.97675999     0.63903349
c     0.76059616     0.02323999     0.36096657
c     0.76059555     0.47675829     0.86071489
c     0.23940442     0.52324169     0.13928517
c     0.25572761     0.03362990     0.19794723
c     0.74427235     0.96637008     0.80205283
c     0.74430961     0.53364575     0.30176409
c     0.25569035     0.46635422     0.69823596
h     0.69907890     0.76323367     0.66839425
h     0.30092106     0.23676631     0.33160581
h     0.30078187     0.26327392     0.83139089
h     0.69921810     0.73672605     0.16860917
h     0.37463020     0.81468160     0.47805504
h     0.62536977     0.18531837     0.52194501
h     0.62532575     0.31468191     0.02179847
h     0.37467421     0.68531807     0.97820159
h     0.35424843     0.89042001     0.23010074
h     0.64575153     0.10957997     0.76989932
h     0.64576337     0.39042775     0.26970830
h     0.35423660     0.60957223     0.73029176
h     0.19952996     0.07661542     0.50688651
h     0.80047001     0.92338455     0.49311354
h     0.80052192     0.57661745     0.99281027
h     0.19947805     0.42338252     0.00718979
h     0.20816527     0.00034057     0.75446426
h     0.79183470     0.99965941     0.24553579
h     0.79182723     0.50033434     0.74526659
h     0.20817273     0.49966564     0.25473346
h     0.01579514     0.78706206     0.53606058
h     0.98420483     0.21293792     0.46393948
h     0.98411543     0.28707460     0.96378613
h     0.01588454     0.71292537     0.03621393
h     0.13629988     0.71800615     0.66435267
h     0.86370009     0.28199383     0.33564739
h     0.86358466     0.21800160     0.83555865
h     0.13641531     0.78199837     0.16444141
h     0.91082996     0.61774224     0.59250645
h     0.08917001     0.38225774     0.40749361
h     0.08914003     0.11777501     0.90758253
h     0.91085994     0.88222497     0.09241753
h     0.64223544     0.63161554     0.59515714
h     0.35776453     0.36838444     0.40484292
h     0.35771893     0.13168472     0.90486622
h     0.64228103     0.86831526     0.09513384
h     0.26627153     0.09178286     0.22592596
h     0.73372843     0.90821712     0.77407409
h     0.73378310     0.59179650     0.27375161
h     0.26621687     0.40820348     0.72624845
h     0.36898735     0.01904698     0.11837163
h     0.63101262     0.98095300     0.88162843
h     0.63103494     0.51906352     0.38133839
h     0.36896503     0.48093646     0.61866167
h     0.11287002     0.02462610     0.12799301
h     0.88712994     0.97537388     0.87200705
h     0.88715165     0.52465244     0.37174264
h     0.11284832     0.47534754     0.62825742

K_POINTS automatic
2 2 2 1 1 1

CELL_PARAMETERS cubic
   12.921341000000    -0.000801000000    -0.372080000000
   -0.001941000000    34.736180000000     0.001399000000
   -1.012865000000     0.000699000000    15.572952000000
