%nprocs=4
%mem=4GB
#p pbepbe aug-cc-pvtz output=wfx scf=(conver=6) int=(grid=ultrafine)

title

0 1
c -0.832727457337400 -0.230052269782538 -0.002280009799076
n 0.352004268694507 0.617037620426611 -0.082748282751516
h 0.390452314380235 1.199751645104465 0.749658530907948
o 1.514579545215885 -0.237875493463138 0.062012305442786
h 2.020312227344388 -0.045188799468705 -0.735869314606839
h -1.705208702255144 0.426868759969879 0.041644102752609
h -0.834375752909433 -0.892297681410511 0.872070487403101
h -0.905036443133047 -0.838243781376065 -0.904487819349019

E25.wfx

