%nprocs=4
%mem=4GB
#p pbepbe aug-cc-pvtz output=wfx scf=(conver=6) int=(grid=ultrafine)

title

0 1
c -1.224407196435892 0.053626808335874 0.000000000000000
o 0.016993900153644 0.790158107319168 0.000000000000000
c 1.141536222093613 0.064852195476135 0.000000000000000
f 2.183811186380235 0.894767847849926 0.000000000000000
f 1.245557769876609 -0.744031191598013 1.083714455452705
f 1.245557769876609 -0.744031191598013 -1.083714455452705
h -2.002743473049313 0.810773491316002 0.000000000000000
h -1.303153089447742 -0.563058033550536 -0.895383194490629
h -1.303153089447742 -0.563058033550536 0.895383194490629

E28.wfx

