%nprocs=4
%mem=4GB
#p pbepbe aug-cc-pvtz output=wfx scf=(conver=6) int=(grid=ultrafine)

title

0 1
c -1.003035661599375 -0.688970048912214 0.000000000000000
s -0.524028657975725 1.078252444835887 0.000000000000000
c 1.251836338784995 0.910460878757571 0.000000000000000
o 1.860650161425268 -0.126199021034622 0.000000000000000
h -2.090866351099228 -0.714317594715984 0.000000000000000
h -0.616404214222188 -1.180179908211832 -0.889453726802488
h -0.616404214222188 -1.180179908211832 0.889453726802488
h 1.738252598908432 1.901133157493027 0.000000000000000

E35.wfx

