%nprocs=4
%mem=4GB
#p pbepbe aug-cc-pvtz output=wfx scf=(conver=6) int=(grid=ultrafine)

title

0 1
c 0.228601049117762 -0.019446425141734 -1.374709582118266
s -0.798463193259904 -0.693319780630851 0.000000000000000
c 0.228601049117762 -0.019446425141734 1.374709582118266
h -0.292851958181519 -0.267441597584751 -2.297522698154763
h 1.215889428467001 -0.482944259126932 -1.366273622903305
h 0.295639369552487 1.062738950902369 -1.264890011056940
h 0.295639369552487 1.062738950902369 1.264890011056940
h -0.292851958181519 -0.267441597584751 2.297522698154763
h 1.215889428467001 -0.482944259126932 1.366273622903305
o -2.096092584651578 0.107506442532948 0.000000000000000

E39.wfx

