%nprocs=4
%mem=4GB
#p pbepbe aug-cc-pvtz output=wfx scf=(conver=6) int=(grid=ultrafine)

title

0 1
n 0.276611806346810 0.272457385572101 1.557083113418352
c -0.520424462100808 -0.069112224600893 0.390752116265392
c 0.303877383004223 0.068826059214069 -0.868327974165862
o 1.507070353471951 0.043255428788732 -0.916315499692784
o -0.476499009187810 0.179958569204556 -1.968489448897334
h 1.220367334608812 -0.083924549269477 1.456171424465364
h -0.128225421099452 -0.105257405221716 2.403783037552367
h 0.112823488642818 0.209875731803139 -2.738944120560567
h -0.905313181640955 -1.102874933059600 0.374155692709869
h -1.390288292045585 0.586795937569068 0.310131658905188

E42.wfx

