%nprocs=4
%mem=4GB
#p pbepbe aug-cc-pvtz output=wfx scf=(conver=6) int=(grid=ultrafine)

title

0 2
c -1.042754060157518 -0.458121059347783 0.000000000000000
c 0.185733062947042 0.363169354490565 0.000000000000000
o 1.326170924221429 -0.494514063630707 0.000000000000000
h -0.971831859196544 -1.536197103065354 0.000000000000000
h -2.013340658687308 0.018512334804213 0.000000000000000
h 0.197677099877470 1.028884754912573 -0.881589007795462
h 0.197677099877470 1.028884754912573 0.881589007795462
h 2.120668391117964 0.049381026923919 0.000000000000000

P10.wfx

