%nprocs=4
%mem=4GB
#p pbepbe aug-cc-pvtz output=wfx scf=(conver=6) int=(grid=ultrafine)

title

0 2
c -2.006960600714172 0.002280840100226 0.405321870985335
c -0.771271195845356 0.014448829346756 -0.360655775987421
n 0.388500838109523 0.038190404112577 0.375151776069031
o -0.759324173694514 0.014677189510660 -1.591402032665814
h 0.335365385750879 -0.048276063753478 1.376044708473363
c 1.690795284469379 -0.001676548310856 -0.262931448875258
h -2.025195649270187 0.004092986056826 1.488192644377208
h -2.938971018230715 -0.008319761212416 -0.139733494546847
h 1.706852893354759 0.690661123878331 -1.104361593287005
h 1.929186742957814 -0.999341432357432 -0.645411710281892
h 2.451021493112580 0.293262432628780 0.459785055739328

P16.wfx

