%nprocs=4
%mem=4GB
#p pbepbe aug-cc-pvtz output=wfx scf=(conver=6) int=(grid=ultrafine)

title

0 2
c -1.924756486156166 -0.512034661161536 0.000000000000000
c -0.696621571842619 0.247100855505504 0.000000000000000
o 0.398971330614527 -0.558352666579248 0.000000000000000
o -0.631563780381574 1.463117777127405 0.000000000000000
c 1.667445865015682 0.115132546750120 0.000000000000000
h -1.912266657812812 -1.592292755563967 0.000000000000000
h -2.859170531055558 0.028680748301071 0.000000000000000
h 2.415969484264958 -0.673070575702982 0.000000000000000
h 1.770996173676784 0.740859365661814 0.887613052751530
h 1.770996173676784 0.740859365661814 -0.887613052751530

P17.wfx

