%nprocs=4
%mem=4GB
#p pbepbe aug-cc-pvtz output=wfx scf=(conver=6) int=(grid=ultrafine)

title

0 2
c -1.067224052302850 -0.152742494629018 0.000000000000000
c 0.298231742280057 0.310379229036636 0.000000000000000
o 1.203328734790386 -0.709829581503001 0.000000000000000
h -1.299889070874807 -1.207659333955241 0.000000000000000
h -1.854499960929653 0.585679031609644 0.000000000000000
o 0.635521076584739 1.479999454098044 0.000000000000000
h 2.084531530452127 -0.305826304657064 0.000000000000000

P18.wfx

