%nprocs=4
%mem=4GB
#p pbepbe aug-cc-pvtz output=wfx scf=(conver=6) int=(grid=ultrafine)

title

0 2
h 0.551687748757010 0.153298120315094 -0.959369584862454
c 0.116808945013673 -0.088853980008166 0.000000000000000
f -1.220184442527692 -0.217742260622016 0.000000000000000
h 0.551687748757010 0.153298120315094 0.959369584862454

P20.wfx

