%nprocs=4
%mem=4GB
#p pbepbe aug-cc-pvtz output=wfx scf=(conver=6) int=(grid=ultrafine)

title

0 2
c 0.000000000000000 0.000000000000000 0.733896641991391
n 0.000000000000000 0.000000000000000 -0.679730876936871
o -1.097428639790615 0.000000000000000 -1.247602354184394
o 1.097428639790615 0.000000000000000 -1.247602354184394
h -0.961736353500638 0.000000000000000 1.220519471657137
h 0.961736353500638 0.000000000000000 1.220519471657137

P27.wfx

