%nprocs=4
%mem=4GB
#p pbepbe aug-cc-pvtz output=wfx scf=(conver=6) int=(grid=ultrafine)

title

0 2
c -1.367789585136089 0.053465023622417 0.000000000000000
o -0.184348730907978 0.760929875928618 0.000000000000000
c 0.976495446272324 0.061895196719719 0.000000000000000
h -2.240732171474724 0.679411156843517 0.000000000000000
h -1.350128112640942 -1.023346610092599 0.000000000000000
f 1.980434205995883 0.932319510968438 0.000000000000000
f 1.093034473945763 -0.732337076995054 1.082898966832945
f 1.093034473945763 -0.732337076995054 -1.082898966832945

P28.wfx

