%nprocs=4
%mem=4GB
#p pbepbe aug-cc-pvtz output=wfx scf=(conver=6) int=(grid=ultrafine)

title

0 2
c -1.329375661940752 0.021656195980016 0.000000000000000
o -0.188227390601051 0.758146100669265 0.000000000000000
c 1.043767469542510 0.026376898321534 0.000000000000000
h -1.811358269238668 -0.183730484342326 0.950652781108618
h -1.811358269238668 -0.183730484342326 -0.950652781108618
h 1.843282148918174 0.765625294145956 0.000000000000000
h 1.126634986279230 -0.602171760216067 -0.892896002954138
h 1.126634986279230 -0.602171760216067 0.892896002954138

P29.wfx

