%nprocs=4
%mem=4GB
#p pbepbe aug-cc-pvtz output=wfx scf=(conver=6) int=(grid=ultrafine)

title

0 2
c -1.173791168959471 0.149382020862746 0.000000000000000
o 0.059760232620239 0.734210539684917 0.000000000000000
c 1.170328613672003 -0.057841068189564 0.000000000000000
h -1.257853910616314 -0.927645855782650 0.000000000000000
h -1.998160728844661 0.839066101259019 0.000000000000000
o 2.271118062904525 0.396531284916668 0.000000000000000
h 0.928598899223680 -1.133703022751142 0.000000000000000

P30.wfx

