%nprocs=4
%mem=4GB
#p pbepbe aug-cc-pvtz output=wfx scf=(conver=6) int=(grid=ultrafine)

title

1 2
c -1.084643871962190 0.006873359035865 0.000176564052210
p 0.687570586241545 0.005619836573040 -0.001057708626476
h -1.622940192087175 -0.014519251337818 -0.938549131456764
h 1.204888595951362 0.812523776432703 1.029654416394970
h -1.619873674328800 -0.014768795622450 0.940963098641180
h 1.242385751678365 -1.279603749994667 0.191306594542833
h 1.192612804506908 0.483874824913333 -1.222493833547964

P33.wfx

