%nprocs=4
%mem=4GB
#p pbepbe aug-cc-pvtz output=wfx scf=(conver=6) int=(grid=ultrafine)

title

0 2
n -1.565702218117957 0.143883616238689 0.000000000000000
c -0.390398379457974 -0.531884440080659 0.000000000000000
c 0.819641246264604 0.223517220689433 0.000000000000000
o 0.872219576124830 1.448957158195811 0.000000000000000
o 1.944101336123117 -0.556649695007703 0.000000000000000
h -2.443516573829639 -0.321168352617939 0.000000000000000
h -1.531739143515350 1.150265633518199 0.000000000000000
h -0.400635621046383 -1.610361945998868 0.000000000000000
h 2.696029777454752 0.053440805063038 0.000000000000000

P42.wfx

