%nprocs=4
%mem=4GB
#p pbepbe aug-cc-pvtz output=wfx scf=(conver=6) int=(grid=ultrafine)

title

0 2
c -0.564447482650391 0.007006132585722 0.041281501670174
c 0.911860277085266 -0.010488340996367 -0.011763026847285
f -1.121404366574477 -0.012268762494572 -1.201457007122965
f -1.057301122195440 -1.066177297881896 0.700037710725507
f -1.033099149335816 1.115845346663386 0.656381094425068
h 1.420486002361831 -0.958771381351094 -0.092533109150024
h 1.443905841309038 0.924854303474822 -0.091947163700479

P7.wfx

