## FHIaims input file generated by critic2.
lattice_vector 3.2819999955       0.0000000000       0.0000000000       
lattice_vector -1.6410000023      2.8422953739       0.0000000000       
lattice_vector 0.0000000000       0.0000000000       12.5600000000      
atom_frac  0.6666654100       0.3333327000       0.1169952200       Se
atom_frac  0.6666654100       0.3333327000       0.3830047800       Se
atom_frac  0.3333327000       0.6666663500       0.6169952200       Se
atom_frac  0.3333327000       0.6666663500       0.8830047800       Se
atom_frac  0.3333327000       0.6666663500       0.2500000000       W 
atom_frac  0.6666654100       0.3333327000       0.7500000000       W 
