&control
 title='crystal',
 prefix='crystal',
 pseudo_dir='.',
 calculation='vc-relax',
/
&system
 ibrav=0,
 celldm(1)=1.0,
 nat=    80,
 ntyp=  4,
 ecutwfc=60.0,
 ecutrho=600.0,
 xdm=.true.,
 xdm_a1=0.4073,
 xdm_a2=2.4150,
/
&electrons
 conv_thr = 1d-8,
/
&ions
/
&cell
/
ATOMIC_SPECIES
h      1.007940 h.UPF
c     12.010700 c.UPF
n     14.006700 n.UPF
s     32.065000 s.UPF

ATOMIC_POSITIONS crystal
s     0.15267466     0.59270794     0.36383789
s     0.84732532     0.40729210     0.63616214
s     0.83698461     0.70949787     0.38876000
s     0.16301537     0.29050217     0.61124003
n     0.47110620     0.65237549     0.95659494
n     0.52889378     0.34762455     0.04340509
n     0.05480954     0.36206642     0.09999393
n     0.94519044     0.63793362     0.90000610
c     0.03331522     0.70646180     0.32221372
c     0.96668476     0.29353824     0.67778631
c     0.11629010     0.81145002     0.26185655
c     0.88370987     0.18855002     0.73814348
c     0.25509156     0.80637573     0.18758826
c     0.74490841     0.19362431     0.81241177
c     0.35133788     0.98356918     0.18205952
c     0.64866210     0.01643085     0.81794051
c     0.20044904     0.99444204     0.09810923
c     0.79955094     0.00555800     0.90189081
h     0.26273519     0.11364060     0.08113444
h     0.73726479     0.88635944     0.91886559
h     0.16044689     0.89355050     0.01854471
h     0.83955309     0.10644954     0.98145532
c     0.03029395     0.98614295     0.16234526
c     0.96970603     0.01385709     0.83765477
h     0.90117954     0.87564720     0.11915839
h     0.09882044     0.12435284     0.88084164
h     0.99587983     0.09606343     0.17121685
h     0.00412015     0.90393661     0.82878319
c     0.10486162     0.98041308     0.27799711
c     0.89513836     0.01958696     0.72200292
h     0.03054004     0.01508789     0.34710154
h     0.96945993     0.98491215     0.65289849
c     0.32308394     0.08931382     0.29709622
c     0.67691604     0.91068622     0.70290381
c     0.36836124     0.27226659     0.30694071
c     0.63163874     0.72773344     0.69305932
h     0.28296214     0.28959506     0.24220308
h     0.71703784     0.71040498     0.75779695
h     0.51908267     0.33555498     0.30171027
h     0.48091731     0.66444506     0.69828976
h     0.34555612     0.33702481     0.38950728
h     0.65444385     0.66297523     0.61049275
c     0.43825697     0.08478674     0.39905063
c     0.56174300     0.91521330     0.60094940
h     0.43219304     0.95985520     0.39291633
h     0.56780694     0.04014484     0.60708370
h     0.38439763     0.12907342     0.47582896
h     0.61560235     0.87092662     0.52417107
h     0.58904181     0.16713453     0.41015977
h     0.41095817     0.83286551     0.58984026
c     0.55370066     0.03887158     0.15745599
c     0.44629932     0.96112846     0.84254404
h     0.60160991     0.16769277     0.15572075
h     0.39839007     0.83230727     0.84427928
h     0.56632353     0.96323731     0.07627955
h     0.43367644     0.03676273     0.92372048
h     0.65217395     0.03365693     0.22204804
h     0.34782603     0.96634311     0.77795200
c     0.26889394     0.66551440     0.11576456
c     0.73110604     0.33448564     0.88423547
c     0.38477789     0.66605644     0.03062139
c     0.61522208     0.33394359     0.96937864
c     0.15029840     0.50094305     0.11054879
c     0.84970158     0.49905699     0.88945124
c     0.96532285     0.39184866     0.34806267
c     0.03467713     0.60815138     0.65193736
h     0.03005211     0.32705820     0.38911223
h     0.96994787     0.67294184     0.61088780
h     0.91667648     0.32294182     0.25862659
h     0.08332350     0.67705822     0.74137344
h     0.84825747     0.40855944     0.38982138
h     0.15174250     0.59144060     0.61017865
c     0.66950197     0.71225985     0.28160822
c     0.33049801     0.28774019     0.71839181
h     0.71514661     0.83356733     0.26758032
h     0.28485337     0.16643271     0.73241971
h     0.53399941     0.68616932     0.31365403
h     0.46600057     0.31383071     0.68634600
h     0.65025810     0.61269005     0.20364514
h     0.34974188     0.38730999     0.79635490

K_POINTS automatic
2 2 2 1 1 1

CELL_PARAMETERS cubic
   14.371576000000    -0.079340000000     0.055121000000
   -6.035195000000    15.984403000000    -0.082077000000
   -1.361748000000    -7.340223000000    22.524699000000
