%nprocs=4
%mem=4GB
#p pbepbe aug-cc-pvtz output=wfx scf=(conver=6) int=(grid=ultrafine)

title

0 1
c -1.404596117750273 0.000000000000000 0.000000000000000
c 1.404596117750273 0.000000000000000 0.000000000000000
c -0.720525085006493 -1.220266966658425 0.000000000000000
c 0.720525085006493 1.220266966658425 0.000000000000000
c -0.720525085006493 1.220266966658425 0.000000000000000
c 0.720525085006493 -1.220266966658425 0.000000000000000
h -2.488777077640397 0.000000000000000 0.000000000000000
h 2.488777077640397 0.000000000000000 0.000000000000000
c -1.405374960282440 -2.467180650826825 0.000000000000000
c 1.405374960282440 2.467180650826825 0.000000000000000
c -1.405374960282440 2.467180650826825 0.000000000000000
c 1.405374960282440 -2.467180650826825 0.000000000000000
c -0.709665676384905 -3.650545376793916 0.000000000000000
c 0.709665676384905 3.650545376793916 0.000000000000000
c -0.709665676384905 3.650545376793916 0.000000000000000
c 0.709665676384905 -3.650545376793916 0.000000000000000
h -2.487945780084289 -2.466244233075567 0.000000000000000
h 2.487945780084289 2.466244233075567 0.000000000000000
h -2.487945780084289 2.466244233075567 0.000000000000000
h 2.487945780084289 -2.466244233075567 0.000000000000000
h -1.244504763404363 -4.589970131041821 0.000000000000000
h 1.244504763404363 4.589970131041821 0.000000000000000
h -1.244504763404363 4.589970131041821 0.000000000000000
h 1.244504763404363 -4.589970131041821 0.000000000000000

ant.wfx

