%nprocs=4
%mem=4GB
#p pbepbe aug-cc-pvtz output=wfx scf=(conver=6) int=(grid=ultrafine)

title

0 1
c -8.354972801794579 -0.186112277107025 0.000000000000000
c -7.052645885755192 0.637524311451592 0.000000000000000
c -5.792484215998515 -0.247570799524055 0.000000000000000
c -4.482465309756396 0.560181052787537 0.000000000000000
c -3.223805920436337 -0.325921309909340 0.000000000000000
c -1.913705527201303 0.481939847394338 0.000000000000000
c -0.655015293623452 -0.403989806890287 0.000000000000000
c 0.655015293623452 0.403989806890287 0.000000000000000
c 1.913705527201303 -0.481939847394338 0.000000000000000
c 3.223805920436337 0.325921309909340 0.000000000000000
c 4.482465309756396 -0.560181052787537 0.000000000000000
c 5.792484215998515 0.247570799524055 0.000000000000000
c 7.052645885755192 -0.637524311451592 0.000000000000000
c 8.354972801794579 0.186112277107025 0.000000000000000
h -9.243712081351145 0.462135230233834 0.000000000000000
h -8.404750092409893 -0.833543589459014 -0.889153792954230
h -8.404750092409893 -0.833543589459014 0.889153792954230
h -7.029299913800710 1.296352840905675 0.883498888143404
h -7.029299913800710 1.296352840905675 -0.883498888143404
h -5.813096543320527 -0.907802164317010 0.883703759681804
h -5.813096543320527 -0.907802164317010 -0.883703759681804
h -4.462131147503306 1.220175883305909 0.883690019278077
h -4.462131147503306 1.220175883305909 -0.883690019278077
h -3.243841700616919 -0.985941273222975 0.883645740110560
h -3.243841700616919 -0.985941273222975 -0.883645740110560
h -1.893576475780548 1.141965907940689 0.883650994258146
h -1.893576475780548 1.141965907940689 -0.883650994258146
h -0.675014419392163 -1.064021021834320 0.883652307199718
h -0.675014419392163 -1.064021021834320 -0.883652307199718
h 0.675014419392163 1.064021021834320 0.883652307199718
h 0.675014419392163 1.064021021834320 -0.883652307199718
h 1.893576475780548 -1.141965907940689 0.883650994258146
h 1.893576475780548 -1.141965907940689 -0.883650994258146
h 3.243841700616919 0.985941273222975 0.883645740110560
h 3.243841700616919 0.985941273222975 -0.883645740110560
h 4.462131147503306 -1.220175883305909 0.883690019278077
h 4.462131147503306 -1.220175883305909 -0.883690019278077
h 5.813096543320527 0.907802164317010 0.883703759681804
h 5.813096543320527 0.907802164317010 -0.883703759681804
h 7.029299913800710 -1.296352840905675 0.883498888143404
h 7.029299913800710 -1.296352840905675 -0.883498888143404
h 8.404750092409893 0.833543589459014 0.889153792954230
h 9.243712081351145 -0.462135230233834 0.000000000000000
h 8.404750092409893 0.833543589459014 -0.889153792954230

F14l.wfx

