## FHIaims input file generated by critic2.
lattice_vector 3.2169999966       0.0000000000       0.0000000000       
lattice_vector -1.6085000017      2.7860037230       0.0000000000       
lattice_vector 0.0000000000       0.0000000000       7.2550000000       
atom_frac  0.3333340800       0.6666670400       0.1983115100       S 
atom_frac  0.6666681700       0.3333340800       0.8016884900       S 
atom_frac  0.0000000000       0.0000000000       0.0000000000       V 
