&control
 title='crystal',
 prefix='crystal',
 pseudo_dir='.',
 calculation='vc-relax',
/
&system
 ibrav=0,
 celldm(1)=1.0,
 nat=    72,
 ntyp=  4,
 ecutwfc=60.0,
 ecutrho=600.0,
 xdm=.true.,
 xdm_a1=0.4073,
 xdm_a2=2.4150,
/
&electrons
 conv_thr = 1d-8,
/
&ions
/
&cell
/
ATOMIC_SPECIES
h      1.007940 h.UPF
c     12.010700 c.UPF
n     14.006700 n.UPF
o     15.999400 o.UPF

ATOMIC_POSITIONS crystal
c     0.44934269     0.92931271     0.55783403
c     0.55065729     0.42931272     0.94216598
c     0.05064549     0.07069280     0.05782730
c     0.94935448     0.57069281     0.44217271
c     0.56332825     0.92254269     0.67490439
c     0.43667173     0.42254270     0.82509562
c     0.93666206     0.07745529     0.17490063
c     0.06333792     0.57745530     0.32509938
c     0.54346024     0.77610525     0.71743625
c     0.45653973     0.27610526     0.78256376
c     0.95656829     0.22389204     0.21743590
c     0.04343169     0.72389205     0.28256411
c     0.58977159     0.77797709     0.84169549
c     0.41022839     0.27797710     0.65830452
c     0.91029684     0.22200532     0.34170026
c     0.08970313     0.72200533     0.15829975
n     0.60656204     0.97872341     0.47791941
n     0.39343794     0.47872342     0.02208060
n     0.89335654     0.02128351     0.97792389
n     0.10664344     0.52128352     0.52207612
n     0.80403443     0.70806136     0.87870310
n     0.19596554     0.20806137     0.62129691
n     0.69601392     0.29194401     0.37870064
n     0.30398606     0.79194402     0.12129937
o     0.20797598     0.88567894     0.54119928
o     0.79202400     0.38567895     0.95880073
o     0.29198229     0.11432494     0.04119796
o     0.70801769     0.61432495     0.45880205
o     0.83220031     0.97577447     0.68754704
o     0.16779967     0.47577448     0.81245297
o     0.66779349     0.02423091     0.18754675
o     0.33220649     0.52423092     0.31245326
o     0.74160188     0.69161773     0.66729880
o     0.25839810     0.19161774     0.83270121
o     0.75844049     0.30839056     0.16729970
o     0.24155949     0.80839057     0.33270031
o     0.42907356     0.84536495     0.90127080
o     0.57092642     0.34536496     0.59872921
o     0.07095475     0.15462392     0.40126267
o     0.92904523     0.65462393     0.09873733
h     0.42466787     0.98317730     0.72664153
h     0.57533210     0.48317731     0.77335848
h     0.07533129     0.01681465     0.22663496
h     0.92466869     0.51681466     0.27336504
h     0.33113765     0.74058608     0.70318774
h     0.66886233     0.24058609     0.79681226
h     0.16889926     0.25940145     0.20319057
h     0.83110071     0.75940146     0.29680944
h     0.52751768     0.98989646     0.40062244
h     0.47248230     0.48989648     0.09937757
h     0.97241072     0.01012214     0.90060818
h     0.02758926     0.51012215     0.59939183
h     0.80148817     0.01318842     0.49155320
h     0.19851181     0.51318843     0.00844680
h     0.69849115     0.98680983     0.99154550
h     0.30150883     0.48680985     0.50845451
h     0.84872547     0.70007810     0.96184115
h     0.15127450     0.20007811     0.53815886
h     0.65133100     0.29990743     0.46184242
h     0.34866898     0.79990744     0.03815759
h     0.92558178     0.65764917     0.82407642
h     0.07441820     0.15764918     0.67592359
h     0.57448307     0.34235192     0.32407990
h     0.42551690     0.84235193     0.17592010
h     0.96396089     0.92005036     0.64421426
h     0.03603909     0.42005037     0.85578575
h     0.53602076     0.07995585     0.14420930
h     0.46397922     0.57995586     0.35579071
h     0.68771412     0.66729868     0.59043725
h     0.31228586     0.16729869     0.90956276
h     0.81232555     0.33270993     0.09044014
h     0.18767443     0.83270994     0.40955987

K_POINTS automatic
2 2 2 1 1 1

CELL_PARAMETERS cubic
    9.165782000000     0.000000000000    -0.000187000000
    0.000000000000    18.793540000000     0.000000000000
   -0.000449000000     0.000000000000    22.924340000000
