&control
 title='crystal',
 prefix='crystal',
 pseudo_dir='.',
 calculation='vc-relax',
/
&system
 ibrav=0,
 celldm(1)=1.0,
 nat=   120,
 ntyp=  4,
 ecutwfc=60.0,
 ecutrho=600.0,
 xdm=.true.,
 xdm_a1=0.4073,
 xdm_a2=2.4150,
/
&electrons
 conv_thr = 1d-8,
/
&ions
/
&cell
/
ATOMIC_SPECIES
h      1.007940 h.UPF
c     12.010700 c.UPF
n     14.006700 n.UPF
o     15.999400 o.UPF

ATOMIC_POSITIONS crystal
h     0.19757559     0.47343649     0.26797446
h     0.80242443     0.52656352     0.73202556
h     0.74569746     0.86927697     0.67675005
h     0.25430256     0.13072304     0.32324997
h     0.42286482     0.89283402     0.94968094
h     0.57713520     0.10716599     0.05031908
h     0.40956715     0.25490239     0.73103554
h     0.59043287     0.74509762     0.26896448
h     0.77811656     0.05718079     0.25630884
h     0.22188346     0.94281922     0.74369118
h     0.95319129     0.10768604     0.29275045
h     0.04680873     0.89231397     0.70724957
h     0.82167466     0.20450859     0.43987327
h     0.17832536     0.79549142     0.56012675
h     0.73403396     0.06060345     0.56093522
h     0.26596605     0.93939656     0.43906480
h     0.66091046     0.50004650     0.42774355
h     0.33908956     0.49995351     0.57225647
h     0.77050188     0.65483984     0.46358037
h     0.22949813     0.34516017     0.53641965
h     0.13434506     0.92726126     0.17354928
h     0.86565496     0.07273875     0.82645074
h     0.87851372     0.12323844     0.08139697
h     0.12148630     0.87676157     0.91860305
h     0.07054460     0.15587670     0.11406285
h     0.92945542     0.84412331     0.88593717
h     0.60874470     0.32395244     0.30899237
h     0.39125532     0.67604757     0.69100765
h     0.51838572     0.20434508     0.39782823
h     0.48161430     0.79565493     0.60217179
h     0.43760206     0.38099904     0.39831222
h     0.56239796     0.61900097     0.60168780
h     0.87917002     0.34358801     0.19121562
h     0.12083000     0.65641200     0.80878439
h     0.62564694     0.68348513     0.92896774
h     0.37435308     0.31651488     0.07103228
h     0.60427162     0.65786725     0.81236006
h     0.39572840     0.34213276     0.18763996
h     0.80813673     0.68026678     0.83678624
h     0.19186328     0.31973323     0.16321378
h     0.68308880     0.30917072     0.16785321
h     0.31691121     0.69082929     0.83214681
o     0.91776409     0.96579805     0.43410441
o     0.08223593     0.03420196     0.56589561
n     0.65517120     0.12800832     0.60175663
n     0.34482882     0.87199169     0.39824339
o     0.53761008     0.35617255     0.59924202
o     0.46238994     0.64382746     0.40075800
c     0.87108560     0.66181773     0.40209453
c     0.12891442     0.33818228     0.59790549
c     0.62573369     0.26089847     0.55878469
c     0.37426633     0.73910154     0.44121533
o     0.05225003     0.30810537     0.38028925
o     0.94774998     0.69189464     0.61971077
n     0.82684654     0.88849372     0.42624494
n     0.17315348     0.11150629     0.57375508
o     0.67644642     0.89064988     0.47069395
o     0.32355360     0.10935013     0.52930607
n     0.76175701     0.41110845     0.43071640
n     0.23824301     0.58889156     0.56928362
c     0.93151734     0.41206653     0.39280162
c     0.06848268     0.58793348     0.60719840
n     0.03739767     0.93295044     0.23114155
n     0.96260235     0.06704957     0.76885847
c     0.02992648     0.81087518     0.28290041
c     0.97007354     0.18912483     0.71709961
c     0.58430969     0.06977791     0.69384125
c     0.41569033     0.93022210     0.30615877
c     0.96820705     0.54844991     0.36319465
c     0.03179297     0.45155010     0.63680537
n     0.28844564     0.69003760     0.17768089
n     0.71155438     0.30996241     0.82231913
c     0.11166577     0.56238650     0.29381734
c     0.88833425     0.43761351     0.70618268
c     0.90803241     0.78648802     0.36742721
c     0.09196761     0.21351199     0.63257281
c     0.64868136     0.92887630     0.72446480
c     0.35131866     0.07112371     0.27553522
c     0.14263901     0.68804450     0.25384330
c     0.85736101     0.31195551     0.74615672
o     0.28873590     0.79993404     0.11783202
o     0.71126412     0.20006597     0.88216800
c     0.59085605     0.86457362     0.81655980
c     0.40914397     0.13542639     0.18344022
c     0.45729878     0.14593682     0.75446565
c     0.54270123     0.85406319     0.24553437
o     0.40778832     0.58314192     0.17188676
o     0.59221169     0.41685809     0.82811326
c     0.70308217     0.28742038     0.45222069
c     0.29691785     0.71257963     0.54777933
c     0.39734033     0.08216249     0.84638619
c     0.60265969     0.91783752     0.15361383
c     0.46598833     0.94234446     0.87712652
c     0.53401169     0.05765555     0.12287350
c     0.92806176     0.16000622     0.13645125
c     0.07193826     0.83999379     0.86354877
c     0.91627164     0.06640782     0.23595662
c     0.08372837     0.93359219     0.76404340
c     0.26359071     0.16506365     0.91182816
c     0.73640931     0.83493636     0.08817186
h     0.23314396     0.10140095     0.98175198
h     0.76685606     0.89859906     0.01824804
h     0.13657048     0.21694885     0.87789835
h     0.86342954     0.78305116     0.12210167
h     0.31655925     0.24382369     0.92690983
h     0.68344076     0.75617632     0.07309019
c     0.55746299     0.29910917     0.38537359
c     0.44253703     0.70089084     0.61462643
c     0.82008065     0.40071570     0.03899301
c     0.17991937     0.59928431     0.96100701
h     0.75241409     0.50583894     0.04534800
h     0.24758593     0.49416107     0.95465202
h     0.74634381     0.37315995     0.98959316
h     0.25365620     0.62684006     0.01040686
h     0.95686492     0.39678550     0.00484617
h     0.04313509     0.60321451     0.99515385
c     0.82242716     0.30644846     0.13906250
c     0.17757286     0.69355155     0.86093752
c     0.66133151     0.71397213     0.85067889
c     0.33866851     0.28602788     0.14932113

K_POINTS automatic
2 2 2 1 1 1

CELL_PARAMETERS cubic
   14.715180000000     0.111562000000    -0.143371000000
    5.628587000000    19.055996000000    -0.275060000000
    4.018635000000     5.566005000000    25.728864000000
