&control
 title='crystal',
 prefix='crystal',
 pseudo_dir='..',
 calculation='vc-relax',
 etot_conv_thr=1.0D-5,
/
&system
 ibrav=0,
 celldm(1)=1.0,
 nat=    88,
 ntyp=  4,
 ecutwfc=80.0,
 ecutrho=800.0,
 xdm=.true.,
 xdm_a1=0.6512,
 xdm_a2=1.4633,
/
&electrons
 conv_thr = 1d-8,
/
&ions
/
&cell
/
ATOMIC_SPECIES
h      1.007940 h.UPF
c     12.010700 c.UPF
n     14.006700 n.UPF
o     15.999400 o.UPF

ATOMIC_POSITIONS crystal
o        0.336556230   0.379584321   0.261048445
o        0.163443890   0.620415559   0.761048475
o        0.836566267   0.120414459   0.738952044
o        0.663433843   0.879585431   0.238952084
o        0.320209751   0.027798231   0.397297295
o        0.179790369   0.972201659   0.897297325
o        0.820222776   0.472197336   0.602700187
o        0.679777344   0.527802544   0.102700217
o        0.206174376   0.770243809   0.228627501
o        0.293825744   0.229756081   0.728627532
o        0.706186515   0.729753767   0.771376962
o        0.793813605   0.270246123   0.271377002
o        0.190106756   0.187657587   0.085355855
o        0.309893364   0.812342302   0.585355885
o        0.690127522   0.312346357   0.914645900
o        0.809872598   0.687653533   0.414645930
n        0.252761474   0.540247862   0.426529901
n        0.247238646   0.459752028   0.926529931
n        0.752768155   0.959744704   0.573452765
n        0.747231965   0.040255186   0.073452795
n        0.372806641   0.291989610   0.472950345
n        0.127193479   0.708010280   0.972950385
n        0.872811123   0.208002689   0.527046657
n        0.627188997   0.791997201   0.027046697
c        0.321213596   0.403679778   0.394481153
c        0.178786524   0.596320112   0.894481193
c        0.821220060   0.096316430   0.605525655
c        0.678780050   0.903683460   0.105525695
c        0.425642196   0.163882555   0.388748447
c        0.074357924   0.836117335   0.888748477
c        0.925653114   0.336109986   0.611248168
c        0.574347006   0.663889904   0.111248198
h        0.544223407   0.121087795   0.416108862
h        0.955776713   0.878912095   0.916108902
h        0.044232825   0.378899800   0.583884278
h        0.455767295   0.621100090   0.083884318
c        0.195051040   0.047054671   0.299398402
c        0.304949080   0.952945219   0.799398442
c        0.695066430   0.452944565   0.700601637
c        0.804933690   0.547055325   0.200601677
h        0.107162304   0.134357892   0.334555828
h        0.392837816   0.865641998   0.834555868
h        0.607176992   0.365642371   0.665446221
h        0.892823128   0.634357519   0.165446251
c        0.106367032   0.894080891   0.276490711
c        0.393633088   0.105918999   0.776490751
c        0.606381548   0.605918023   0.723510577
c        0.893618572   0.394081868   0.223510607
h        0.048924480   0.855889422   0.369036145
h        0.451075630   0.144110468   0.869036185
h        0.548938184   0.644110513   0.630965287
h        0.951061936   0.355889377   0.130965327
h        0.009579713   0.919274963   0.205774237
h        0.490420407   0.080724927   0.705774267
h        0.509594010   0.580722590   0.794226207
h        0.990406110   0.419277300   0.294226237
c        0.407384015   0.224639359   0.245253470
c        0.092616105   0.775360531   0.745253510
c        0.907397227   0.275354303   0.754744103
c        0.592602893   0.724645587   0.254744143
h        0.519518718   0.239922934   0.191601558
h        0.980481402   0.760076956   0.691601598
h        0.019534326   0.260068237   0.808393805
h        0.480465794   0.739931653   0.308393845
c        0.287680844   0.112237733   0.180479692
c        0.212319276   0.887762157   0.680479722
c        0.787700069   0.387762122   0.819518999
c        0.712300051   0.612237768   0.319519029
h        0.354896867   0.014700932   0.135278988
h        0.145103253   0.985298958   0.635279018
h        0.854919616   0.485297944   0.864715898
h        0.645080494   0.514701945   0.364715938
h        0.176193072   0.112103686   0.011241593
h        0.323807048   0.887896203   0.511241623
h        0.676201982   0.387907903   0.988754752
h        0.823798138   0.612091987   0.488754792
h        0.264440855   0.585996569   0.519410622
h        0.235559265   0.414003322   0.019410662
h        0.764444365   0.913997105   0.480606786
h        0.735555755   0.086002785   0.980606826
h        0.175889651   0.743917572   0.133788135
h        0.324110469   0.256082318   0.633788165
h        0.675893632   0.756085138   0.866212482
h        0.824106488   0.243914752   0.366212522
h        0.231555545   0.620036446   0.350991628
h        0.268444575   0.379963444   0.850991668
h        0.731561088   0.879955768   0.649020784
h        0.768439032   0.120044122   0.149020824

K_POINTS automatic
4 4 4 1 1 1

CELL_PARAMETERS cubic
  15.815517800   0.000061310   0.000000000
   0.000068403  16.085145942   0.000000000
   0.000000000  -0.000001000  19.056456260
