&control
 title='crystal',
 prefix='crystal',
 pseudo_dir='.',
 calculation='vc-relax',
/
&system
 ibrav=0,
 celldm(1)=1.0,
 nat=   104,
 ntyp=  4,
 ecutwfc=60.0,
 ecutrho=600.0,
 xdm=.true.,
 xdm_a1=0.4073,
 xdm_a2=2.4150,
/
&electrons
 conv_thr = 1d-8,
/
&ions
/
&cell
/
ATOMIC_SPECIES
h      1.007940 h.UPF
c     12.010700 c.UPF
n     14.006700 n.UPF
s     32.065000 s.UPF

ATOMIC_POSITIONS crystal
c     0.40753686     0.12467317     0.41692384
c     0.59246310     0.87532683     0.58307614
c     0.90753685     0.37532683     0.91692383
c     0.09246312     0.62467317     0.08307615
c     0.81167262     0.39519374     0.49451532
c     0.18832735     0.60480626     0.50548467
c     0.31167260     0.10480626     0.99451530
c     0.68832736     0.89519374     0.00548468
c     0.90918654     0.34377373     0.44310885
c     0.09081342     0.65622627     0.55689113
c     0.40918653     0.15622627     0.94310884
c     0.59081344     0.84377373     0.05689114
c     0.30190360     0.04685442     0.45735677
c     0.69809636     0.95314558     0.54264321
c     0.80190359     0.45314558     0.95735676
c     0.19809638     0.54685442     0.04264322
c     0.06567057     0.07561465     0.36852258
c     0.93432940     0.92438535     0.63147740
c     0.56567055     0.42438535     0.86852257
c     0.43432941     0.57561465     0.13147742
c     0.99299596     0.19429662     0.26757107
c     0.00700400     0.80570338     0.73242891
c     0.49299595     0.30570338     0.76757106
c     0.50700402     0.69429662     0.23242892
c     0.19341826     0.23558292     0.31126558
c     0.80658170     0.76441708     0.68873440
c     0.69341824     0.26441708     0.81126557
c     0.30658172     0.73558292     0.18873441
c     0.88704326     0.25114223     0.32141695
c     0.11295671     0.74885777     0.67858303
c     0.38704324     0.24885777     0.82141694
c     0.61295672     0.75114223     0.17858304
c     0.76499669     0.21069123     0.25183321
c     0.23500327     0.78930877     0.74816677
c     0.26499667     0.28930877     0.75183320
c     0.73500329     0.71069123     0.24816678
c     0.66708029     0.26192642     0.30300473
c     0.33291967     0.73807358     0.69699525
c     0.16708028     0.23807358     0.80300472
c     0.83291969     0.76192642     0.19699526
c     0.69014030     0.35412350     0.42451980
c     0.30985966     0.64587650     0.57548018
c     0.19014029     0.14587650     0.92451979
c     0.80985968     0.85412350     0.07548019
h     0.48664963     0.14046998     0.51520900
h     0.51335034     0.85953002     0.48479098
h     0.98664961     0.35953002     0.01520899
h     0.01335035     0.64046998     0.98479100
h     0.61433741     0.39497723     0.46501166
h     0.38566256     0.60502277     0.53498832
h     0.11433739     0.10502277     0.96501165
h     0.88566257     0.89497723     0.03498833
h     0.83045250     0.46912724     0.58770205
h     0.16954747     0.53087276     0.41229793
h     0.33045248     0.03087276     0.08770204
h     0.66954748     0.96912724     0.91229795
h     0.00386446     0.37691667     0.49607051
h     0.99613550     0.62308333     0.50392947
h     0.50386445     0.12308333     0.99607050
h     0.49613552     0.87691667     0.00392949
h     0.43661636     0.06947178     0.32837282
h     0.56338360     0.93052822     0.67162717
h     0.93661634     0.43052822     0.82837280
h     0.06338362     0.56947178     0.17162718
h     0.29900094     0.07047147     0.57318050
h     0.70099903     0.92952853     0.42681948
h     0.79900092     0.42952853     0.07318049
h     0.20099904     0.57047147     0.92681950
h     0.31247447     0.93373185     0.44684215
h     0.68752549     0.06626815     0.55315783
h     0.81247446     0.56626815     0.94684214
h     0.18752551     0.43373185     0.05315784
h     0.06797356     0.09237057     0.48737001
h     0.93202640     0.90762943     0.51262997
h     0.56797354     0.40762943     0.98737000
h     0.43202642     0.59237057     0.01262998
h     0.02915904     0.97120442     0.33367602
h     0.97084092     0.02879558     0.66632396
h     0.52915903     0.52879558     0.83367601
h     0.47084094     0.47120442     0.16632397
h     0.95484306     0.15381672     0.15247955
h     0.04515691     0.84618328     0.84752043
h     0.45484304     0.34618328     0.65247954
h     0.54515692     0.65381672     0.34752044
h     0.74662531     0.13882862     0.15681559
h     0.25337466     0.86117138     0.84318439
h     0.24662529     0.36117138     0.65681558
h     0.75337467     0.63882862     0.34318440
h     0.57259136     0.23004994     0.24680713
h     0.42740860     0.76995006     0.75319285
h     0.07259135     0.26995006     0.74680712
h     0.92740862     0.73004994     0.25319287
n     0.18959058     0.09559465     0.34892448
n     0.81040938     0.90440535     0.65107550
n     0.68959057     0.40440535     0.84892447
n     0.31040940     0.59559465     0.15107551
n     0.08931823     0.30147016     0.26372005
n     0.91068174     0.69852984     0.73627994
n     0.58931821     0.19852984     0.76372003
n     0.41068175     0.80147016     0.23627995
s     0.34562723     0.29728546     0.34593425
s     0.65437273     0.70271454     0.65406573
s     0.84562721     0.20271454     0.84593424
s     0.15437275     0.79728546     0.15406574

K_POINTS automatic
2 2 2 1 1 1

CELL_PARAMETERS cubic
   21.190393000000     0.000000000000     0.052357000000
    0.000000000000    18.079137000000     0.000000000000
   -4.771665000000     0.000000000000    16.793958000000
