%nprocs=4
%mem=4GB
#p pbepbe aug-cc-pvtz output=wfx scf=(conver=6) int=(grid=ultrafine)

title

0 1
h 0.001629992240233 -1.323689573457628 -0.563427989342783
li -0.001536345479192 -0.167712188765143 0.625102525438227
c -0.000192328936657 -0.436996733186641 -1.329623377578618
c -0.000627842696581 0.894182227797982 -1.185641400037307
h -0.000198338543801 -0.113249867303227 2.584660716044087
h 0.001759612031370 0.624557650285864 2.383141734991934
h -0.001765394927219 -0.907608812694660 -2.318387752277951
h 0.000930646311847 1.430517297323469 -0.195824457237595

008.wfx

