%nprocs=4
%mem=4GB
#p pbepbe aug-cc-pvtz output=wfx scf=(conver=6) int=(grid=ultrafine)

title

0 2
li 0.991772267391042 -0.073807124246697 -1.187426786046066
li -1.079745494730498 -0.095593612945819 0.594514064175445
h -0.713295439456242 -0.062226452269079 -1.139959928011983
h -2.836696206385227 0.033140907016324 -0.378956814933863
o 2.225183196387587 -0.093446474589578 0.236755883887962
h 1.593468746529058 -0.152644649959755 1.025803840227343
h 3.002557358208097 0.413455120293059 0.545646848719115
h -3.183244427943806 0.031122286701556 0.303622891982063

014.wfx

