%nprocs=4
%mem=4GB
#p pbepbe aug-cc-pvtz output=wfx scf=(conver=6) int=(grid=ultrafine)

title

0 2
n 0.000587066294842 -0.198423504177338 1.864231205741778
be -0.004868203875671 0.648744048619837 0.606030160050098
h -0.039745447159425 -1.213418558232116 1.886217710109146
h -0.044853107057360 0.752153628675147 -0.819617544957314
h 0.041167976392978 0.163653829020189 2.812632173009618
h 0.022238118608049 1.930588362106212 -0.026283930159818
h 0.038710129445120 -1.245046230191266 -3.477261697670706
h -0.013236532648519 -0.838251575820664 -2.845948076122808

030.wfx

