%nprocs=4
%mem=4GB
#p pbepbe aug-cc-pvtz output=wfx scf=(conver=6) int=(grid=ultrafine)

title

0 1
h 0.044629647979813 1.673818133332489 1.771873930378702
h -0.043127368610244 1.528534946000875 2.507935085603396
h -1.098958275945832 -0.132172211559195 -0.609815038766523
h 0.199666276611233 -1.676695373449080 -0.876004156191810
h 0.905574383711874 0.205312810785783 -0.565061705561998
h -0.008376250430320 -0.271107200004818 -2.298698794289835
na 0.001040884994857 -0.863966139694307 1.173110190487705
b -0.000449298311366 -0.463724965411747 -1.103339511659627

045.wfx

