%nprocs=4
%mem=4GB
#p pbepbe aug-cc-pvtz output=wfx scf=(conver=6) int=(grid=ultrafine)

title

0 1
li 0.092390774676187 -0.183925149560269 -0.357475256961512
h -0.164657185191866 -0.716225238744129 1.844049227912841
h -1.538402676523666 -1.150393996273372 -1.304877922713927
h -1.927019653247055 -0.608096967503322 -0.949727406463002
f 1.710365129705634 -0.400281986671650 -0.403079756802270
h 0.539466394734179 -0.727424419792995 1.550920984678010
h 0.952291572768942 1.667409937506855 -0.203282106893220
h 0.335565643077628 2.118937821038899 -0.176527762756926

056.wfx

