%nprocs=4
%mem=4GB
#p pbepbe aug-cc-pvtz output=wfx scf=(conver=6) int=(grid=ultrafine)

title

0 1
h -1.038106484542178 -1.542598105974506 -0.005650457546298
h -1.157807927595937 -1.450282430804062 0.759575231679940
al -1.362946474751520 0.701377899872678 0.165432218041300
h 1.351790824289800 0.993170351293975 0.962814528891015
h -1.230811143783030 0.002078702655962 -1.370164009832650
h 1.277020549780668 -0.376463109789471 0.038750069209511
h 1.242595714957459 1.095888724704413 -0.686100346894695
n 0.918264941644732 0.576827968040993 0.135342766451861

066.wfx

