%nprocs=4
%mem=4GB
#p pbepbe aug-cc-pvtz output=wfx scf=(conver=6) int=(grid=ultrafine)

title

0 1
h 2.420213404762720 1.321774056602441 0.120886289354831
h 0.194655237937068 -1.004702062961297 1.096404155465601
b -0.311586185571987 -0.760744344029488 0.035534351643405
h -1.844440322910502 0.488775954052949 0.829726100561342
h 2.772051431594502 0.761253345812916 -0.226217714954672
h -1.910077039552196 0.328453926101773 -0.858226337302451
h 0.109882419484150 -1.209036295267586 -0.998271475994738
n -1.430698945743753 0.074225419688281 0.000164631226677

068.wfx

