%nprocs=4
%mem=4GB
#p pbepbe aug-cc-pvtz output=wfx scf=(conver=6) int=(grid=ultrafine)

title

0 1
c 0.813757156271230 0.103721714972659 0.346399847818601
h 0.876537985368914 0.171944173844270 1.443772342462285
h 1.672705299219374 0.576237938282106 -0.153603182445340
n 0.560764365554740 -1.370614052191730 0.009511346240200
c -0.536179654691670 0.548679324192817 -0.290522299506276
s -2.138393396473260 -0.481447125182640 0.151043237182810
h -0.695225990330861 1.338526624792451 -1.020425262268224
c -0.553965764918466 -0.887048598709933 -0.486176029484055

088.wfx

