%nprocs=4
%mem=4GB
#p pbepbe aug-cc-pvtz output=wfx scf=(conver=6) int=(grid=ultrafine)

title

0 2
h -0.837983810371298 -0.001986981678661 -1.215313415831430
h -0.722086985843036 -1.335573720500552 0.918826207338190
s 0.180555376395071 1.793406839451184 0.126296668501574
h -0.967928219546414 1.681304744870758 0.847316620693839
c 0.085488861643650 0.042913861683204 -0.626901652395935
c 0.176009768825480 -0.978996460146564 0.413423166308156
h 0.944909807612592 0.039405008438678 -1.310562175654202
h 1.141035201283966 -1.240473292118036 0.846914581039792

097.wfx

