%nprocs=4
%mem=4GB
#p pbepbe aug-cc-pvtz output=wfx scf=(conver=6) int=(grid=ultrafine)

title

0 1
c -0.443867012830223 -0.003494491911892 0.054070900427884
h -1.537093407658499 0.036871916758769 0.075671062448092
h -0.371203545232430 2.015393634780593 -0.306714971262571
n 0.151102320948572 1.252002432808233 0.111323549203709
c 0.181944221410451 -1.193487535897527 0.053042208208667
h 1.270709829842573 -1.278299242934628 0.036885502723303
h -0.394192882142414 -2.115425955500787 0.087805507496583
h 1.142600475661980 1.286439241897256 -0.112083759245672

105.wfx

