%nprocs=4
%mem=4GB
#p pbepbe aug-cc-pvtz output=wfx scf=(conver=6) int=(grid=ultrafine)

title

0 1
h 1.677865015219237 -0.216382290778256 0.735202840410730
h -1.886634829720323 0.215969669343361 1.028115656469996
p 0.393452888804297 0.082539796019008 0.227733459460675
c -0.868650702117239 -0.020240298749514 1.322493948588986
h 1.430844197271604 0.189977771076474 -1.961404555551569
f -0.615531481927143 0.041328220448082 -2.249281289349699
c 0.494820391622994 -0.077480184384708 -1.466296463860190
h -0.626165479153421 -0.215712682974432 2.363436403831060

106.wfx

