%nprocs=4
%mem=4GB
#p pbepbe aug-cc-pvtz output=wfx scf=(conver=6) int=(grid=ultrafine)

title

0 1
h -0.783852467763036 -0.644523648923638 -0.186698795752464
c 0.221090450219171 -1.040020603321092 -0.033640105536349
h -2.713839029282391 1.184512295861216 -0.068341767490298
h 0.293252058540795 -2.119152597300442 0.106714382745642
h 1.525410478451150 1.457028770637799 -0.205083812046564
si 1.611418839990285 -0.020722146854800 -0.013981617055210
h -3.143889693327745 1.735840021491789 0.207794688274040
h 2.990409363171761 -0.552962091590827 0.193237026861203

162.wfx

