%nprocs=4
%mem=4GB
#p pbepbe aug-cc-pvtz output=wfx scf=(conver=6) int=(grid=ultrafine)

title

0 1
p 0.000000000000000 0.000000000000000 0.959488338857149
p 0.000000000000000 0.000000000000000 -0.959488338857149

178_p.wfx

