&control
 title='crystal',
 prefix='crystal',
 pseudo_dir='../..',
 forc_conv_thr=1.0D-4,
 etot_conv_thr=1.0D-5,
/
&system
 ibrav=0,
 nat=    24,
 ntyp=  3,
 ecutwfc=80.0,
 ecutrho=800.0,
 vdw_corr='xdm',
 nosym=.true.,
/
&electrons
 conv_thr = 1d-10,
/
&ions
/
&cell
 press_conv_thr=0.01,
/
ATOMIC_SPECIES
O    15.999400 o.UPF
C    12.010700 c.UPF
H     1.007940 h.UPF

ATOMIC_POSITIONS crystal
O             0.2677978667        0.8206079788        0.1143212441
O             0.7322015993        0.3206114934        0.3856796279
O             0.7322070896        0.1793840500        0.8856866116
O             0.2677923791        0.6793865624        0.6143140302
C             0.1432955318        0.6715661985        0.0627841563
C             0.8567035181        0.1715700765        0.4372160324
C             0.2336105592        0.4651272730        0.1036582945
C             0.7663887617        0.9651313037        0.3963416620
C             0.9003380088        0.6962701843        0.9574853164
C             0.0996615102        0.1962729984        0.5425147169
C             0.8567136484        0.3284254856        0.9372071489
C             0.1432854400        0.8284287155        0.5627929211
C             0.7663963434        0.5348653116        0.8963279749
C             0.2336036778        0.0348685903        0.6036720557
C             0.0996685817        0.3037206234        0.0425135833
C             0.9003306341        0.8037230548        0.4574863950
H             0.4109954638        0.4492076924        0.1856547392
H             0.5890032948        0.9492112410        0.3143449961
H             0.8377643368        0.8508175839        0.9310122881
H             0.1622357118        0.3508212909        0.5689879128
H             0.5889972583        0.5507862908        0.8143525963
H             0.4110021281        0.0507889170        0.6856471578
H             0.1622513985        0.1491738747        0.0689958614
H             0.8377480379        0.6491775591        0.4310041272

K_POINTS automatic
5 4 4  1 1 1

CELL_PARAMETERS bohr
  10.881106843   0.000002585   0.009361645
   0.000002950  12.521587495   0.000001780
  -1.935857348   0.000001392  12.528510824
