## FHIaims input file generated by critic2.
lattice_vector 3.3599999942       0.0000000000       0.0000000000       
lattice_vector -1.6800000029      2.9098453550       0.0000000000       
lattice_vector 0.0000000000       0.0000000000       6.2000000000       
atom_frac  0.3333338700       0.6666669300       0.2464677400       S 
atom_frac  0.6666677300       0.3333338700       0.7535322600       S 
atom_frac  0.0000000000       0.0000000000       0.0000000000       Ta
