%nprocs=8
%mem=4GB
#p b3lyp aug-cc-pvqz output=wfx scf=(conver=6) int=(grid=ultrafine)

title

0 1
C    0.00000000    0.00000000    0.80850000
C   -1.20507435    0.00000000    1.50425000
C   -1.20507435    0.00000000    2.89575000
C    0.00000000    0.00000000    3.59150000
C    1.20507435    0.00000000    2.89575000
C    1.20507435    0.00000000    1.50425000
H    0.00000000    0.00000000   -0.27150000
H   -2.14038179    0.00000000    0.96425000
H   -2.14038179    0.00000000    3.43575000
H    0.00000000    0.00000000    4.67150000
H    2.14038179    0.00000000    3.43575000
H    2.14038179    0.00000000    0.96425000

NBC10ext_2_0.88_monomerB.wfx

