%nprocs=8
%mem=4GB
#p b3lyp aug-cc-pvqz output=wfx scf=(conver=6) int=(grid=ultrafine)

title

0 1
S    0.00000000    0.00000000   -2.24589674
H    0.00000000    0.96172129   -1.31911762
H    0.00000000   -0.96172129   -1.31911762

NBC10ext_4_0.84_monomerB.wfx

