%nprocs=8
%mem=4GB
#p b3lyp aug-cc-pvqz output=wfx scf=(conver=6) int=(grid=ultrafine)

title

0 1
C    0.00000000    0.00000000    1.05850000
C   -1.20507435    0.00000000    1.75425000
C   -1.20507435    0.00000000    3.14575000
C    0.00000000    0.00000000    3.84150000
C    1.20507435    0.00000000    3.14575000
C    1.20507435    0.00000000    1.75425000
H    0.00000000    0.00000000   -0.02150000
H   -2.14038179    0.00000000    1.21425000
H   -2.14038179    0.00000000    3.68575000
H    0.00000000    0.00000000    4.92150000
H    2.14038179    0.00000000    3.68575000
H    2.14038179    0.00000000    1.21425000

NBC10ext_2_0.98_monomerB.wfx

