%nprocs=8
%mem=4GB
#p b3lyp aug-cc-pvqz output=wfx scf=(conver=6) int=(grid=ultrafine)

title

0 1
S    0.00000000    0.00000000   -3.32567652
H    0.00000000    0.96172129   -2.39889741
H    0.00000000   -0.96172129   -2.39889741

NBC10ext_4_1.25_monomerB.wfx

