%nprocs=8
%mem=4GB
#p b3lyp aug-cc-pvqz output=wfx scf=(conver=6) int=(grid=ultrafine)

title

0 1
N    1.39803800   -3.50000000    0.00000000
C    0.69853710   -4.64013004    0.00000000
C   -0.69418190   -4.69534022    0.00000000
C   -1.40674710   -3.50000000    0.00000000
C   -0.69418190   -2.30465978    0.00000000
C    0.69853710   -2.35986996    0.00000000
H    1.28166922   -5.55688474    0.00000000
H   -1.19992540   -5.65254776    0.00000000
H   -2.48854710   -3.50000000    0.00000000
H   -1.19992540   -1.34745224    0.00000000
H    1.28166922   -1.44311526    0.00000000

NBC10ext_8_1.43_monomerB.wfx

