%nprocs=8
%mem=4GB
#p b3lyp aug-cc-pvqz output=wfx scf=(conver=6) int=(grid=ultrafine)

title

0 1
C    0.00000000    0.00000000    2.10850000
C   -1.20507435    0.00000000    2.80425000
C   -1.20507435    0.00000000    4.19575000
C    0.00000000    0.00000000    4.89150000
C    1.20507435    0.00000000    4.19575000
C    1.20507435    0.00000000    2.80425000
H    0.00000000    0.00000000    1.02850000
H   -2.14038179    0.00000000    2.26425000
H   -2.14038179    0.00000000    4.73575000
H    0.00000000    0.00000000    5.97150000
H    2.14038179    0.00000000    4.73575000
H    2.14038179    0.00000000    2.26425000

NBC10ext_2_1.4_monomerB.wfx

