%nprocs=8
%mem=4GB
#p b3lyp aug-cc-pvqz output=wfx scf=(conver=6) int=(grid=ultrafine)

title

0 1
C    0.00000000   -2.61322774    0.00000000
H    0.00000000   -1.51372474    0.00000000
H   -0.51831072   -2.97972853   -0.89774050
H    1.03662144   -2.97972853    0.00000000
H   -0.51831072   -2.97972853    0.89774050

NBC10ext_5_0.83_monomerB.wfx

