%nprocs=8
%mem=4GB
#p b3lyp aug-cc-pvqz output=wfx scf=(conver=6) int=(grid=ultrafine)

title

0 1
S    0.00000000    0.00000000   -5.24141484
H    0.00000000    0.96172129   -4.31463573
H    0.00000000   -0.96172129   -4.31463573

NBC10ext_4_1.97_monomerB.wfx

