%nprocs=8
%mem=4GB
#p b3lyp aug-cc-pvqz output=wfx scf=(conver=6) int=(grid=ultrafine)

title

0 1
S    0.00000000    0.00000000   -2.38522316
H    0.00000000    0.96172129   -1.45844405
H    0.00000000   -0.96172129   -1.45844405

NBC10ext_4_0.89_monomerB.wfx

