%nprocs=8
%mem=4GB
#p b3lyp aug-cc-pvqz output=wfx scf=(conver=6) int=(grid=ultrafine)

title

0 1
C    0.00000000   -1.39150000    2.25858516
C    1.20507435   -0.69575000    2.25858516
C    1.20507435    0.69575000    2.25858516
C    0.00000000    1.39150000    2.25858516
C   -1.20507435    0.69575000    2.25858516
C   -1.20507435   -0.69575000    2.25858516
H    0.00000000   -2.47150000    2.25858516
H    2.14038179   -1.23575000    2.25858516
H    2.14038179    1.23575000    2.25858516
H    0.00000000    2.47150000    2.25858516
H   -2.14038179    1.23575000    2.25858516
H   -2.14038179   -1.23575000    2.25858516

NBC10ext_4_1.97_monomerA.wfx

