%nprocs=8
%mem=4GB
#p b3lyp aug-cc-pvqz output=wfx scf=(conver=6) int=(grid=ultrafine)

title

0 1
S    0.00000000    0.00000000   -4.19646667
H    0.00000000    0.96172129   -3.26968755
H    0.00000000   -0.96172129   -3.26968755

NBC10ext_4_1.58_monomerB.wfx

