%nprocs=8
%mem=4GB
#p b3lyp aug-cc-pvqz output=wfx scf=(conver=6) int=(grid=ultrafine)

title

0 1
C   -0.70286550    0.63049440   -1.21739876
C   -1.40573100    0.63049440    0.00000000
C   -0.70286550    0.63049440    1.21739876
C    0.70286550    0.63049440    1.21739876
C    1.40573100    0.63049440    0.00000000
C    0.70286550    0.63049440   -1.21739876
H   -1.25047050    0.63049440   -2.16587844
H   -2.50094100    0.63049440    0.00000000
H   -1.25047050    0.63049440    2.16587844
H    1.25047050    0.63049440    2.16587844
H    2.50094100    0.63049440    0.00000000
H    1.25047050    0.63049440   -2.16587844
C    0.00000000   -3.06950560    0.00000000
H    0.00000000   -1.97000260    0.00000000
H   -0.51831072   -3.43600639   -0.89774050
H    1.03662144   -3.43600639    0.00000000
H   -0.51831072   -3.43600639    0.89774050

NBC10ext_5_0.97_dimer.wfx

