%nprocs=8
%mem=4GB
#p b3lyp aug-cc-pvqz output=wfx scf=(conver=6) int=(grid=ultrafine)

title

0 1
C    0.00000000   -4.64573820    0.00000000
H    0.00000000   -3.54623520    0.00000000
H   -0.51831072   -5.01223899   -0.89774050
H    1.03662144   -5.01223899    0.00000000
H   -0.51831072   -5.01223899    0.89774050

NBC10ext_5_1.47_monomerB.wfx

