%nprocs=8
%mem=4GB
#p b3lyp aug-cc-pvqz output=wfx scf=(conver=6) int=(grid=ultrafine)

title

0 1
C    0.00000000   -3.98206132    0.00000000
H    0.00000000   -2.88255832    0.00000000
H   -0.51831072   -4.34856211   -0.89774050
H    1.03662144   -4.34856211    0.00000000
H   -0.51831072   -4.34856211    0.89774050

NBC10ext_5_1.26_monomerB.wfx

