%nprocs=8
%mem=4GB
#p b3lyp aug-cc-pvqz output=wfx scf=(conver=6) int=(grid=ultrafine)

title

0 1
C   -0.70286550    0.61345401   -1.21739876
C   -1.40573100    0.61345401    0.00000000
C   -0.70286550    0.61345401    1.21739876
C    0.70286550    0.61345401    1.21739876
C    1.40573100    0.61345401    0.00000000
C    0.70286550    0.61345401   -1.21739876
H   -1.25047050    0.61345401   -2.16587844
H   -2.50094100    0.61345401    0.00000000
H   -1.25047050    0.61345401    2.16587844
H    1.25047050    0.61345401    2.16587844
H    2.50094100    0.61345401    0.00000000
H    1.25047050    0.61345401   -2.16587844

NBC10ext_5_0.95_monomerA.wfx

