%nprocs=8
%mem=4GB
#p b3lyp aug-cc-pvqz output=wfx scf=(conver=6) int=(grid=ultrafine)

title

0 1
S    0.00000000    0.00000000   -3.84815061
H    0.00000000    0.96172129   -2.92137149
H    0.00000000   -0.96172129   -2.92137149

NBC10ext_4_1.45_monomerB.wfx

