%nprocs=8
%mem=4GB
#p b3lyp aug-cc-pvqz output=wfx scf=(conver=6) int=(grid=ultrafine)

title

0 1
C    0.00000000    0.00000000    1.00850000
C   -1.20507435    0.00000000    1.70425000
C   -1.20507435    0.00000000    3.09575000
C    0.00000000    0.00000000    3.79150000
C    1.20507435    0.00000000    3.09575000
C    1.20507435    0.00000000    1.70425000
H    0.00000000    0.00000000   -0.07150000
H   -2.14038179    0.00000000    1.16425000
H   -2.14038179    0.00000000    3.63575000
H    0.00000000    0.00000000    4.87150000
H    2.14038179    0.00000000    3.63575000
H    2.14038179    0.00000000    1.16425000

NBC10ext_2_0.96_monomerB.wfx

