%nprocs=8
%mem=4GB
#p b3lyp aug-cc-pvqz output=wfx scf=(conver=6) int=(grid=ultrafine)

title

0 1
C   -0.70286550    1.02242335   -1.21739876
C   -1.40573100    1.02242335    0.00000000
C   -0.70286550    1.02242335    1.21739876
C    0.70286550    1.02242335    1.21739876
C    1.40573100    1.02242335    0.00000000
C    0.70286550    1.02242335   -1.21739876
H   -1.25047050    1.02242335   -2.16587844
H   -2.50094100    1.02242335    0.00000000
H   -1.25047050    1.02242335    2.16587844
H    1.25047050    1.02242335    2.16587844
H    2.50094100    1.02242335    0.00000000
H    1.25047050    1.02242335   -2.16587844
C    0.00000000   -4.97757665    0.00000000
H    0.00000000   -3.87807365    0.00000000
H   -0.51831072   -5.34407744   -0.89774050
H    1.03662144   -5.34407744    0.00000000
H   -0.51831072   -5.34407744    0.89774050

NBC10ext_5_1.58_dimer.wfx

