%nprocs=8
%mem=4GB
#p b3lyp aug-cc-pvqz output=wfx scf=(conver=6) int=(grid=ultrafine)

title

0 1
S    0.00000000    0.00000000   -4.54478273
H    0.00000000    0.96172129   -3.61800361
H    0.00000000   -0.96172129   -3.61800361

NBC10ext_4_1.71_monomerB.wfx

