%nprocs=8
%mem=4GB
#p b3lyp aug-cc-pvqz output=wfx scf=(conver=6) int=(grid=ultrafine)

title

0 1
C    0.00000000    0.00000000    0.90850000
C   -1.20507435    0.00000000    1.60425000
C   -1.20507435    0.00000000    2.99575000
C    0.00000000    0.00000000    3.69150000
C    1.20507435    0.00000000    2.99575000
C    1.20507435    0.00000000    1.60425000
H    0.00000000    0.00000000   -0.17150000
H   -2.14038179    0.00000000    1.06425000
H   -2.14038179    0.00000000    3.53575000
H    0.00000000    0.00000000    4.77150000
H    2.14038179    0.00000000    3.53575000
H    2.14038179    0.00000000    1.06425000

NBC10ext_2_0.92_monomerB.wfx

