%nprocs=8
%mem=4GB
#p b3lyp aug-cc-pvqz output=wfx scf=(conver=6) int=(grid=ultrafine)

title

0 1
N   -1.39803800    2.65000000    0.00000000
C   -0.69853710    2.65000000   -1.14013004
C    0.69418190    2.65000000   -1.19534022
C    1.40674710    2.65000000    0.00000000
C    0.69418190    2.65000000    1.19534022
C   -0.69853710    2.65000000    1.14013004
H   -1.28166922    2.65000000   -2.05688474
H    1.19992540    2.65000000   -2.15254776
H    2.48854710    2.65000000    0.00000000
H    1.19992540    2.65000000    2.15254776
H   -1.28166922    2.65000000    2.05688474
N    1.39803800   -2.65000000    0.00000000
C    0.69853710   -3.79013004    0.00000000
C   -0.69418190   -3.84534022    0.00000000
C   -1.40674710   -2.65000000    0.00000000
C   -0.69418190   -1.45465978    0.00000000
C    0.69853710   -1.50986996    0.00000000
H    1.28166922   -4.70688474    0.00000000
H   -1.19992540   -4.80254776    0.00000000
H   -2.48854710   -2.65000000    0.00000000
H   -1.19992540   -0.49745224    0.00000000
H    1.28166922   -0.59311526    0.00000000

NBC10ext_8_1.08_dimer.wfx

