%nprocs=8
%mem=4GB
#p b3lyp aug-cc-pvqz output=wfx scf=(conver=6) int=(grid=ultrafine)

title

0 1
C   -0.70286550    0.78385790   -1.21739876
C   -1.40573100    0.78385790    0.00000000
C   -0.70286550    0.78385790    1.21739876
C    0.70286550    0.78385790    1.21739876
C    1.40573100    0.78385790    0.00000000
C    0.70286550    0.78385790   -1.21739876
H   -1.25047050    0.78385790   -2.16587844
H   -2.50094100    0.78385790    0.00000000
H   -1.25047050    0.78385790    2.16587844
H    1.25047050    0.78385790    2.16587844
H    2.50094100    0.78385790    0.00000000
H    1.25047050    0.78385790   -2.16587844
C    0.00000000   -3.81614210    0.00000000
H    0.00000000   -2.71663910    0.00000000
H   -0.51831072   -4.18264289   -0.89774050
H    1.03662144   -4.18264289    0.00000000
H   -0.51831072   -4.18264289    0.89774050

NBC10ext_5_1.21_dimer.wfx

