%nprocs=8
%mem=4GB
#p b3lyp aug-cc-pvqz output=wfx scf=(conver=6) int=(grid=ultrafine)

title

0 1
S    0.00000000    0.00000000   -4.89309878
H    0.00000000    0.96172129   -3.96631967
H    0.00000000   -0.96172129   -3.96631967

NBC10ext_4_1.84_monomerB.wfx

