%nprocs=8
%mem=4GB
#p b3lyp aug-cc-pvqz output=wfx scf=(conver=6) int=(grid=ultrafine)

title

0 1
S    0.00000000    0.00000000   -2.21106513
H    0.00000000    0.96172129   -1.28428602
H    0.00000000   -0.96172129   -1.28428602

NBC10ext_4_0.83_monomerB.wfx

