%nprocs=8
%mem=4GB
#p b3lyp aug-cc-pvqz output=wfx scf=(conver=6) int=(grid=ultrafine)

title

0 1
C    0.00000000   -1.39150000    0.95410326
C    1.20507435   -0.69575000    0.95410326
C    1.20507435    0.69575000    0.95410326
C    0.00000000    1.39150000    0.95410326
C   -1.20507435    0.69575000    0.95410326
C   -1.20507435   -0.69575000    0.95410326
H    0.00000000   -2.47150000    0.95410326
H    2.14038179   -1.23575000    0.95410326
H    2.14038179    1.23575000    0.95410326
H    0.00000000    2.47150000    0.95410326
H   -2.14038179    1.23575000    0.95410326
H   -2.14038179   -1.23575000    0.95410326

NBC10ext_4_0.84_monomerA.wfx

