&control
 title='crystal',
 prefix='crystal',
 pseudo_dir='.',
 calculation='vc-relax',
/
&system
 ibrav=0,
 celldm(1)=1.0,
 nat=   132,
 ntyp=  4,
 ecutwfc=60.0,
 ecutrho=600.0,
 xdm=.true.,
 xdm_a1=0.4073,
 xdm_a2=2.4150,
/
&electrons
 conv_thr = 1d-8,
/
&ions
/
&cell
/
ATOMIC_SPECIES
h      1.007940 h.UPF
c     12.010700 c.UPF
n     14.006700 n.UPF
o     15.999400 o.UPF

ATOMIC_POSITIONS crystal
c     0.75481829     0.63398267     0.50457714
c     0.24518168     0.36601733     0.49542284
c     0.24518439     0.13398076     0.99542108
c     0.75481558     0.86601924     0.00457890
c     0.78161996     0.55469137     0.46024983
c     0.21838001     0.44530863     0.53975015
c     0.21837406     0.05469627     0.03975270
c     0.78162591     0.94530373     0.96024729
c     0.84217307     0.65050858     0.43857154
c     0.15782690     0.34949142     0.56142844
c     0.15783291     0.15050393     0.06142591
c     0.84216706     0.84949607     0.93857407
c     0.84267627     0.88044746     0.49930561
c     0.15732370     0.11955254     0.50069437
c     0.15732747     0.38044362     0.00069172
c     0.84267250     0.61955638     0.99930826
c     0.69524921     0.54653241     0.53479437
c     0.30475076     0.45346759     0.46520562
c     0.30475042     0.04653347     0.96520595
c     0.69524955     0.95346653     0.03479404
n     0.87473337     0.81075368     0.45783240
n     0.12526661     0.18924632     0.54216758
n     0.12526488     0.31075400     0.04216851
n     0.87473509     0.68924600     0.95783148
n     0.78345624     0.79577323     0.52260452
n     0.21654374     0.20422677     0.47739546
n     0.21654107     0.29577885     0.97739618
n     0.78345890     0.70422115     0.02260380
n     0.87094607     0.04239209     0.51819814
n     0.12905391     0.95760791     0.48180184
n     0.12904914     0.54239340     0.98180254
n     0.87095084     0.45760660     0.01819745
h     0.75712000     0.42414582     0.44403269
h     0.24287997     0.57585418     0.55596730
h     0.24288148     0.92414357     0.05596772
h     0.75711849     0.07585643     0.94403226
h     0.86739557     0.59554494     0.40479847
h     0.13260440     0.40445506     0.59520151
h     0.13260430     0.09554349     0.09520269
h     0.86739567     0.90445651     0.90479729
h     0.87434005     0.08790034     0.56429968
h     0.12565992     0.91209966     0.43570031
h     0.12565769     0.58790083     0.93569725
h     0.87434228     0.41209917     0.06430274
h     0.95375211     0.09698848     0.52257289
h     0.04624786     0.90301152     0.47742709
h     0.04625083     0.59698612     0.97742718
h     0.95374914     0.40301388     0.02257280
h     0.79649912     0.57080873     0.61871173
h     0.20350085     0.42919127     0.38128825
h     0.20350088     0.07080837     0.88128777
h     0.79649909     0.92919163     0.11871222
h     0.68481784     0.41446018     0.52267804
h     0.31518213     0.58553982     0.47732195
h     0.31518229     0.91445945     0.97732203
h     0.68481768     0.08554055     0.02267795
h     0.55805221     0.59380707     0.48708643
h     0.44194776     0.40619293     0.51291355
h     0.44194820     0.09380712     0.01291363
h     0.55805177     0.90619288     0.98708635
c     0.73792728     0.12258231     0.68714881
c     0.26207269     0.87741769     0.31285118
c     0.26208132     0.62258141     0.81285465
c     0.73791865     0.37741859     0.18714533
c     0.65419536     0.27331376     0.76206197
c     0.34580462     0.72668624     0.23793801
c     0.34580416     0.77331473     0.73794073
c     0.65419581     0.22668527     0.26205925
c     0.65596604     0.02814011     0.69765553
c     0.34403393     0.97185989     0.30234446
c     0.34403081     0.52813978     0.80234510
c     0.65596916     0.47186022     0.19765488
c     0.77722856     0.28897488     0.71511334
c     0.22277141     0.71102512     0.28488664
c     0.22276489     0.78897433     0.78488601
c     0.77723508     0.21102567     0.21511397
c     0.73412491     0.36531380     0.75108433
c     0.26587506     0.63468620     0.24891565
c     0.26587766     0.86531395     0.74891302
c     0.73412231     0.13468605     0.25108696
c     0.61647470     0.10794329     0.73565996
c     0.38352527     0.89205671     0.26434002
c     0.38352591     0.60794446     0.76433784
c     0.61647406     0.39205554     0.23566215
c     0.78355087     0.05899360     0.64472330
c     0.21644910     0.94100640     0.35527668
c     0.21643105     0.55900053     0.85527104
c     0.78356892     0.44099947     0.14472895
c     0.61003838     0.84865671     0.67172565
c     0.38996159     0.15134329     0.32827433
c     0.38996193     0.34865713     0.82827382
c     0.61003804     0.65134287     0.17172617
h     0.76429026     0.49455567     0.77149587
h     0.23570971     0.50544433     0.22850411
h     0.23571015     0.99455614     0.72850505
h     0.76428982     0.00544386     0.27149493
h     0.55200455     0.03807060     0.74351404
h     0.44799542     0.96192940     0.25648594
h     0.44799633     0.53807249     0.75648679
h     0.55200364     0.46192751     0.24351320
h     0.62172718     0.32997153     0.79161602
h     0.37827279     0.67002847     0.20838397
h     0.37827142     0.82997344     0.70838261
h     0.62172855     0.17002656     0.29161738
h     0.74917412     0.87516793     0.57008560
h     0.25082586     0.12483207     0.42991438
h     0.25082883     0.37516925     0.92991625
h     0.74917114     0.62483075     0.07008373
h     0.84352747     0.35679529     0.70801474
h     0.15647251     0.64320471     0.29198525
h     0.15647500     0.85679252     0.79198599
h     0.84352497     0.14320748     0.20801400
h     0.49591670     0.82698512     0.58597037
h     0.50408327     0.17301488     0.41402961
h     0.50408341     0.32698537     0.91402949
h     0.49591656     0.67301463     0.08597049
h     0.56523001     0.80165873     0.69647454
h     0.43476997     0.19834127     0.30352544
h     0.43477051     0.30165922     0.80352580
h     0.56522946     0.69834078     0.19647418
h     0.73103331     0.77712675     0.71084488
h     0.26896666     0.22287325     0.28915510
h     0.26896614     0.27712668     0.78915505
h     0.73103383     0.72287332     0.21084493
o     0.87694829     0.14123663     0.64999884
o     0.12305168     0.85876337     0.35000114
o     0.12305396     0.64122635     0.84999885
o     0.87694602     0.35877365     0.15000113
o     0.71489330     0.91319392     0.60031414
o     0.28510667     0.08680608     0.39968584
o     0.28511277     0.41319486     0.89968888
o     0.71488721     0.58680514     0.10031110

K_POINTS automatic
2 2 2 1 1 1

CELL_PARAMETERS cubic
   22.991642000000     0.000138000000    -0.415756000000
    0.000089000000    15.439184000000    -0.000036000000
  -32.681244000000    -0.000240000000    24.300117000000
