&control
 title='crystal',
 prefix='crystal',
 pseudo_dir='.',
 calculation='vc-relax',
/
&system
 ibrav=0,
 celldm(1)=1.0,
 nat=   264,
 ntyp=  4,
 ecutwfc=60.0,
 ecutrho=600.0,
 xdm=.true.,
 xdm_a1=0.4073,
 xdm_a2=2.4150,
/
&electrons
 conv_thr = 1d-8,
/
&ions
/
&cell
/
ATOMIC_SPECIES
h      1.007940 h.UPF
c     12.010700 c.UPF
n     14.006700 n.UPF
o     15.999400 o.UPF

ATOMIC_POSITIONS crystal
c     0.99691637     0.13815227     0.87562679
c     0.00308363     0.86184774     0.12437323
c     0.49691650     0.13815151     0.62437383
c     0.99691651     0.36184849     0.37562618
c     0.49691637     0.36184773     0.12437322
c     0.50308363     0.63815228     0.87562681
c     0.00308350     0.63815152     0.62437384
c     0.50308350     0.86184850     0.37562619
c     0.04164770     0.16735198     0.84554477
c     0.95835230     0.83264803     0.15445525
c     0.54164783     0.16735122     0.65445585
c     0.04164784     0.33264878     0.34554415
c     0.54164770     0.33264802     0.15445525
c     0.45835230     0.66735199     0.84554478
c     0.95835217     0.66735122     0.65445587
c     0.45835217     0.83264879     0.34554417
c     0.05241275     0.28488455     0.85407743
c     0.94758725     0.71511545     0.14592259
c     0.55241288     0.28488379     0.64592319
c     0.05241288     0.21511620     0.35407682
c     0.55241275     0.21511544     0.14592259
c     0.44758725     0.78488456     0.85407744
c     0.94758712     0.78488380     0.64592321
c     0.44758712     0.71511621     0.35407683
c     0.97839187     0.32878022     0.92479252
c     0.02160814     0.67121978     0.07520750
c     0.47839200     0.32877946     0.57520810
c     0.97839200     0.17122054     0.42479191
c     0.47839186     0.17121977     0.07520750
c     0.52160814     0.82878023     0.92479253
c     0.02160801     0.82877947     0.57520812
c     0.52160801     0.67122055     0.42479192
c     0.09923982     0.32854528     0.82158395
c     0.90076018     0.67145473     0.17841607
c     0.59923995     0.32854451     0.67841667
c     0.09923995     0.17145548     0.32158334
c     0.59923982     0.17145472     0.17841607
c     0.40076019     0.82854529     0.82158396
c     0.90076005     0.82854452     0.67841669
c     0.40076005     0.67145549     0.32158335
n     0.02115358     0.36468680     0.89268610
n     0.97884642     0.63531321     0.10731392
n     0.52115371     0.36468604     0.60731452
n     0.02115372     0.13531396     0.39268549
n     0.52115358     0.13531320     0.10731391
n     0.47884642     0.86468681     0.89268612
n     0.97884629     0.86468604     0.60731453
n     0.47884629     0.63531397     0.39268550
n     0.96525570     0.21615569     0.91567733
n     0.03474431     0.78384432     0.08432269
n     0.46525583     0.21615492     0.58432329
n     0.96525583     0.28384507     0.41567672
n     0.46525570     0.28384431     0.08432268
n     0.53474431     0.71615569     0.91567735
n     0.03474417     0.71615493     0.58432330
n     0.53474417     0.78384508     0.41567674
n     0.94722597     0.40813089     0.96752859
n     0.05277403     0.59186911     0.03247143
n     0.44722610     0.40813013     0.53247203
n     0.94722611     0.09186987     0.46752798
n     0.44722597     0.09186910     0.03247143
n     0.55277403     0.90813090     0.96752860
n     0.05277390     0.90813014     0.53247205
n     0.55277390     0.59186988     0.46752799
h     0.06667132     0.10181024     0.81403069
h     0.93332869     0.89818976     0.18596933
h     0.56667145     0.10180948     0.68596993
h     0.06667145     0.39819052     0.31403008
h     0.56667132     0.39818975     0.18596932
h     0.43332869     0.60181025     0.81403071
h     0.93332855     0.60180949     0.68596994
h     0.43332855     0.89819053     0.31403010
h     0.91535629     0.37919262     0.00045720
h     0.08464372     0.62080739     0.99954282
h     0.41535642     0.37919185     0.49954342
h     0.91535642     0.12080814     0.50045658
h     0.41535629     0.12080738     0.99954282
h     0.58464372     0.87919262     0.00045721
h     0.08464358     0.87919186     0.49954344
h     0.58464358     0.62080815     0.50045660
h     0.95786666     0.48910519     0.00890060
h     0.04213334     0.51089481     0.99109942
h     0.45786679     0.48910443     0.49110002
h     0.95786680     0.01089557     0.50889999
h     0.45786666     0.01089480     0.99109941
h     0.54213334     0.98910520     0.00890062
h     0.04213321     0.98910444     0.49110004
h     0.54213321     0.51089557     0.50890000
h     0.98566582     0.04870972     0.86486662
h     0.01433419     0.95129028     0.13513340
h     0.48566595     0.04870896     0.63513400
h     0.98566595     0.45129104     0.36486601
h     0.48566581     0.45129027     0.13513339
h     0.51433419     0.54870973     0.86486664
h     0.01433406     0.54870897     0.63513401
h     0.51433406     0.95129105     0.36486602
h     0.12222541     0.25879265     0.78266838
h     0.87777459     0.74120736     0.21733164
h     0.62222554     0.25879188     0.71733224
h     0.12222555     0.24120811     0.28266777
h     0.62222541     0.24120735     0.21733163
h     0.37777459     0.75879265     0.78266840
h     0.87777446     0.75879189     0.71733225
h     0.37777446     0.74120812     0.28266778
h     0.11211054     0.37062497     0.95030832
h     0.88788946     0.62937504     0.04969170
h     0.61211067     0.37062420     0.54969230
h     0.11211067     0.12937579     0.45030771
h     0.61211054     0.12937503     0.04969169
h     0.38788947     0.87062498     0.95030834
h     0.88788933     0.87062421     0.54969231
h     0.38788933     0.62937580     0.45030773
h     0.09939360     0.39432661     0.70944228
h     0.90060641     0.60567340     0.29055775
h     0.59939373     0.39432585     0.79055835
h     0.09939373     0.10567415     0.20944166
h     0.59939359     0.10567339     0.29055774
h     0.40060641     0.89432662     0.70944229
h     0.90060628     0.89432585     0.79055836
h     0.40060628     0.60567416     0.20944168
c     0.80852901     0.16020886     0.08101942
c     0.19147099     0.83979115     0.91898060
c     0.30852914     0.16020810     0.41898120
c     0.80852914     0.33979190     0.58101881
c     0.30852901     0.33979114     0.91898059
c     0.69147099     0.66020887     0.08101944
c     0.19147086     0.66020810     0.41898121
c     0.69147086     0.83979191     0.58101882
c     0.72084835     0.08841767     0.16455825
c     0.27915166     0.91158234     0.83544177
c     0.22084848     0.08841691     0.33544237
c     0.72084848     0.41158309     0.66455764
c     0.22084835     0.41158233     0.83544176
c     0.77915166     0.58841768     0.16455827
c     0.27915152     0.58841692     0.33544239
c     0.77915152     0.91158310     0.66455765
c     0.80153960     0.04951156     0.16017817
c     0.19846040     0.95048845     0.83982186
c     0.30153973     0.04951079     0.33982246
c     0.80153973     0.45048920     0.66017755
c     0.30153960     0.45048844     0.83982185
c     0.69846041     0.54951157     0.16017818
c     0.19846027     0.54951080     0.33982247
c     0.69846027     0.95048921     0.66017757
c     0.77171511     0.23279059     0.04627268
c     0.22828490     0.76720941     0.95372734
c     0.27171524     0.23278983     0.45372794
c     0.77171524     0.26721017     0.54627207
c     0.27171511     0.26720941     0.95372733
c     0.72828490     0.73279060     0.04627270
c     0.22828476     0.73278984     0.45372795
c     0.72828476     0.76721018     0.54627208
c     0.72804638     0.19718976     0.08548016
c     0.27195363     0.80281024     0.91451986
c     0.22804651     0.19718900     0.41452046
c     0.72804651     0.30281099     0.58547955
c     0.22804638     0.30281023     0.91451985
c     0.77195363     0.69718977     0.08548018
c     0.27195349     0.69718901     0.41452047
c     0.77195349     0.80281100     0.58547956
c     0.75732761     0.01661907     0.20222590
c     0.24267239     0.98338094     0.79777412
c     0.25732774     0.01661830     0.29777472
c     0.75732774     0.48338169     0.70222528
c     0.25732761     0.48338093     0.79777412
c     0.74267239     0.51661908     0.20222591
c     0.24267226     0.51661831     0.29777474
c     0.74267226     0.98338170     0.70222530
c     0.85371074     0.20896493     0.03477536
c     0.14628926     0.79103507     0.96522466
c     0.35371087     0.20896417     0.46522526
c     0.85371087     0.29103583     0.53477474
c     0.35371074     0.29103506     0.96522466
c     0.64628927     0.70896494     0.03477537
c     0.14628913     0.70896418     0.46522528
c     0.64628913     0.79103583     0.53477476
c     0.83889683     0.96667541     0.20602259
c     0.16110317     0.03332459     0.79397743
c     0.33889696     0.96667465     0.29397803
c     0.83889696     0.53332535     0.70602198
c     0.33889683     0.53332458     0.79397743
c     0.66110317     0.46667542     0.20602260
c     0.16110304     0.46667466     0.29397805
c     0.66110304     0.03332536     0.70602199
h     0.70004410     0.25455856     0.05394419
h     0.29995591     0.74544144     0.94605583
h     0.20004423     0.25455780     0.44605643
h     0.70004423     0.24544219     0.55394358
h     0.20004409     0.24544143     0.94605583
h     0.79995591     0.75455857     0.05394420
h     0.29995578     0.75455781     0.44605645
h     0.79995578     0.74544220     0.55394359
h     0.75145276     0.93244842     0.26601320
h     0.24854725     0.06755158     0.73398682
h     0.25145289     0.93244766     0.23398742
h     0.75145289     0.56755234     0.76601259
h     0.25145275     0.56755157     0.73398681
h     0.74854725     0.43244843     0.26601322
h     0.24854712     0.43244767     0.23398744
h     0.74854712     0.06755235     0.76601260
h     0.68704944     0.05789885     0.19644726
h     0.31295056     0.94210115     0.80355276
h     0.18704957     0.05789809     0.30355336
h     0.68704958     0.44210190     0.69644665
h     0.18704944     0.44210114     0.80355275
h     0.81295056     0.55789886     0.19644728
h     0.31295043     0.55789810     0.30355337
h     0.81295043     0.94210191     0.69644666
h     0.91596624     0.17231418     0.96446930
h     0.08403376     0.82768582     0.03553072
h     0.41596637     0.17231342     0.53553132
h     0.91596637     0.32768658     0.46446868
h     0.41596624     0.32768581     0.03553072
h     0.58403376     0.67231419     0.96446931
h     0.08403363     0.67231343     0.53553134
h     0.58403363     0.82768659     0.46446870
h     0.77810833     0.31772874     0.98656729
h     0.22189168     0.68227126     0.01343273
h     0.27810845     0.31772798     0.51343333
h     0.77810846     0.18227202     0.48656668
h     0.27810832     0.18227125     0.01343273
h     0.72189168     0.81772875     0.98656730
h     0.22189155     0.81772799     0.51343335
h     0.72189155     0.68227203     0.48656669
h     0.86574828     0.00922737     0.28626151
h     0.13425172     0.99077263     0.71373851
h     0.36574841     0.00922661     0.21373911
h     0.86574841     0.49077339     0.78626090
h     0.36574828     0.49077262     0.71373850
h     0.63425172     0.50922738     0.28626153
h     0.13425159     0.50922662     0.21373913
h     0.63425159     0.99077340     0.78626091
h     0.85431470     0.93251532     0.07616068
h     0.14568530     0.06748469     0.92383934
h     0.35431483     0.93251455     0.42383994
h     0.85431483     0.56748544     0.57616007
h     0.35431470     0.56748468     0.92383933
h     0.64568530     0.43251533     0.07616070
h     0.14568517     0.43251456     0.42383995
h     0.64568517     0.06748545     0.57616008
h     0.82563132     0.89457953     0.28954298
h     0.17436869     0.10542047     0.71045704
h     0.32563145     0.89457877     0.21045764
h     0.82563145     0.60542122     0.78954236
h     0.32563131     0.60542046     0.71045704
h     0.67436869     0.39457954     0.28954299
h     0.17436856     0.39457878     0.21045766
h     0.67436856     0.10542123     0.78954238
o     0.86019190     0.31453527     0.03069767
o     0.13980811     0.68546473     0.96930235
o     0.36019203     0.31453451     0.46930295
o     0.86019203     0.18546549     0.53069705
o     0.36019190     0.18546472     0.96930235
o     0.63980811     0.81453528     0.03069768
o     0.13980798     0.81453452     0.46930297
o     0.63980798     0.68546550     0.53069707
o     0.88543438     0.13176960     0.99723506
o     0.11456562     0.86823041     0.00276496
o     0.38543451     0.13176883     0.50276556
o     0.88543452     0.36823116     0.49723444
o     0.38543438     0.36823040     0.00276496
o     0.61456562     0.63176961     0.99723507
o     0.11456549     0.63176884     0.50276558
o     0.61456549     0.86823117     0.49723446

K_POINTS automatic
2 2 2 1 1 1

CELL_PARAMETERS cubic
   56.171129000000     0.000000000000     0.000000000000
    0.000000000000    21.877920000000    -0.000001000000
    0.000000000000     0.000000000000    13.319797000000
