&control
 title='crystal',
 prefix='crystal',
 pseudo_dir='.',
 calculation='vc-relax',
/
&system
 ibrav=0,
 celldm(1)=1.0,
 nat=    66,
 ntyp=  4,
 ecutwfc=60.0,
 ecutrho=600.0,
 xdm=.true.,
 xdm_a1=0.4073,
 xdm_a2=2.4150,
/
&electrons
 conv_thr = 1d-8,
/
&ions
/
&cell
/
ATOMIC_SPECIES
h      1.007940 h.UPF
c     12.010700 c.UPF
n     14.006700 n.UPF
o     15.999400 o.UPF

ATOMIC_POSITIONS crystal
n     0.10922680     0.08374978     0.29769644
n     0.89077329     0.91625027     0.70230365
c     0.05384699     0.04634265     0.36501458
c     0.94615310     0.95365741     0.63498550
n     0.06519199     0.91757639     0.31116702
n     0.93480810     0.08242366     0.68883306
n     0.98731913     0.13144996     0.48129331
n     0.01268097     0.86855009     0.51870678
c     0.96153560     0.24671508     0.51441885
c     0.03846449     0.75328497     0.48558124
c     0.00904295     0.28599695     0.44153144
c     0.99095715     0.71400310     0.55846864
h     0.99000117     0.38062218     0.46985300
h     0.00999893     0.61937787     0.53014709
c     0.08645722     0.20356029     0.33882155
c     0.91354288     0.79643976     0.66117854
h     0.13303190     0.23389994     0.28698544
h     0.86696819     0.76610012     0.71301465
c     0.88143590     0.33165676     0.63432646
c     0.11856420     0.66834329     0.36567363
h     0.75583933     0.20852244     0.52368961
h     0.24416076     0.79147762     0.47631048
h     0.98200556     0.44658632     0.84742581
h     0.01799454     0.55341373     0.15257427
h     0.84899117     0.40702382     0.63032718
h     0.15100893     0.59297624     0.36967291
h     0.12580074     0.86312603     0.23780266
h     0.87419935     0.13687402     0.76219743
h     0.04433726     0.90233991     0.38501032
h     0.95566284     0.09766014     0.61498976
c     0.69242944     0.14428307     0.89651637
c     0.30757065     0.85571698     0.10348372
c     0.59227797     0.20547710     0.98494668
c     0.40772213     0.79452295     0.01505341
c     0.57815818     0.19030040     0.09633147
c     0.42184191     0.80969965     0.90366862
c     0.49187460     0.25240242     0.19115035
c     0.50812550     0.74759764     0.80884974
c     0.41585609     0.32774105     0.17015802
c     0.58414400     0.67225901     0.82984206
c     0.42723101     0.34063187     0.05641290
c     0.57276908     0.65936818     0.94358718
c     0.51629793     0.28263465     0.96413785
c     0.48370217     0.71736540     0.03586224
c     0.52467027     0.30213983     0.84566609
c     0.47532982     0.69786023     0.15433400
o     0.76665785     0.21649946     0.88815911
o     0.23334224     0.78350059     0.11184097
o     0.69692020     0.00924706     0.83112601
o     0.30307989     0.99075299     0.16887408
h     0.63670472     0.12904653     0.10778330
h     0.36329538     0.87095353     0.89221678
h     0.48036742     0.23751840     0.27438465
h     0.51963268     0.76248165     0.72561544
h     0.34482093     0.37385150     0.23864857
h     0.65517917     0.62614856     0.76135152
h     0.36369974     0.39546707     0.03580603
h     0.63630035     0.60453298     0.96419406
h     0.48848874     0.16444228     0.65602432
h     0.51151135     0.83555777     0.34397577
h     0.66538417     0.43017386     0.98586148
h     0.33461592     0.56982619     0.01413860
h     0.42989671     0.32911499     0.80532894
h     0.57010339     0.67088506     0.19467114
h     0.77749192     0.97988355     0.78324137
h     0.22250817     0.02011650     0.21675872

K_POINTS automatic
2 2 2 1 1 1

CELL_PARAMETERS cubic
   18.915509000000     0.560147000000    -0.045824000000
   -2.702129000000    24.659374000000     1.392463000000
   -7.091978000000   -16.954563000000     8.380316000000
