&control
 title='crystal',
 prefix='crystal',
 pseudo_dir='.',
 calculation='vc-relax',
/
&system
 ibrav=0,
 celldm(1)=1.0,
 nat=    66,
 ntyp=  4,
 ecutwfc=60.0,
 ecutrho=600.0,
 xdm=.true.,
 xdm_a1=0.4073,
 xdm_a2=2.4150,
/
&electrons
 conv_thr = 1d-8,
/
&ions
/
&cell
/
ATOMIC_SPECIES
h      1.007940 h.UPF
c     12.010700 c.UPF
n     14.006700 n.UPF
o     15.999400 o.UPF

ATOMIC_POSITIONS crystal
n     0.73563506     0.30107644     0.92720546
n     0.26436490     0.69892366     0.07279458
c     0.64403625     0.57064591     0.14580979
c     0.35596371     0.42935419     0.85419024
n     0.61189824     0.71356324     0.36319004
n     0.38810172     0.28643686     0.63681000
n     0.58245923     0.70237848     0.15437280
n     0.41754074     0.29762162     0.84562723
c     0.61325527     0.57403729     0.94791236
c     0.38674469     0.42596281     0.05208767
c     0.70750119     0.31309133     0.72987453
c     0.29249877     0.68690877     0.27012551
h     0.73392581     0.20750380     0.56190193
h     0.26607415     0.79249629     0.43809811
c     0.76511854     0.18342837     0.72847635
c     0.23488143     0.81657173     0.27152369
h     0.83862199     0.97150569     0.55812155
h     0.16137798     0.02849441     0.44187849
c     0.54238181     0.72648735     0.96586981
c     0.45761815     0.27351274     0.03413022
h     0.48319915     0.65517623     0.90310815
h     0.51680081     0.34482387     0.09689189
h     0.51415259     0.06511830     0.24749397
h     0.48584737     0.93488179     0.75250607
h     0.57218237     0.59127486     0.77551979
h     0.42781760     0.40872524     0.22448025
h     0.65599722     0.65892101     0.39698274
h     0.34400274     0.34107909     0.60301730
h     0.54331813     0.92893414     0.53847478
h     0.45668184     0.07106596     0.46152526
c     0.20066717     0.43319868     0.49151392
c     0.79933279     0.56680142     0.50848612
c     0.14018664     0.77380450     0.69481615
c     0.85981333     0.22619560     0.30518389
c     0.04373516     0.89303391     0.76819981
c     0.95626481     0.10696619     0.23180023
c     0.98395770     0.21371262     0.96266827
c     0.01604226     0.78628748     0.03733177
c     0.02070401     0.41818073     0.08399874
c     0.97929596     0.58181937     0.91600130
c     0.11639416     0.30134274     0.01146389
c     0.88360580     0.69865736     0.98853615
c     0.17807767     0.98289125     0.82048067
c     0.82192229     0.01710885     0.17951936
c     0.27995968     0.88783471     0.76592170
c     0.72004028     0.11216539     0.23407834
o     0.28470243     0.33651074     0.44743404
o     0.71529754     0.66348936     0.55256600
o     0.15686828     0.23890032     0.35926408
o     0.84313168     0.76109978     0.64073596
h     0.01511795     0.73310544     0.67284407
h     0.98488201     0.26689466     0.32715597
h     0.90935018     0.30175492     0.01873572
h     0.09064979     0.69824518     0.98126432
h     0.97538157     0.67187034     0.23827766
h     0.02461840     0.32812976     0.76172238
h     0.14453447     0.46732702     0.11272935
h     0.85546550     0.53267308     0.88727069
h     0.32362237     0.55957862     0.47487759
h     0.67637759     0.44042148     0.52512245
h     0.30442633     0.95276570     0.91187503
h     0.69557364     0.04723440     0.08812501
h     0.29164880     0.07598032     0.86950099
h     0.70835116     0.92401978     0.13049905
h     0.20270002     0.01319310     0.22928870
h     0.79729994     0.98680700     0.77071134

K_POINTS automatic
2 2 2 1 1 1

CELL_PARAMETERS cubic
   30.883411000000     0.559478000000    -0.389448000000
    7.204520000000    19.564661000000     0.367257000000
   -4.948814000000   -20.938822000000     6.410204000000
