&control
 title='crystal',
 prefix='crystal',
 pseudo_dir='.',
 calculation='vc-relax',
/
&system
 ibrav=0,
 celldm(1)=1.0,
 nat=    66,
 ntyp=  4,
 ecutwfc=60.0,
 ecutrho=600.0,
 xdm=.true.,
 xdm_a1=0.4073,
 xdm_a2=2.4150,
/
&electrons
 conv_thr = 1d-8,
/
&ions
/
&cell
/
ATOMIC_SPECIES
h      1.007940 h.UPF
c     12.010700 c.UPF
n     14.006700 n.UPF
o     15.999400 o.UPF

ATOMIC_POSITIONS crystal
o     0.89011160     0.97377948     0.33078198
o     0.10988851     0.02622056     0.66921804
h     0.99291285     0.01989584     0.28061058
h     0.00708726     0.98010420     0.71938944
o     0.98473790     0.81189967     0.22385439
o     0.01526221     0.18810036     0.77614562
c     0.72540300     0.79168745     0.37077407
c     0.27459710     0.20831259     0.62922594
c     0.65915888     0.85327124     0.46208343
c     0.34084122     0.14672880     0.53791658
h     0.72753665     0.94662428     0.47986993
h     0.27246346     0.05337575     0.52013009
c     0.50959171     0.79754357     0.52971297
c     0.49040840     0.20245646     0.47028704
h     0.45668051     0.84872808     0.59901535
h     0.54331960     0.15127195     0.40098466
c     0.42374011     0.67765528     0.50625424
c     0.57626000     0.32234475     0.49374577
h     0.29737175     0.63240693     0.55688377
h     0.70262836     0.36759311     0.44311625
c     0.49339359     0.61531745     0.41636459
c     0.50660652     0.38468259     0.58363543
h     0.42365212     0.52161183     0.39829001
h     0.57634799     0.47838820     0.60171001
c     0.64519493     0.66956460     0.34725460
c     0.35480518     0.33043543     0.65274542
c     0.87887015     0.85860683     0.30132408
c     0.12112996     0.14139320     0.69867594
c     0.70926381     0.59551695     0.25197235
c     0.29073630     0.40448309     0.74802766
h     0.55575693     0.62233029     0.18964757
h     0.44424318     0.37766974     0.81035244
h     0.63886397     0.50332671     0.25316914
h     0.36113614     0.49667332     0.74683087
h     0.98300952     0.60500833     0.23869530
h     0.01699059     0.39499170     0.76130472
n     0.87645162     0.89244108     0.78491415
n     0.12354849     0.10755895     0.21508587
n     0.63221568     0.85672440     0.92970236
n     0.36778443     0.14327564     0.07029765
n     0.67425572     0.04294930     0.89145533
n     0.32574439     0.95705073     0.10854469
h     0.56540955     0.07567637     0.95456102
h     0.43459056     0.92432366     0.04543900
h     0.77454374     0.09881214     0.85001263
h     0.22545637     0.90118789     0.14998739
c     0.72883174     0.92943668     0.86882455
c     0.27116837     0.07056335     0.13117547
c     0.68757295     0.74323394     0.90606674
c     0.31242716     0.25676609     0.09393328
c     0.83570699     0.69861063     0.82029774
c     0.16429312     0.30138940     0.17970228
h     0.88197123     0.60642327     0.80085283
h     0.11802888     0.39357676     0.19914719
c     0.92577597     0.77830190     0.76224817
c     0.07422414     0.22169813     0.23775185
h     0.04192828     0.75094577     0.69436173
h     0.95807183     0.24905427     0.30563829
c     0.59279031     0.66467383     0.97551961
c     0.40720980     0.33532620     0.02448041
h     0.43884874     0.70938501     0.03072692
h     0.56115137     0.29061502     0.96927310
h     0.83077480     0.63830137     0.01422218
h     0.16922531     0.36169867     0.98577783
h     0.44835060     0.58446036     0.93577449
h     0.55164951     0.41553967     0.06422553

K_POINTS automatic
2 2 2 1 1 1

CELL_PARAMETERS cubic
    7.280360000000     0.245343000000     0.084951000000
   -1.639913000000    21.875899000000     0.121877000000
   -2.792798000000    -4.874713000000    25.730484000000
