&control
 title='crystal',
 prefix='crystal',
 pseudo_dir='.',
 calculation='vc-relax',
/
&system
 ibrav=0,
 celldm(1)=1.0,
 nat=   132,
 ntyp=  4,
 ecutwfc=60.0,
 ecutrho=600.0,
 xdm=.true.,
 xdm_a1=0.4073,
 xdm_a2=2.4150,
/
&electrons
 conv_thr = 1d-8,
/
&ions
/
&cell
/
ATOMIC_SPECIES
h      1.007940 h.UPF
c     12.010700 c.UPF
n     14.006700 n.UPF
o     15.999400 o.UPF

ATOMIC_POSITIONS crystal
c     0.73690297     0.24030302     0.19243881
c     0.26309703     0.75969697     0.80756119
c     0.73690298     0.25969698     0.69243880
c     0.26309702     0.74030302     0.30756119
c     0.96306930     0.19952567     0.15594048
c     0.03693071     0.80047432     0.84405951
c     0.96306931     0.30047432     0.65594048
c     0.03693070     0.69952567     0.34405952
c     0.07178960     0.20987742     0.06122031
c     0.92821040     0.79012257     0.93877968
c     0.07178961     0.29012258     0.56122031
c     0.92821039     0.70987742     0.43877968
c     0.96018724     0.25821233     0.00158915
c     0.03981277     0.74178766     0.99841084
c     0.96018725     0.24178766     0.50158914
c     0.03981276     0.75821233     0.49841085
c     0.73273123     0.29604081     0.03639588
c     0.26726877     0.70395918     0.96360412
c     0.73273124     0.20395918     0.53639587
c     0.26726876     0.79604081     0.46360412
c     0.62508410     0.28660467     0.13029054
c     0.37491590     0.71339533     0.86970945
c     0.62508411     0.21339533     0.63029054
c     0.37491589     0.78660466     0.36970946
c     0.09109874     0.14451813     0.21459877
c     0.90890126     0.85548186     0.78540122
c     0.09109875     0.35548187     0.71459877
c     0.90890125     0.64451813     0.28540122
o     0.26994909     0.09764003     0.16526131
o     0.73005091     0.90235997     0.83473868
o     0.26994910     0.40235997     0.66526130
o     0.73005090     0.59764002     0.33473869
o     0.03516185     0.14214105     0.30081763
o     0.96483815     0.85785894     0.69918236
o     0.03516186     0.35785895     0.80081762
o     0.96483814     0.64214105     0.19918237
h     0.36245261     0.06182084     0.20855235
h     0.63754739     0.93817916     0.79144765
h     0.36245262     0.43817916     0.70855234
h     0.63754738     0.56182083     0.29144765
h     0.04806995     0.26702130     0.92880981
h     0.95193005     0.73297869     0.07119018
h     0.04806996     0.23297870     0.42880981
h     0.95193004     0.76702130     0.57119019
h     0.64081871     0.33369440     0.99087565
h     0.35918130     0.66630560     0.00912434
h     0.64081872     0.16630560     0.49087565
h     0.35918128     0.83369439     0.50912435
h     0.44792118     0.31607568     0.15718909
h     0.55207883     0.68392431     0.84281090
h     0.44792119     0.18392431     0.65718909
h     0.55207882     0.81607568     0.34281091
h     0.24843989     0.17967774     0.03551256
h     0.75156011     0.82032225     0.96448743
h     0.24843991     0.32032225     0.53551256
h     0.75156010     0.67967774     0.46448743
c     0.61009032     0.23783726     0.29319982
c     0.38990969     0.76216273     0.70680017
c     0.61009033     0.26216274     0.79319982
c     0.38990967     0.73783726     0.20680017
h     0.57766232     0.17265252     0.31942974
h     0.42233769     0.82734747     0.68057026
h     0.57766233     0.32734748     0.81942973
h     0.42233768     0.67265252     0.18057026
h     0.72204260     0.26821980     0.33798119
h     0.27795740     0.73178020     0.66201880
h     0.72204262     0.23178020     0.83798118
h     0.27795739     0.76821979     0.16201881
h     0.43312162     0.27104547     0.30222782
h     0.56687838     0.72895453     0.69777218
h     0.43312164     0.22895453     0.80222781
h     0.56687837     0.77104546     0.19777218
n     0.53899194     0.00705327     0.25739399
n     0.46100807     0.99294672     0.74260600
n     0.53899195     0.49294673     0.75739399
n     0.46100806     0.50705327     0.24260600
c     0.52554069     0.00473766     0.35132545
c     0.47445932     0.99526233     0.64867454
c     0.52554070     0.49526233     0.85132545
c     0.47445930     0.50473766     0.14867455
n     0.69746904     0.96697429     0.39238587
n     0.30253096     0.03302571     0.60761412
n     0.69746905     0.53302571     0.89238587
n     0.30253095     0.46697428     0.10761412
c     0.88572273     0.92961036     0.33585674
c     0.11427727     0.07038963     0.66414325
c     0.88572275     0.57038963     0.83585674
c     0.11427726     0.42961036     0.16414325
c     0.91082756     0.92753059     0.23920282
c     0.08917245     0.07246941     0.76079717
c     0.91082757     0.57246941     0.73920282
c     0.08917244     0.42753058     0.26079718
c     0.73011245     0.96877394     0.20164051
c     0.26988755     0.03122605     0.79835948
c     0.73011246     0.53122606     0.70164051
c     0.26988754     0.46877394     0.29835949
n     0.33253237     0.04199672     0.40620437
n     0.66746764     0.95800327     0.59379562
n     0.33253238     0.45800328     0.90620437
n     0.66746762     0.54199672     0.09379562
h     0.31738087     0.03977551     0.47788123
h     0.68261913     0.96022449     0.52211877
h     0.31738088     0.46022449     0.97788122
h     0.68261912     0.53977550     0.02211877
h     0.20789276     0.07412908     0.37579168
h     0.79210725     0.92587091     0.62420832
h     0.20789277     0.42587091     0.87579167
h     0.79210724     0.57412908     0.12420832
h     0.06665673     0.89664492     0.19503485
h     0.93334328     0.10335508     0.80496514
h     0.06665674     0.60335508     0.69503485
h     0.93334326     0.39664491     0.30496514
h     0.02260157     0.89971415     0.36954057
h     0.97739843     0.10028585     0.63045942
h     0.02260158     0.60028585     0.86954057
h     0.97739842     0.39971414     0.13045942
c     0.73950748     0.97379256     0.09878187
c     0.26049252     0.02620744     0.90121813
c     0.73950749     0.52620744     0.59878186
c     0.26049251     0.47379255     0.40121813
h     0.56960863     0.94869868     0.08124933
h     0.43039137     0.05130131     0.91875066
h     0.56960864     0.55130131     0.58124932
h     0.43039136     0.44869868     0.41875067
h     0.75489938     0.04070790     0.07598418
h     0.24510062     0.95929209     0.92401581
h     0.75489939     0.45929210     0.57598418
h     0.24510061     0.54070790     0.42401581
h     0.89573249     0.93805838     0.05984534
h     0.10426751     0.06194161     0.94015465
h     0.89573251     0.56194162     0.55984534
h     0.10426750     0.43805838     0.44015465

K_POINTS automatic
2 2 2 1 1 1

CELL_PARAMETERS cubic
   10.483477000000     0.000000000000    -0.172617000000
    0.000000000000    29.604176000000     0.000000000000
    5.926570000000     0.000000000000    26.986626000000
