&control
 title='crystal',
 prefix='crystal',
 pseudo_dir='.',
 calculation='vc-relax',
/
&system
 ibrav=0,
 celldm(1)=1.0,
 nat=    66,
 ntyp=  4,
 ecutwfc=60.0,
 ecutrho=600.0,
 xdm=.true.,
 xdm_a1=0.4073,
 xdm_a2=2.4150,
/
&electrons
 conv_thr = 1d-8,
/
&ions
/
&cell
/
ATOMIC_SPECIES
h      1.007940 h.UPF
c     12.010700 c.UPF
n     14.006700 n.UPF
o     15.999400 o.UPF

ATOMIC_POSITIONS crystal
c     0.10849363     0.74890157     0.41952162
c     0.89150638     0.25109840     0.58047835
c     0.04211545     0.77244044     0.52993537
c     0.95788456     0.22755952     0.47006460
c     0.86258091     0.69571886     0.53538010
c     0.13741909     0.30428111     0.46461987
c     0.74705309     0.59711861     0.43463109
c     0.25294692     0.40288135     0.56536887
c     0.81091352     0.57426350     0.32585422
c     0.18908649     0.42573647     0.67414575
c     0.98872367     0.64986061     0.31957135
c     0.01127633     0.35013935     0.68042862
c     0.15867815     0.87171691     0.64205005
c     0.84132186     0.12828306     0.35794992
o     0.07376315     0.87278580     0.73603234
o     0.92623685     0.12721416     0.26396762
o     0.31834397     0.94587112     0.64885246
o     0.68165604     0.05412885     0.35114750
h     0.16215881     0.92860392     0.81233112
h     0.83784120     0.07139605     0.18766885
h     0.60923418     0.53610989     0.44108191
h     0.39076583     0.46389008     0.55891806
h     0.72389096     0.49573383     0.24559542
h     0.27610905     0.50426614     0.75440454
h     0.03829987     0.63057998     0.23408846
h     0.96170014     0.36941999     0.76591151
h     0.81626829     0.71119292     0.62079307
h     0.18373172     0.28880705     0.37920690
c     0.29873935     0.82138233     0.40346655
c     0.70126066     0.17861763     0.59653341
h     0.32590283     0.98325443     0.44096025
h     0.67409718     0.01674553     0.55903971
h     0.40182064     0.76653184     0.44829795
h     0.59817937     0.23346813     0.55170202
h     0.32009362     0.77448898     0.30997509
h     0.67990638     0.22551099     0.69002488
n     0.26827845     0.02233451     0.93925115
n     0.73172156     0.97766545     0.06074881
c     0.36219732     0.20526327     0.96463174
c     0.63780269     0.79473669     0.03536823
n     0.41147736     0.33339432     0.07538111
n     0.58852265     0.66660565     0.92461886
c     0.37209615     0.26635295     0.16202044
c     0.62790386     0.73364701     0.83797953
c     0.28570414     0.07796229     0.14366306
c     0.71429587     0.92203768     0.85633690
c     0.23093006     0.95833154     0.02783199
c     0.76906995     0.04166842     0.97216797
n     0.40551361     0.26198066     0.87443231
n     0.59448640     0.73801931     0.12556765
h     0.47476828     0.40077345     0.89071442
h     0.52523173     0.59922652     0.10928555
h     0.38212711     0.15947154     0.79102496
h     0.61787289     0.84052843     0.20897500
h     0.25525555     0.02876164     0.21608752
h     0.74474446     0.97123832     0.78391245
h     0.41052504     0.37028911     0.25087300
h     0.58947497     0.62971086     0.74912697
c     0.12978145     0.75545301     0.99743395
c     0.87021856     0.24454696     0.00256601
h     0.03115853     0.72144460     0.92108427
h     0.96884148     0.27855537     0.07891570
h     0.22621326     0.64414894     0.97535825
h     0.77378674     0.35585103     0.02464172
h     0.05898750     0.74217877     0.07160897
h     0.94101251     0.25782120     0.92839100

K_POINTS automatic
2 2 2 1 1 1

CELL_PARAMETERS cubic
   13.973719000000     0.157262000000     0.224605000000
   -1.446969000000    13.577692000000    -0.036955000000
   -1.420190000000    -7.967382000000    21.551010000000
