&control
 title='crystal',
 prefix='crystal',
 pseudo_dir='.',
 calculation='vc-relax',
/
&system
 ibrav=0,
 celldm(1)=1.0,
 nat=    66,
 ntyp=  4,
 ecutwfc=60.0,
 ecutrho=600.0,
 xdm=.true.,
 xdm_a1=0.4073,
 xdm_a2=2.4150,
/
&electrons
 conv_thr = 1d-8,
/
&ions
/
&cell
/
ATOMIC_SPECIES
h      1.007940 h.UPF
c     12.010700 c.UPF
n     14.006700 n.UPF
o     15.999400 o.UPF

ATOMIC_POSITIONS crystal
o     0.60337222     0.70038760     0.73757236
o     0.39662789     0.29961240     0.26242765
h     0.46379389     0.73136881     0.68434492
h     0.53620622     0.26863119     0.31565508
o     0.87224003     0.89679778     0.79629235
o     0.12776008     0.10320222     0.20370765
c     0.02268389     0.75735636     0.88565356
c     0.97731622     0.24264363     0.11434645
c     0.19562755     0.85512519     0.96670555
c     0.80437256     0.14487480     0.03329446
h     0.17409370     0.94655722     0.96323120
h     0.82590641     0.05344277     0.03676881
c     0.38938986     0.83728755     0.04883134
c     0.61061025     0.16271244     0.95116866
h     0.52070264     0.91507791     0.11070733
h     0.47929747     0.08492208     0.88929268
c     0.41686151     0.71850866     0.04903887
c     0.58313860     0.28149133     0.95096114
h     0.57650666     0.70158337     0.11050617
h     0.42349345     0.29841663     0.88949384
c     0.24693963     0.62070342     0.96892879
c     0.75306048     0.37929657     0.03107122
h     0.27123042     0.52825606     0.96968035
h     0.72876968     0.47174394     0.03031966
c     0.04549001     0.63659183     0.88637436
c     0.95451010     0.36340816     0.11362565
c     0.82753779     0.79135529     0.80277227
c     0.17246231     0.20864470     0.19722774
c     0.87707191     0.52419305     0.80386881
c     0.12292820     0.47580694     0.19613120
h     0.96090423     0.52620315     0.73267110
h     0.03909588     0.47379684     0.26732890
h     0.94575708     0.44319214     0.82239028
h     0.05424302     0.55680785     0.17760973
h     0.59352771     0.51571260     0.79219739
h     0.40647240     0.48428739     0.20780262
n     0.23651881     0.75302756     0.59266320
n     0.76348130     0.24697243     0.40733681
n     0.19452163     0.85605739     0.46613324
n     0.80547848     0.14394260     0.53386677
n     0.57311211     0.94159630     0.61491661
n     0.42688800     0.05840370     0.38508340
h     0.66405261     0.01138955     0.58631831
h     0.33594749     0.98861044     0.41368169
h     0.68748741     0.93436235     0.68205391
h     0.31251269     0.06563765     0.31794609
c     0.33129821     0.84930707     0.55699686
c     0.66870190     0.15069293     0.44300315
c     0.95265856     0.76346015     0.40867535
c     0.04734155     0.23653984     0.59132466
c     0.83905837     0.66183394     0.44066074
c     0.16094174     0.33816605     0.55933927
h     0.63876148     0.58728200     0.39471271
h     0.36123863     0.41271799     0.60528730
c     0.99212004     0.66230135     0.53449676
c     0.00788006     0.33769864     0.46550325
h     0.91820689     0.58732799     0.56561680
h     0.08179321     0.41267200     0.43438321
c     0.80978600     0.77422475     0.30892850
c     0.19021411     0.22577524     0.69107151
h     0.70477593     0.85895810     0.31778192
h     0.29522418     0.14104189     0.68221809
h     0.60487084     0.69688104     0.26901442
h     0.39512927     0.30311896     0.73098559
h     0.01665792     0.77854489     0.26321279
h     0.98334219     0.22145511     0.73678722

K_POINTS automatic
2 2 2 1 1 1

CELL_PARAMETERS cubic
    7.430010000000     0.070068000000    -0.024985000000
   -3.222003000000    21.601441000000    -0.202405000000
   -2.919619000000    -7.375408000000    25.433580000000
