&control
 title='crystal',
 prefix='crystal',
 pseudo_dir='.',
 calculation='vc-relax',
/
&system
 ibrav=0,
 celldm(1)=1.0,
 nat=   132,
 ntyp=  4,
 ecutwfc=60.0,
 ecutrho=600.0,
 xdm=.true.,
 xdm_a1=0.4073,
 xdm_a2=2.4150,
/
&electrons
 conv_thr = 1d-8,
/
&ions
/
&cell
/
ATOMIC_SPECIES
h      1.007940 h.UPF
c     12.010700 c.UPF
n     14.006700 n.UPF
o     15.999400 o.UPF

ATOMIC_POSITIONS crystal
n     0.79701942     0.05670805     0.04674473
n     0.20298062     0.94329193     0.95325528
n     0.70298498     0.55670890     0.45325423
n     0.29701506     0.44329108     0.54674578
c     0.86778582     0.01673884     0.14255005
c     0.13221421     0.98326115     0.85744996
c     0.63221765     0.51674130     0.35745459
c     0.36778239     0.48325869     0.64254542
n     0.04224210     0.98109432     0.15277976
n     0.95775793     0.01890566     0.84722025
n     0.45775282     0.48109254     0.34721398
n     0.54224722     0.51890745     0.65278603
h     0.08818885     0.94253903     0.22167646
h     0.91181119     0.05746095     0.77832355
h     0.41181248     0.44254175     0.27832729
h     0.58818756     0.55745824     0.72167272
h     0.10334845     0.96925640     0.08322980
h     0.89665158     0.03074359     0.91677021
h     0.39665080     0.46925700     0.41677260
h     0.60334924     0.53074298     0.58322741
n     0.77135103     0.01045814     0.22896014
n     0.22864901     0.98954184     0.77103986
n     0.72865127     0.51045865     0.27103778
n     0.27134877     0.48954134     0.72896223
c     0.59784277     0.04728903     0.22096233
c     0.40215727     0.95271096     0.77903768
c     0.90215387     0.54728943     0.27903997
c     0.09784617     0.45271055     0.72096004
c     0.51978652     0.09345380     0.12630703
c     0.48021352     0.90654619     0.87369298
c     0.98021881     0.59345342     0.37368936
c     0.01978123     0.40654656     0.62631065
h     0.38023178     0.12415195     0.11880891
h     0.61976826     0.87584804     0.88119110
h     0.11976786     0.62415082     0.38119099
h     0.88023218     0.37584917     0.61880902
c     0.62574458     0.09467359     0.04088636
c     0.37425546     0.90532640     0.95911365
c     0.87424971     0.59467266     0.45911659
c     0.12575032     0.40532733     0.54088342
h     0.57020760     0.12654986     0.96347079
h     0.42979243     0.87345012     0.03652922
h     0.92979440     0.62654907     0.53652895
h     0.07020564     0.37345092     0.46347106
c     0.49098937     0.03273239     0.31467374
c     0.50901066     0.96726760     0.68532627
c     0.00900990     0.53273294     0.18532534
c     0.99099013     0.46726705     0.81467467
h     0.58248096     0.03485410     0.39091311
h     0.41751908     0.96514588     0.60908690
h     0.91751719     0.53485381     0.10908688
h     0.08248285     0.46514618     0.89091313
h     0.42178363     0.95993492     0.30910802
h     0.57821641     0.04006507     0.69089198
h     0.07821628     0.45993542     0.19089177
h     0.92178376     0.54006457     0.80910824
h     0.38204981     0.08885569     0.31489030
h     0.61795023     0.91114429     0.68510971
h     0.11794781     0.58885638     0.18510883
h     0.88205223     0.41114361     0.81489118
c     0.06927801     0.82466666     0.53000347
c     0.93072203     0.17533333     0.46999654
c     0.43071904     0.32466581     0.96999731
c     0.56928100     0.67533418     0.03000270
c     0.23950207     0.77681664     0.56622945
c     0.76049796     0.22318335     0.43377056
c     0.26050279     0.27681728     0.93377163
c     0.73949725     0.72318270     0.06622838
c     0.25795735     0.73414852     0.66913742
c     0.74204269     0.26585146     0.33086259
c     0.24203996     0.23414762     0.83086337
c     0.75796008     0.76585236     0.16913664
h     0.39015720     0.69990161     0.69948376
h     0.60984284     0.30009838     0.30051625
h     0.10984651     0.19990120     0.80051695
h     0.89015353     0.80009879     0.19948306
c     0.11365878     0.73434107     0.73330107
c     0.88634126     0.26565891     0.26669894
c     0.38634866     0.23434256     0.76669879
c     0.61365138     0.76565742     0.23330122
h     0.13432958     0.69963265     0.81237457
h     0.86567046     0.30036733     0.18762543
h     0.36567125     0.19963341     0.68762514
h     0.63432878     0.80036658     0.31237487
c     0.94468727     0.77929990     0.69588413
c     0.05531276     0.22070008     0.30411588
c     0.55530860     0.27930036     0.80411629
c     0.44469144     0.72069962     0.19588371
h     0.82980809     0.77814613     0.74452710
h     0.17019195     0.22185386     0.25547291
h     0.67019353     0.27814833     0.75547176
h     0.32980651     0.72185165     0.24452824
c     0.92530713     0.82531673     0.59581169
c     0.07469291     0.17468325     0.40418832
c     0.57469773     0.32531771     0.90418791
c     0.42530231     0.67468227     0.09581210
h     0.79627532     0.86234468     0.56555677
h     0.20372472     0.13765530     0.43444324
h     0.70372443     0.36234501     0.93444328
h     0.29627561     0.63765497     0.06555673
c     0.03333413     0.87434092     0.42272076
c     0.96666591     0.12565906     0.57727925
c     0.46666692     0.37434067     0.07728053
c     0.53333312     0.62565931     0.92271948
o     0.87650267     0.92554163     0.40992188
o     0.12349737     0.07445836     0.59007812
o     0.62349820     0.42554088     0.09007842
o     0.37650184     0.57445910     0.90992159
h     0.84735789     0.95989574     0.33203363
h     0.15264215     0.04010424     0.66796638
h     0.65264239     0.45989558     0.16796682
h     0.34735764     0.54010440     0.83203319
o     0.13896784     0.86718229     0.35202823
o     0.86103220     0.13281769     0.64797178
o     0.36103512     0.36718199     0.14797072
o     0.63896492     0.63281799     0.85202929
c     0.40136819     0.76887387     0.50191468
c     0.59863185     0.23112611     0.49808533
c     0.09863248     0.26887397     0.99808481
c     0.90136756     0.73112602     0.00191520
h     0.52178483     0.73668574     0.55135925
h     0.47821520     0.26331425     0.44864076
h     0.97821654     0.23668630     0.94864040
h     0.02178350     0.76331369     0.05135961
h     0.44018379     0.84082750     0.47049197
h     0.55981624     0.15917249     0.52950803
h     0.05981783     0.34082793     0.02950744
h     0.94018221     0.65917205     0.97049256
h     0.36855060     0.72074442     0.43143511
h     0.63144943     0.27925557     0.56856490
h     0.13144939     0.22074462     0.06856507
h     0.86855065     0.77925537     0.93143494

K_POINTS automatic
2 2 2 1 1 1

CELL_PARAMETERS cubic
   13.676436000000    -0.000011000000    -0.036222000000
   -0.000028000000    25.445655000000    -0.000022000000
   -2.817015000000    -0.000022000000    23.476734000000
