&control
 title='crystal',
 prefix='crystal',
 pseudo_dir='.',
 calculation='vc-relax',
/
&system
 ibrav=0,
 celldm(1)=1.0,
 nat=    66,
 ntyp=  4,
 ecutwfc=60.0,
 ecutrho=600.0,
 xdm=.true.,
 xdm_a1=0.4073,
 xdm_a2=2.4150,
/
&electrons
 conv_thr = 1d-8,
/
&ions
/
&cell
/
ATOMIC_SPECIES
h      1.007940 h.UPF
c     12.010700 c.UPF
n     14.006700 n.UPF
o     15.999400 o.UPF

ATOMIC_POSITIONS crystal
c     0.15724296     0.48977907     0.21729733
c     0.84275701     0.51022096     0.78270266
n     0.94064205     0.78608857     0.38260494
n     0.05935792     0.21391146     0.61739505
c     0.83618295     0.04117084     0.40781441
c     0.16381702     0.95882919     0.59218558
c     0.93655709     0.01535919     0.27794080
c     0.06344288     0.98464084     0.72205919
c     0.15943477     0.70171663     0.11206671
c     0.84056520     0.29828341     0.88793328
n     0.26911686     0.44160229     0.08030411
n     0.73088311     0.55839774     0.91969588
h     0.66249249     0.27786907     0.54275542
h     0.33750748     0.72213096     0.45724457
h     0.84666053     0.22722068     0.30512726
h     0.15333944     0.77277935     0.69487273
c     0.28785195     0.63788753     0.96213787
c     0.71214803     0.36211250     0.03786212
h     0.40480951     0.42322238     0.98547996
h     0.59519047     0.57677766     0.01452003
h     0.37752301     0.58059954     0.75486670
h     0.62247696     0.41940049     0.24513328
h     0.18768498     0.84993896     0.02253073
h     0.81231499     0.15006107     0.97746926
n     0.26995683     0.22455247     0.18539077
n     0.73004314     0.77544757     0.81460921
h     0.42898389     0.99697765     0.09177416
h     0.57101609     0.00302238     0.90822583
h     0.19238347     0.23510979     0.32512570
h     0.80761650     0.76489024     0.67487429
c     0.36467177     0.99575252     0.53413678
c     0.63532821     0.00424751     0.46586321
c     0.35908019     0.12189092     0.50051708
c     0.64091978     0.87810911     0.49948291
c     0.16790890     0.45621601     0.61368808
c     0.83209107     0.54378403     0.38631191
c     0.97721741     0.66808099     0.76188848
c     0.02278256     0.33191905     0.23811151
c     0.98439009     0.53717616     0.79749263
c     0.01560988     0.46282387     0.20250736
c     0.17581839     0.20379853     0.68617283
c     0.82418158     0.79620151     0.31382716
h     0.51694435     0.73615974     0.43757159
h     0.48305562     0.26384029     0.56242840
h     0.50727229     0.95894918     0.37969705
h     0.49272768     0.04105085     0.62030294
h     0.83703200     0.70223362     0.91164735
h     0.16296798     0.29776641     0.08835264
h     0.17745922     0.11082355     0.71082586
h     0.82254075     0.88917649     0.28917413
c     0.76886777     0.02919315     0.87363664
c     0.23113221     0.97080688     0.12636335
o     0.74293897     0.17064317     0.85941540
o     0.25706100     0.82935686     0.14058459
o     0.60940333     0.19569150     0.98717408
o     0.39059664     0.80430853     0.01282590
h     0.47302649     0.44489017     0.04795484
h     0.52697348     0.55510986     0.95204515
c     0.17875329     0.56685481     0.56791272
c     0.82124668     0.43314522     0.43208727
h     0.07870151     0.68425499     0.75111934
h     0.92129846     0.31574504     0.24888065
h     0.34375508     0.35555960     0.45023207
h     0.65624489     0.64444043     0.54976792
h     0.12033358     0.75063670     0.46803187
h     0.87966639     0.24936333     0.53196812

K_POINTS automatic
2 2 2 1 1 1

CELL_PARAMETERS cubic
   51.684412000000    -0.669817000000    -1.161250000000
   25.606593000000     7.754749000000    -0.900394000000
   17.449760000000    -3.177435000000     9.501273000000
