&control
 title='crystal',
 prefix='crystal',
 pseudo_dir='.',
 calculation='vc-relax',
/
&system
 ibrav=0,
 celldm(1)=1.0,
 nat=    66,
 ntyp=  4,
 ecutwfc=60.0,
 ecutrho=600.0,
 xdm=.true.,
 xdm_a1=0.4073,
 xdm_a2=2.4150,
/
&electrons
 conv_thr = 1d-8,
/
&ions
/
&cell
/
ATOMIC_SPECIES
h      1.007940 h.UPF
c     12.010700 c.UPF
n     14.006700 n.UPF
o     15.999400 o.UPF

ATOMIC_POSITIONS crystal
c     0.97766127     0.38316345     0.16683343
c     0.02233872     0.61683653     0.83316655
n     0.08707503     0.30649634     0.49156649
n     0.91292496     0.69350364     0.50843350
c     0.17371686     0.14812352     0.57446231
c     0.82628313     0.85187646     0.42553768
c     0.15670512     0.06911391     0.35225056
c     0.84329487     0.93088607     0.64774942
c     0.04389620     0.16928285     0.03312535
c     0.95610379     0.83071712     0.96687464
n     0.95527474     0.32515398     0.94208949
n     0.04472525     0.67484599     0.05791049
h     0.26080054     0.08036119     0.83081531
h     0.73919945     0.91963878     0.16918468
h     0.22856285     0.93913009     0.42615420
h     0.77143714     0.06086988     0.57384579
c     0.01723253     0.10739904     0.78168037
c     0.98276746     0.89260094     0.21831961
h     0.99895369     0.92012523     0.61665891
h     0.00104630     0.07987475     0.38334108
h     0.93750731     0.24219682     0.59674168
h     0.06249268     0.75780316     0.40325830
h     0.09552208     0.10607797     0.93754445
h     0.90447791     0.89392201     0.06245553
n     0.88469114     0.52974999     0.05759854
n     0.11530885     0.47024998     0.94240145
h     0.79907856     0.53642075     0.78421070
h     0.20092143     0.46357923     0.21578929
h     0.89549251     0.57176410     0.21134512
h     0.10450748     0.42823588     0.78865487
c     0.68353692     0.10472455     0.76480578
c     0.31646307     0.89527543     0.23519421
c     0.68476380     0.25098528     0.74082496
c     0.31523619     0.74901470     0.25917502
c     0.57841148     0.36281313     0.43710103
c     0.42158851     0.63718685     0.56289896
c     0.46689166     0.32783705     0.15233195
c     0.53310833     0.67216293     0.84766804
c     0.46622698     0.18320205     0.18077973
c     0.53377301     0.81679793     0.81922026
c     0.57356188     0.06960118     0.48220982
c     0.42643811     0.93039880     0.51779016
h     0.76833291     0.01979617     0.00495339
h     0.23166708     0.98020381     0.99504660
h     0.77048894     0.28402515     0.96645995
h     0.22951105     0.71597482     0.03354004
h     0.37934869     0.16175458     0.96052987
h     0.62065130     0.83824540     0.03947012
h     0.57137545     0.95428825     0.49615084
h     0.42862454     0.04571172     0.50384914
c     0.34886709     0.44107609     0.81977423
c     0.65113290     0.55892389     0.18022575
o     0.34007640     0.53056530     0.73352326
o     0.65992359     0.46943468     0.26647673
o     0.25161947     0.43701979     0.61692328
o     0.74838052     0.56298019     0.38307671
h     0.17287451     0.53267382     0.40183385
h     0.82712548     0.46732616     0.59816613
c     0.58863198     0.51810512     0.43623766
c     0.41136801     0.48189486     0.56376232
h     0.68234195     0.53744544     0.70143214
h     0.31765804     0.46255454     0.29856785
h     0.56360781     0.43508219     0.22548076
h     0.43639218     0.56491779     0.77451922
h     0.52685249     0.70457729     0.37785718
h     0.47314750     0.29542269     0.62214281

K_POINTS automatic
2 2 2 1 1 1

CELL_PARAMETERS cubic
   57.651377000000    -0.914808000000    -0.139758000000
   11.373351000000    10.076990000000     0.067623000000
  -17.629425000000    -1.018985000000     6.964522000000
