&control
 title='crystal',
 prefix='crystal',
 pseudo_dir='.',
 calculation='vc-relax',
/
&system
 ibrav=0,
 celldm(1)=1.0,
 nat=   132,
 ntyp=  4,
 ecutwfc=60.0,
 ecutrho=600.0,
 xdm=.true.,
 xdm_a1=0.4073,
 xdm_a2=2.4150,
/
&electrons
 conv_thr = 1d-8,
/
&ions
/
&cell
/
ATOMIC_SPECIES
h      1.007940 h.UPF
c     12.010700 c.UPF
n     14.006700 n.UPF
o     15.999400 o.UPF

ATOMIC_POSITIONS crystal
c     0.32574817     0.47088394     0.68966348
c     0.67425186     0.52911604     0.31033651
c     0.32574816     0.02911604     0.18966349
c     0.67425187     0.97088394     0.81033651
c     0.12449904     0.45467634     0.78193937
c     0.87550099     0.54532364     0.21806062
c     0.12449902     0.04532365     0.28193938
c     0.87550100     0.95467633     0.71806062
h     0.31454925     0.46396062     0.61234076
h     0.68545078     0.53603936     0.38765923
h     0.31454923     0.03603937     0.11234077
h     0.68545080     0.96396061     0.88765922
h     0.43911797     0.41911493     0.69305027
h     0.56088206     0.58088506     0.30694972
h     0.43911796     0.08088506     0.19305028
h     0.56088207     0.91911492     0.80694971
h     0.38073071     0.54612262     0.69355058
h     0.61926932     0.45387736     0.30644941
h     0.38073070     0.95387736     0.19355059
h     0.61926933     0.04612262     0.80644941
n     0.95990935     0.49181523     0.77295395
n     0.04009068     0.50818475     0.22704604
n     0.95990933     0.00818476     0.27295396
n     0.04009069     0.99181522     0.72704603
c     0.10622182     0.40694423     0.87629153
c     0.89377821     0.59305575     0.12370846
c     0.10622181     0.09305576     0.37629154
c     0.89377822     0.90694423     0.62370846
c     0.77634797     0.48448814     0.85834605
c     0.22365206     0.51551184     0.14165394
c     0.77634796     0.01551185     0.35834606
c     0.22365207     0.98448813     0.64165393
c     0.91402261     0.40463429     0.96069149
c     0.08597742     0.59536569     0.03930850
c     0.91402259     0.09536570     0.46069150
c     0.08597744     0.90463428     0.53930849
h     0.23754500     0.37596437     0.88446355
h     0.76245503     0.62403561     0.11553644
h     0.23754498     0.12403561     0.38446356
h     0.76245504     0.87596437     0.61553643
n     0.74958879     0.44302661     0.95400960
n     0.25041124     0.55697337     0.04599039
n     0.74958877     0.05697338     0.45400961
n     0.25041126     0.94302660     0.54599039
n     0.61300036     0.52057773     0.84735005
n     0.38699967     0.47942225     0.15264994
n     0.61300035     0.97942226     0.34735006
n     0.38699968     0.02057772     0.65264993
h     0.89080405     0.37153348     0.03794497
h     0.10919597     0.62846650     0.96205502
h     0.89080404     0.12846651     0.53794498
h     0.10919599     0.87153347     0.46205501
h     0.63679393     0.55973532     0.77858297
h     0.36320610     0.44026467     0.22141702
h     0.63679391     0.94026467     0.27858298
h     0.36320612     0.05973531     0.72141701
h     0.48167417     0.53170990     0.91652592
h     0.51832586     0.46829008     0.08347407
h     0.48167416     0.96829008     0.41652593
h     0.51832587     0.03170990     0.58347406
h     0.98809122     0.54151312     0.66867588
h     0.01190881     0.45848686     0.33132411
h     0.98809121     0.95848687     0.16867589
h     0.01190882     0.04151311     0.83132410
o     0.03643778     0.57445896     0.59013416
o     0.96356225     0.42554102     0.40986583
o     0.03643777     0.92554103     0.09013417
o     0.96356226     0.07445895     0.90986582
c     0.89269582     0.62570541     0.57688532
c     0.10730421     0.37429457     0.42311468
c     0.89269581     0.87429458     0.07688532
c     0.10730422     0.12570540     0.92311467
c     0.96310907     0.67395957     0.46880943
c     0.03689096     0.32604041     0.53119056
c     0.96310906     0.82604042     0.96880944
c     0.03689097     0.17395956     0.03119055
o     0.71730966     0.63410843     0.64786382
o     0.28269037     0.36589155     0.35213617
o     0.71730965     0.86589156     0.14786383
o     0.28269038     0.13410842     0.85213616
c     0.82856260     0.72072291     0.43188821
c     0.17143743     0.27927707     0.56811178
c     0.82856258     0.77927708     0.93188822
c     0.17143745     0.22072290     0.06811177
c     0.17255275     0.67320337     0.40304296
c     0.82744728     0.32679661     0.59695703
c     0.17255274     0.82679662     0.90304297
c     0.82744729     0.17320336     0.09695702
c     0.60257986     0.72839156     0.49601925
c     0.39742016     0.27160842     0.50398074
c     0.60257985     0.77160843     0.99601926
c     0.39742018     0.22839155     0.00398073
c     0.91212882     0.76241063     0.32841979
c     0.08787121     0.23758935     0.67158020
c     0.91212881     0.73758936     0.82841980
c     0.08787122     0.26241062     0.17158019
c     0.25234183     0.71815108     0.30230842
c     0.74765820     0.28184890     0.69769157
c     0.25234181     0.78184891     0.80230843
c     0.74765822     0.21815107     0.19769156
h     0.27176594     0.63697725     0.43381128
h     0.72823409     0.36302273     0.56618871
h     0.27176593     0.86302274     0.93381129
h     0.72823410     0.13697724     0.06618870
h     0.53094939     0.75881947     0.44577890
h     0.46905064     0.24118051     0.55422109
h     0.53094937     0.74118052     0.94577891
h     0.46905065     0.25881946     0.05422108
h     0.56471290     0.77775181     0.56565293
h     0.43528713     0.22224817     0.43434707
h     0.56471288     0.72224818     0.06565293
h     0.43528714     0.27775180     0.93434706
h     0.53327391     0.65675318     0.52889596
h     0.46672612     0.34324680     0.47110403
h     0.53327390     0.84324680     0.02889597
h     0.46672613     0.15675318     0.97110402
c     0.12027675     0.76212323     0.26427948
c     0.87972327     0.23787675     0.73572051
c     0.12027674     0.73787675     0.76427949
c     0.87972329     0.26212323     0.23572050
h     0.81000588     0.79594683     0.29754571
h     0.18999415     0.20405315     0.70245428
h     0.81000587     0.70405316     0.79754572
h     0.18999416     0.29594682     0.20245427
h     0.41560776     0.71912955     0.25359804
h     0.58439227     0.28087043     0.74640195
h     0.41560774     0.78087044     0.75359805
h     0.58439228     0.21912954     0.24640194
h     0.17796078     0.79599969     0.18472271
h     0.82203925     0.20400029     0.81527728
h     0.17796077     0.70400030     0.68472272
h     0.82203926     0.29599968     0.31527727

K_POINTS automatic
2 2 2 1 1 1

CELL_PARAMETERS cubic
   13.663585000000     0.000000000000     0.013711000000
    0.000000000000    25.483448000000     0.000000000000
   10.637345000000     0.000000000000    23.451991000000
