&control
 title='crystal',
 prefix='crystal',
 pseudo_dir='.',
 calculation='vc-relax',
/
&system
 ibrav=0,
 celldm(1)=1.0,
 nat=   132,
 ntyp=  4,
 ecutwfc=60.0,
 ecutrho=600.0,
 xdm=.true.,
 xdm_a1=0.4073,
 xdm_a2=2.4150,
/
&electrons
 conv_thr = 1d-8,
/
&ions
/
&cell
/
ATOMIC_SPECIES
h      1.007940 h.UPF
c     12.010700 c.UPF
n     14.006700 n.UPF
o     15.999400 o.UPF

ATOMIC_POSITIONS crystal
c     0.25062177     0.15926797     0.81875360
c     0.74937823     0.84073207     0.18124640
c     0.25062177     0.34073205     0.31875360
c     0.74937822     0.65926800     0.68124640
c     0.13662498     0.34858836     0.83544686
c     0.86337501     0.65141169     0.16455314
c     0.13662499     0.15141167     0.33544686
c     0.86337501     0.84858839     0.66455314
c     0.08287492     0.51775289     0.80354398
c     0.91712508     0.48224715     0.19645602
c     0.08287492     0.98224713     0.30354398
c     0.91712507     0.01775292     0.69645602
c     0.13980100     0.50770638     0.75705356
c     0.86019900     0.49229367     0.24294644
c     0.13980100     0.99229365     0.25705355
c     0.86019899     0.00770641     0.74294644
c     0.25396910     0.32411377     0.74113439
c     0.74603089     0.67588628     0.25886561
c     0.25396911     0.17588626     0.24113438
c     0.74603089     0.82411380     0.75886561
c     0.30807552     0.15111430     0.77186784
c     0.69192447     0.84888574     0.22813216
c     0.30807553     0.34888572     0.27186783
c     0.69192447     0.65111433     0.72813216
c     0.31319301     0.96767309     0.84985474
c     0.68680698     0.03232695     0.15014526
c     0.31319302     0.53232693     0.34985474
c     0.68680698     0.46767312     0.65014526
c     0.07340585     0.38269527     0.88514400
c     0.92659414     0.61730477     0.11485600
c     0.07340586     0.11730475     0.38514400
c     0.92659414     0.88269531     0.61485600
h     0.45813020     0.66827048     0.85148195
h     0.54186980     0.33172956     0.14851804
h     0.45813021     0.83172954     0.35148195
h     0.54186979     0.16827051     0.64851804
h     0.02608631     0.19786606     0.90062101
h     0.97391369     0.80213399     0.09937899
h     0.02608631     0.30213396     0.40062101
h     0.97391368     0.69786609     0.59937899
h     0.98269265     0.53430658     0.88877582
h     0.01730734     0.46569346     0.11122418
h     0.98269266     0.96569344     0.38877582
h     0.01730734     0.03430661     0.61122418
h     0.16408542     0.44432305     0.90505347
h     0.83591457     0.55567699     0.09494653
h     0.16408543     0.05567697     0.40505347
h     0.83591457     0.94432308     0.59494653
h     0.99503434     0.66427528     0.81573216
h     0.00496565     0.33572476     0.18426784
h     0.99503435     0.83572474     0.31573215
h     0.00496565     0.16427531     0.68426784
h     0.09438376     0.64408597     0.73364670
h     0.90561623     0.35591407     0.26635330
h     0.09438377     0.85591405     0.23364670
h     0.90561622     0.14408600     0.76635330
h     0.30236456     0.31572832     0.70514254
h     0.69763544     0.68427172     0.29485746
h     0.30236457     0.18427170     0.20514254
h     0.69763543     0.81572835     0.79485746
h     0.39699592     0.00667107     0.75989733
h     0.60300407     0.99332898     0.24010266
h     0.39699593     0.49332896     0.25989733
h     0.60300407     0.50667110     0.74010266
o     0.41682806     0.80061484     0.82860834
o     0.58317193     0.19938520     0.17139166
o     0.41682807     0.69938518     0.32860833
o     0.58317193     0.30061487     0.67139166
o     0.27245151     0.96532351     0.89177398
o     0.72754848     0.03467653     0.10822602
o     0.27245152     0.53467651     0.39177398
o     0.72754848     0.46532354     0.60822602
c     0.71459501     0.09541623     0.88282290
c     0.28540498     0.90458381     0.11717710
c     0.71459502     0.40458379     0.38282290
c     0.28540498     0.59541626     0.61717710
c     0.63654488     0.27659482     0.85914281
c     0.36345511     0.72340523     0.14085718
c     0.63654489     0.22340521     0.35914281
c     0.36345511     0.77659485     0.64085718
c     0.51892950     0.45810695     0.92682401
c     0.48107049     0.54189309     0.07317599
c     0.51892951     0.04189307     0.42682400
c     0.48107049     0.95810698     0.57317599
c     0.69086777     0.11272518     0.93070591
c     0.30913222     0.88727486     0.06929409
c     0.69086778     0.38727484     0.43070591
c     0.30913222     0.61272521     0.56929409
c     0.77342705     0.93709188     0.96027621
c     0.22657294     0.06290816     0.03972378
c     0.77342706     0.56290814     0.46027621
c     0.22657294     0.43709192     0.53972378
h     0.85994209     0.05272132     0.97546938
h     0.14005791     0.94727872     0.02453062
h     0.85994209     0.44727870     0.47546937
h     0.14005790     0.55272135     0.52453062
h     0.83289098     0.77361623     0.94078807
h     0.16710901     0.22638382     0.05921193
h     0.83289099     0.72638380     0.44078806
h     0.16710901     0.27361626     0.55921193
h     0.69196383     0.85622623     0.98858575
h     0.30803616     0.14377382     0.01141425
h     0.69196384     0.64377379     0.48858575
h     0.30803616     0.35622626     0.51141425
h     0.36400719     0.76247813     0.92943688
h     0.63599281     0.23752192     0.07056312
h     0.36400719     0.73752190     0.42943688
h     0.63599280     0.26247816     0.57056312
h     0.41222658     0.65397008     0.98360576
h     0.58777341     0.34602996     0.01639424
h     0.41222659     0.84602994     0.48360576
h     0.58777341     0.15397011     0.51639424
h     0.65103489     0.27830978     0.82180413
h     0.34896510     0.72169026     0.17819586
h     0.65103490     0.22169024     0.32180413
h     0.34896510     0.77830981     0.67819586
h     0.79234023     0.94948269     0.86501723
h     0.20765977     0.05051735     0.13498277
h     0.79234024     0.55051733     0.36501722
h     0.20765976     0.44948272     0.63498277
n     0.53967576     0.45767488     0.88010584
n     0.46032423     0.54232516     0.11989416
n     0.53967577     0.04232514     0.38010584
n     0.46032423     0.95767491     0.61989416
n     0.59459890     0.29279841     0.95234531
n     0.40540110     0.70720163     0.04765468
n     0.59459891     0.20720161     0.45234531
n     0.40540109     0.79279844     0.54765468
n     0.41898194     0.63176875     0.94857187
n     0.58101806     0.36823129     0.05142813
n     0.41898195     0.86823127     0.44857187
n     0.58101805     0.13176878     0.55142813

K_POINTS automatic
2 2 2 1 1 1

CELL_PARAMETERS cubic
   16.510280000000     0.000000000000     0.053317000000
    0.000000000000     9.535118000000     0.000000000000
    7.742683000000     0.000000000000    55.220443000000
