&control
 title='crystal',
 prefix='crystal',
 pseudo_dir='.',
 calculation='vc-relax',
/
&system
 ibrav=0,
 celldm(1)=1.0,
 nat=   132,
 ntyp=  4,
 ecutwfc=60.0,
 ecutrho=600.0,
 xdm=.true.,
 xdm_a1=0.4073,
 xdm_a2=2.4150,
/
&electrons
 conv_thr = 1d-8,
/
&ions
/
&cell
/
ATOMIC_SPECIES
h      1.007940 h.UPF
c     12.010700 c.UPF
n     14.006700 n.UPF
o     15.999400 o.UPF

ATOMIC_POSITIONS crystal
c     0.86064262     0.89461561     0.92608880
c     0.13935742     0.10538442     0.07391121
c     0.86064261     0.60538443     0.42608880
c     0.13935743     0.39461560     0.57391121
c     0.83021107     0.01868020     0.99839122
c     0.16978897     0.98131984     0.00160879
c     0.83021106     0.48131984     0.49839122
c     0.16978898     0.51868018     0.50160880
c     0.89187501     0.20483544     0.99404360
c     0.10812502     0.79516459     0.00595641
c     0.89187500     0.29516460     0.49404360
c     0.10812503     0.70483542     0.50595641
c     0.98200730     0.26775818     0.92231441
c     0.01799274     0.73224186     0.07768560
c     0.98200729     0.23224187     0.42231441
c     0.01799275     0.76775816     0.57768560
c     0.01278311     0.14413507     0.85151524
c     0.98721693     0.85586496     0.14848477
c     0.01278310     0.35586497     0.35151524
c     0.98721693     0.64413505     0.64848478
c     0.95139251     0.96034747     0.85373298
c     0.04860752     0.03965257     0.14626703
c     0.95139250     0.53965257     0.35373298
c     0.04860753     0.46034745     0.64626704
c     0.79836507     0.69541394     0.92443962
c     0.20163497     0.30458609     0.07556039
c     0.79836506     0.80458610     0.42443962
c     0.20163498     0.19541392     0.57556039
c     0.73574369     0.96343085     0.07906706
c     0.26425635     0.03656918     0.92093295
c     0.73574368     0.53656919     0.57906706
c     0.26425635     0.46343084     0.42093295
h     0.78169010     0.47056162     0.85076499
h     0.21830994     0.52943841     0.14923502
h     0.78169009     0.02943842     0.35076499
h     0.21830995     0.97056160     0.64923502
h     0.64584439     0.94609725     0.07252683
h     0.35415565     0.05390278     0.92747318
h     0.64584438     0.55390279     0.57252683
h     0.35415566     0.44609724     0.42747319
h     0.73147787     0.08270688     0.12553074
h     0.26852217     0.91729315     0.87446927
h     0.73147786     0.41729316     0.62553074
h     0.26852218     0.58270686     0.37446927
h     0.75679862     0.81666055     0.10259516
h     0.24320142     0.18333948     0.89740485
h     0.75679861     0.68333949     0.60259516
h     0.24320143     0.31666053     0.39740486
h     0.86675166     0.30286704     0.04895339
h     0.13324837     0.69713299     0.95104662
h     0.86675165     0.19713300     0.54895339
h     0.13324838     0.80286703     0.45104662
h     0.02760080     0.41409586     0.92152759
h     0.97239923     0.58590417     0.07847243
h     0.02760079     0.08590418     0.42152759
h     0.97239924     0.91409584     0.57847243
h     0.08292710     0.19022187     0.79462155
h     0.91707293     0.80977816     0.20537846
h     0.08292709     0.30977817     0.29462155
h     0.91707294     0.69022185     0.70537847
h     0.97266291     0.86540537     0.79821856
h     0.02733713     0.13459466     0.20178145
h     0.97266290     0.63459467     0.29821856
h     0.02733713     0.36540535     0.70178145
o     0.82877587     0.60915681     0.84941802
o     0.17122416     0.39084322     0.15058199
o     0.82877586     0.89084323     0.34941802
o     0.17122417     0.10915680     0.65058200
o     0.72530302     0.61662417     0.98683378
o     0.27469702     0.38337586     0.01316623
o     0.72530301     0.88337587     0.48683378
o     0.27469702     0.11662415     0.51316623
c     0.70775064     0.99585719     0.74484002
c     0.29224940     0.00414284     0.25515999
c     0.70775063     0.50414285     0.24484002
c     0.29224941     0.49585717     0.75515999
c     0.75555762     0.17857449     0.76237564
c     0.24444242     0.82142555     0.23762437
c     0.75555761     0.32142556     0.26237564
c     0.24444243     0.67857447     0.73762437
c     0.62849900     0.16962468     0.89799258
c     0.37150104     0.83037535     0.10200743
c     0.62849899     0.33037536     0.39799258
c     0.37150104     0.66962466     0.60200743
c     0.61747854     0.90268400     0.81062521
c     0.38252149     0.09731604     0.18937480
c     0.61747853     0.59731605     0.31062521
c     0.38252150     0.40268398     0.68937481
c     0.55854712     0.70481887     0.80024370
c     0.44145292     0.29518116     0.19975631
c     0.55854711     0.79518117     0.30024370
c     0.44145292     0.20481886     0.69975632
h     0.57493688     0.58693871     0.84161305
h     0.42506315     0.41306132     0.15838696
h     0.57493687     0.91306133     0.34161305
h     0.42506316     0.08693869     0.65838696
h     0.59232447     0.64847720     0.73620600
h     0.40767556     0.35152284     0.26379401
h     0.59232446     0.85152284     0.23620600
h     0.40767557     0.14847718     0.76379402
h     0.46021293     0.72516222     0.81791590
h     0.53978711     0.27483782     0.18208411
h     0.46021292     0.77483782     0.31791590
h     0.53978712     0.22516220     0.68208412
h     0.63060964     0.38863162     0.98321894
h     0.36939040     0.61136841     0.01678107
h     0.63060963     0.11136842     0.48321894
h     0.36939040     0.88863161     0.51678107
h     0.52588993     0.18142552     0.02065550
h     0.47411011     0.81857451     0.97934451
h     0.52588992     0.31857452     0.52065550
h     0.47411012     0.68142551     0.47934452
h     0.82743178     0.25895531     0.71493235
h     0.17256826     0.74104472     0.28506766
h     0.82743177     0.24104473     0.21493235
h     0.17256827     0.75895529     0.78506767
h     0.73902892     0.92835851     0.68305363
h     0.26097112     0.07164152     0.31694638
h     0.73902891     0.57164153     0.18305363
h     0.26097112     0.42835849     0.81694638
n     0.71736324     0.26780205     0.83718452
n     0.28263679     0.73219798     0.16281549
n     0.71736323     0.23219799     0.33718452
n     0.28263680     0.76780204     0.66281550
n     0.57919768     0.98762758     0.88646976
n     0.42080235     0.01237245     0.11353025
n     0.57919767     0.51237246     0.38646976
n     0.42080236     0.48762756     0.61353025
n     0.58687286     0.25973876     0.97253868
n     0.41312717     0.74026127     0.02746133
n     0.58687285     0.24026128     0.47253868
n     0.41312718     0.75973874     0.52746133

K_POINTS automatic
2 2 2 1 1 1

CELL_PARAMETERS cubic
   22.045310000000     0.000000000000    -0.705319000000
    0.000000000000    12.300470000000     0.000000000000
   11.265608000000     0.000000000000    30.000827000000
