&control
 title='crystal',
 prefix='crystal',
 pseudo_dir='.',
 calculation='vc-relax',
/
&system
 ibrav=0,
 celldm(1)=1.0,
 nat=   132,
 ntyp=  4,
 ecutwfc=60.0,
 ecutrho=600.0,
 xdm=.true.,
 xdm_a1=0.4073,
 xdm_a2=2.4150,
/
&electrons
 conv_thr = 1d-8,
/
&ions
/
&cell
/
ATOMIC_SPECIES
h      1.007940 h.UPF
c     12.010700 c.UPF
n     14.006700 n.UPF
o     15.999400 o.UPF

ATOMIC_POSITIONS crystal
n     0.07743576     0.78535241     0.43428042
n     0.92256426     0.21464761     0.56571963
n     0.07743574     0.71464757     0.93428064
n     0.92256428     0.28535244     0.06571941
c     0.01518928     0.86495872     0.38067631
c     0.98481074     0.13504130     0.61932375
c     0.01518926     0.63504126     0.88067652
c     0.98481076     0.36495875     0.11932353
c     0.92402590     0.83788842     0.33190059
c     0.07597412     0.16211160     0.66809947
c     0.92402588     0.66211156     0.83190081
c     0.07597414     0.33788845     0.16809925
c     0.89974162     0.72101274     0.33842879
c     0.10025840     0.27898728     0.66157127
c     0.89974161     0.77898725     0.83842901
c     0.10025841     0.22101277     0.16157104
n     0.96115026     0.63947965     0.39068796
n     0.03884976     0.36052036     0.60931210
n     0.96115024     0.86052033     0.89068818
n     0.03884978     0.13947968     0.10931187
c     0.04859841     0.67356717     0.43849817
c     0.95140161     0.32643285     0.56150189
c     0.04859839     0.82643281     0.93849839
c     0.95140163     0.17356720     0.06150166
h     0.87473206     0.90421911     0.28816291
h     0.12526796     0.09578091     0.71183715
h     0.87473204     0.59578088     0.78816313
h     0.12526797     0.40421914     0.21183693
n     0.11045537     0.59298357     0.49332059
n     0.88954465     0.40701645     0.50667947
n     0.11045535     0.90701642     0.99332080
n     0.88954467     0.09298360     0.00667925
h     0.08720893     0.51195794     0.52675935
h     0.91279108     0.48804208     0.47324071
h     0.08720892     0.98804205     0.02675957
h     0.91279110     0.01195797     0.97324048
h     0.17581051     0.62035814     0.53420585
h     0.82418951     0.37964188     0.46579420
h     0.17581050     0.87964184     0.03420607
h     0.82418952     0.12035817     0.96579398
c     0.80381004     0.68077432     0.28767990
c     0.19618998     0.31922570     0.71232016
c     0.80381002     0.81922566     0.78768012
c     0.19619000     0.18077435     0.21231993
h     0.77385463     0.63784005     0.40646645
h     0.22614539     0.36215996     0.59353360
h     0.77385461     0.86215993     0.90646667
h     0.22614541     0.13784008     0.09353338
h     0.75876360     0.75244344     0.24426443
h     0.24123641     0.24755658     0.75573563
h     0.75876359     0.74755654     0.74426465
h     0.24123643     0.25244347     0.25573541
h     0.80460930     0.61698744     0.17512661
h     0.19539072     0.38301258     0.82487345
h     0.80460928     0.88301254     0.67512682
h     0.19539074     0.11698747     0.32487323
h     0.04032424     0.95362287     0.37521460
h     0.95967578     0.04637715     0.62478546
h     0.04032423     0.54637712     0.87521481
h     0.95967579     0.45362290     0.12478524
o     0.29223973     0.69109836     0.57363743
o     0.70776028     0.30890166     0.42636263
o     0.29223972     0.80890162     0.07363765
o     0.70776030     0.19109839     0.92636240
c     0.30530513     0.79666988     0.57579776
c     0.69469489     0.20333014     0.42420230
c     0.30530512     0.70333011     0.07579798
c     0.69469490     0.29666991     0.92420207
o     0.23923863     0.87337242     0.53610874
o     0.76076139     0.12662760     0.46389132
o     0.23923861     0.62662756     0.03610896
o     0.76076141     0.37337245     0.96389109
h     0.17741154     0.83113619     0.49864403
h     0.82258848     0.16886383     0.50135602
h     0.17741153     0.66886380     0.99864425
h     0.82258849     0.33113622     0.00135580
c     0.39849760     0.84678036     0.61962870
c     0.60150242     0.15321966     0.38037136
c     0.39849759     0.65321963     0.11962892
c     0.60150243     0.34678039     0.88037113
c     0.47380612     0.78388488     0.55850942
c     0.52619389     0.21611513     0.44149064
c     0.47380611     0.71611510     0.05850964
c     0.52619391     0.28388491     0.94149041
c     0.56353691     0.82353917     0.59039392
c     0.43646310     0.17646085     0.40960614
c     0.56353690     0.67646081     0.09039414
c     0.43646312     0.32353920     0.90960591
c     0.57893376     0.92602086     0.68855180
c     0.42106626     0.07397916     0.31144826
c     0.57893374     0.57397913     0.18855202
c     0.42106628     0.42602089     0.81144804
c     0.50445325     0.98755686     0.75231044
c     0.49554676     0.01244316     0.24768962
c     0.50445324     0.51244312     0.25231066
c     0.49554678     0.48755689     0.74768939
c     0.41322056     0.95114133     0.71741050
c     0.58677945     0.04885869     0.28258956
c     0.41322055     0.54885865     0.21741072
c     0.58677947     0.45114136     0.78258933
h     0.46024011     0.70498743     0.48026977
h     0.53975990     0.29501259     0.51973029
h     0.46024010     0.79501255     0.98026999
h     0.53975992     0.20498746     0.01973006
h     0.62067772     0.77555613     0.53556844
h     0.37932229     0.22444389     0.46443162
h     0.62067771     0.72444386     0.03556865
h     0.37932231     0.27555616     0.96443140
h     0.64814291     0.96089117     0.71256878
h     0.35185711     0.03910885     0.28743128
h     0.64814290     0.53910882     0.21256899
h     0.35185712     0.46089120     0.78743106
h     0.51746308     0.06767807     0.82751341
h     0.48253693     0.93232195     0.17248665
h     0.51746307     0.43232192     0.32751363
h     0.48253695     0.56767810     0.67248642
c     0.33661959     0.02470481     0.78563887
c     0.66338043     0.97529521     0.21436119
c     0.33661957     0.47529517     0.28563909
c     0.66338045     0.52470484     0.71436097
h     0.36489748     0.08663911     0.88804674
h     0.63510253     0.91336091     0.11195331
h     0.36489747     0.41336088     0.38804696
h     0.63510255     0.58663913     0.61195309
h     0.30300634     0.07266088     0.66962648
h     0.69699367     0.92733914     0.33037358
h     0.30300633     0.42733910     0.16962670
h     0.69699369     0.57266091     0.83037336
h     0.28343745     0.97287571     0.84862015
h     0.71656256     0.02712431     0.15137990
h     0.28343744     0.52712428     0.34862037
h     0.71656258     0.47287574     0.65137968

K_POINTS automatic
2 2 2 1 1 1

CELL_PARAMETERS cubic
   27.407226000000     0.000000000000    -0.068399000000
    0.000000000000    21.887279000000    -0.000002000000
   -0.624951000000    -0.000001000000    13.603198000000
