&control
 title='crystal',
 prefix='crystal',
 pseudo_dir='.',
 calculation='vc-relax',
/
&system
 ibrav=0,
 celldm(1)=1.0,
 nat=   132,
 ntyp=  4,
 ecutwfc=60.0,
 ecutrho=600.0,
 xdm=.true.,
 xdm_a1=0.4073,
 xdm_a2=2.4150,
/
&electrons
 conv_thr = 1d-8,
/
&ions
/
&cell
/
ATOMIC_SPECIES
h      1.007940 h.UPF
c     12.010700 c.UPF
n     14.006700 n.UPF
o     15.999400 o.UPF

ATOMIC_POSITIONS crystal
c     0.72487676     0.63442677     0.87280672
c     0.27512322     0.36557321     0.12719329
c     0.72487676     0.86557320     0.37280672
c     0.27512322     0.13442677     0.62719329
c     0.62400987     0.60320979     0.87885793
c     0.37599012     0.39679020     0.12114208
c     0.62400987     0.89679019     0.37885793
c     0.37599012     0.10320979     0.62114208
c     0.57709783     0.42292712     0.92765799
c     0.42290216     0.57707287     0.07234202
c     0.57709783     0.07707286     0.42765799
c     0.42290216     0.92292712     0.57234202
c     0.63162053     0.26830666     0.97167476
c     0.36837945     0.73169333     0.02832526
c     0.63162053     0.23169332     0.47167476
c     0.36837945     0.76830666     0.52832526
c     0.73163187     0.29761636     0.96604739
c     0.26836812     0.70238362     0.03395262
c     0.73163187     0.20238361     0.46604739
c     0.26836812     0.79761636     0.53395263
c     0.78096061     0.47869415     0.91733155
c     0.21903937     0.52130583     0.08266846
c     0.78096061     0.02130582     0.41733155
c     0.21903937     0.97869415     0.58266846
c     0.88912637     0.49129404     0.91586429
c     0.11087362     0.50870594     0.08413573
c     0.88912637     0.00870593     0.41586428
c     0.11087362     0.99129404     0.58413573
c     0.76877781     0.83735746     0.81957739
c     0.23122218     0.16264253     0.18042263
c     0.76877781     0.66264252     0.31957738
c     0.23122218     0.33735746     0.68042263
o     0.70550371     0.97240809     0.78389566
o     0.29449627     0.02759190     0.21610435
o     0.70550372     0.52759189     0.28389566
o     0.29449627     0.47240809     0.71610436
o     0.85708197     0.87811642     0.80965078
o     0.14291802     0.12188357     0.19034923
o     0.85708197     0.62188356     0.30965078
o     0.14291802     0.37811642     0.69034923
c     0.60172170     0.43288681     0.68337221
c     0.39827828     0.56711318     0.31662780
c     0.60172170     0.06711316     0.18337221
c     0.39827828     0.93288681     0.81662781
c     0.70474087     0.49786576     0.66004954
c     0.29525912     0.50213423     0.33995047
c     0.70474087     0.00213421     0.16004954
c     0.29525912     0.99786576     0.83995048
n     0.77239798     0.35603006     0.69256159
n     0.22760201     0.64396993     0.30743842
n     0.77239798     0.14396991     0.19256159
n     0.22760201     0.85603006     0.80743842
c     0.73107431     0.69256185     0.60743072
c     0.26892568     0.30743814     0.39256929
c     0.73107431     0.80743813     0.10743072
c     0.26892568     0.19256185     0.89256929
c     0.86706467     0.40650333     0.67249656
c     0.13293532     0.59349666     0.32750345
c     0.86706467     0.09349664     0.17249656
c     0.13293532     0.90650333     0.82750345
c     0.82986772     0.72561683     0.58975069
c     0.17013227     0.27438315     0.41024933
c     0.82986772     0.77438314     0.08975068
c     0.17013227     0.22561683     0.91024933
n     0.93340308     0.27078579     0.70653547
n     0.06659691     0.72921420     0.29346454
n     0.93340308     0.22921419     0.20653547
n     0.06659691     0.77078579     0.79346454
n     0.89817744     0.58522834     0.62044380
n     0.10182255     0.41477165     0.37955622
n     0.89817744     0.91477163     0.12044379
n     0.10182255     0.08522834     0.87955622
h     0.58264630     0.72739836     0.84454735
h     0.41735369     0.27260163     0.15545266
h     0.58264630     0.77260162     0.34454735
h     0.41735369     0.22739836     0.65545266
h     0.49870462     0.40513193     0.93178999
h     0.50129536     0.59486805     0.06821002
h     0.49870462     0.09486804     0.43178999
h     0.50129536     0.90513193     0.56821003
h     0.59658442     0.12417484     0.01023986
h     0.40341557     0.87582515     0.98976016
h     0.59658442     0.37582514     0.51023985
h     0.40341557     0.62417484     0.48976016
h     0.77362636     0.17439454     0.00037113
h     0.22637363     0.82560545     0.99962888
h     0.77362636     0.32560543     0.50037113
h     0.22637363     0.67439454     0.49962888
h     0.91411501     0.35345371     0.95617810
h     0.08588497     0.64654628     0.04382192
h     0.91411501     0.14654627     0.45617810
h     0.08588497     0.85345371     0.54382192
h     0.92362664     0.39663626     0.87004161
h     0.07637335     0.60336373     0.12995840
h     0.92362664     0.10336372     0.37004161
h     0.07637335     0.89663626     0.62995840
h     0.91630728     0.72652339     0.91985584
h     0.08369271     0.27347660     0.08014417
h     0.91630728     0.77347659     0.41985584
h     0.08369271     0.22652339     0.58014417
h     0.73899479     0.12412619     0.74798199
h     0.26100520     0.87587380     0.25201802
h     0.73899479     0.37587379     0.24798199
h     0.26100520     0.62412619     0.75201802
h     0.55152388     0.55267327     0.65353679
h     0.44847610     0.44732672     0.34646322
h     0.55152388     0.94732671     0.15353679
h     0.44847610     0.05267327     0.84646322
h     0.58775822     0.18497352     0.68149223
h     0.41224177     0.81502646     0.31850778
h     0.58775822     0.31502645     0.18149223
h     0.41224177     0.68497352     0.81850779
h     0.58748155     0.50324981     0.73494963
h     0.41251843     0.49675018     0.26505038
h     0.58748155     0.99675017     0.23494963
h     0.41251843     0.00324981     0.76505038
h     0.67794561     0.81115587     0.58047933
h     0.32205437     0.18884412     0.41952068
h     0.67794561     0.68884411     0.08047933
h     0.32205437     0.31115587     0.91952068
h     0.85502614     0.87165756     0.54833910
h     0.14497384     0.12834243     0.45166091
h     0.85502614     0.62834242     0.04833910
h     0.14497384     0.37165756     0.95166092
h     0.91112852     0.12622763     0.74443964
h     0.08887146     0.87377236     0.25556038
h     0.91112852     0.37377235     0.24443963
h     0.08887146     0.62622763     0.75556038
h     0.00465063     0.29163138     0.69129391
h     0.99534936     0.70836860     0.30870611
h     0.00465063     0.20836859     0.19129390
h     0.99534936     0.79163138     0.80870611

K_POINTS automatic
2 2 2 1 1 1

CELL_PARAMETERS cubic
   26.247065000000     0.000000000000    -0.397867000000
    0.000000000000     8.228183000000     0.000000000000
    3.714909000000     0.000000000000    38.336298000000
