&control
 title='crystal',
 prefix='crystal',
 pseudo_dir='.',
 calculation='vc-relax',
/
&system
 ibrav=0,
 celldm(1)=1.0,
 nat=    66,
 ntyp=  4,
 ecutwfc=60.0,
 ecutrho=600.0,
 xdm=.true.,
 xdm_a1=0.4073,
 xdm_a2=2.4150,
/
&electrons
 conv_thr = 1d-8,
/
&ions
/
&cell
/
ATOMIC_SPECIES
h      1.007940 h.UPF
c     12.010700 c.UPF
n     14.006700 n.UPF
o     15.999400 o.UPF

ATOMIC_POSITIONS crystal
n     0.25385726     0.19094409     0.50553049
n     0.74614272     0.80905586     0.49446953
c     0.37878123     0.18597395     0.42799565
c     0.62121875     0.81402600     0.57200437
c     0.41481721     0.29915161     0.34775807
c     0.58518277     0.70084835     0.65224195
c     0.31443118     0.42299089     0.35115530
c     0.68556881     0.57700906     0.64884472
n     0.18606032     0.42781342     0.42663975
n     0.81393966     0.57218653     0.57336027
c     0.15920469     0.31290701     0.50264482
c     0.84079530     0.68709294     0.49735520
h     0.51968971     0.29482147     0.28706203
h     0.48031027     0.70517849     0.71293798
n     0.03424656     0.32041987     0.57977268
n     0.96575343     0.67958009     0.42022734
h     0.95835186     0.40934741     0.57797793
h     0.04164813     0.59065254     0.42202209
h     0.03581580     0.25517774     0.64615614
h     0.96418418     0.74482222     0.35384388
c     0.34589771     0.55627051     0.27092767
c     0.65410227     0.44372944     0.72907234
h     0.35669958     0.69809451     0.31398808
h     0.64330040     0.30190544     0.68601193
h     0.48309622     0.57485770     0.23054896
h     0.51690377     0.42514226     0.76945106
h     0.21568160     0.49635840     0.20595284
h     0.78431838     0.50364156     0.79404718
h     0.45472211     0.08879975     0.43122634
h     0.54527787     0.91120021     0.56877368
o     0.11296081     0.16694335     0.76701843
o     0.88703917     0.83305661     0.23298159
c     0.18504350     0.04367498     0.75297098
c     0.81495649     0.95632498     0.24702904
o     0.24833229     0.98975119     0.65744646
o     0.75166769     0.01024877     0.34255355
h     0.23721122     0.07153556     0.59727785
h     0.76278876     0.92846439     0.40272217
c     0.20578899     0.94041075     0.84237158
c     0.79421099     0.05958921     0.15762844
c     0.18110898     0.74744304     0.81000470
c     0.81889100     0.25255691     0.18999532
c     0.18920076     0.63978696     0.88929298
c     0.81079923     0.36021299     0.11070704
c     0.22648247     0.72782369     0.00258347
c     0.77351752     0.27217626     0.99741654
c     0.25592219     0.92051227     0.03513471
c     0.74407779     0.07948769     0.96486530
c     0.24550913     0.03070352     0.95681794
c     0.75449085     0.96929643     0.04318208
h     0.15140155     0.68200829     0.72120001
h     0.84859844     0.31799166     0.27880001
h     0.16639129     0.48917579     0.86295198
h     0.83360869     0.51082416     0.13704803
h     0.23332792     0.64603730     0.06583776
h     0.76667206     0.35396266     0.93416226
h     0.28713289     0.98819203     0.12377513
h     0.71286710     0.01180792     0.87622489
c     0.28332697     0.23894439     0.99780857
c     0.71667301     0.76105556     0.00219145
h     0.35536497     0.28698539     0.08430097
h     0.64463501     0.71301456     0.91569905
h     0.38198350     0.33281778     0.94690812
h     0.61801648     0.66718218     0.05309190
h     0.14170106     0.25945830     0.99480767
h     0.85829892     0.74054166     0.00519235

K_POINTS automatic
2 2 2 1 1 1

CELL_PARAMETERS cubic
   13.665964000000     0.022559000000    -0.079464000000
   -5.705677000000    13.340798000000     0.197705000000
   -0.698143000000    -4.984468000000    22.500565000000
