&control
 title='crystal',
 prefix='crystal',
 pseudo_dir='.',
 calculation='vc-relax',
/
&system
 ibrav=0,
 celldm(1)=1.0,
 nat=   132,
 ntyp=  4,
 ecutwfc=60.0,
 ecutrho=600.0,
 xdm=.true.,
 xdm_a1=0.4073,
 xdm_a2=2.4150,
/
&electrons
 conv_thr = 1d-8,
/
&ions
/
&cell
/
ATOMIC_SPECIES
h      1.007940 h.UPF
c     12.010700 c.UPF
n     14.006700 n.UPF
o     15.999400 o.UPF

ATOMIC_POSITIONS crystal
o     0.10981710     0.59079532     0.18395486
o     0.89018289     0.40920465     0.81604515
o     0.10981711     0.90920464     0.68395486
o     0.89018289     0.09079533     0.31604514
o     0.30105781     0.55081136     0.18824572
o     0.69894218     0.44918861     0.81175428
o     0.30105781     0.94918860     0.68824573
o     0.69894218     0.05081138     0.31175427
c     0.22418414     0.21771042     0.02539776
c     0.77581585     0.78228955     0.97460224
c     0.22418414     0.28228954     0.52539777
c     0.77581585     0.71771043     0.47460223
c     0.20368306     0.85479163     0.11704605
c     0.79631693     0.14520834     0.88295395
c     0.20368306     0.64520833     0.61704605
c     0.79631693     0.35479165     0.38295395
c     0.11787838     0.16706159     0.04191401
c     0.88212161     0.83293838     0.95808600
c     0.11787838     0.33293837     0.54191401
c     0.88212161     0.66706161     0.45808599
c     0.32174503     0.08610950     0.05472329
c     0.67825497     0.91389047     0.94527671
c     0.32174503     0.41389046     0.55472329
c     0.67825496     0.58610952     0.44527671
c     0.31079206     0.90824140     0.10011826
c     0.68920793     0.09175857     0.89988174
c     0.31079207     0.59175856     0.60011826
c     0.68920793     0.40824141     0.39988174
c     0.10399683     0.98571920     0.08728562
c     0.89600316     0.01428077     0.91271439
c     0.10399683     0.51428076     0.58728562
c     0.89600316     0.48571922     0.41271438
c     0.19980334     0.65554725     0.16581285
c     0.80019665     0.34445273     0.83418715
c     0.19980335     0.84445272     0.66581286
c     0.80019665     0.15554726     0.33418714
c     0.98458212     0.94685018     0.10067752
c     0.01541787     0.05314979     0.89932249
c     0.98458212     0.55314978     0.60067752
c     0.01541787     0.44685019     0.39932248
n     0.69297575     0.69823014     0.22697785
n     0.30702424     0.30176983     0.77302215
n     0.69297575     0.80176982     0.72697785
n     0.30702424     0.19823015     0.27302215
n     0.76777343     0.45042736     0.15347409
n     0.23222656     0.54957261     0.84652592
n     0.76777343     0.04957260     0.65347409
n     0.23222656     0.95042737     0.34652591
n     0.88628160     0.70857890     0.22049539
n     0.11371839     0.29142107     0.77950462
n     0.88628160     0.79142106     0.72049539
n     0.11371839     0.20857892     0.27950461
c     0.56730619     0.41854730     0.16048374
c     0.43269380     0.58145267     0.83951626
c     0.56730619     0.08145266     0.66048375
c     0.43269380     0.91854731     0.33951625
c     0.78087452     0.61708553     0.19979307
c     0.21912547     0.38291444     0.80020693
c     0.78087452     0.88291443     0.69979307
c     0.21912547     0.11708555     0.30020693
c     0.66240948     0.35267897     0.13432474
c     0.33759051     0.64732101     0.86567526
c     0.66240948     0.14732099     0.63432475
c     0.33759051     0.85267898     0.36567525
c     0.58822737     0.59724415     0.20676349
c     0.41177263     0.40275582     0.79323651
c     0.58822737     0.90275581     0.70676349
c     0.41177262     0.09724416     0.29323651
c     0.64893859     0.17411370     0.08268593
c     0.35106140     0.82588627     0.91731407
c     0.64893859     0.32588626     0.58268593
c     0.35106140     0.67411371     0.41731407
h     0.38624969     0.80600655     0.12343030
h     0.61375031     0.19399342     0.87656970
h     0.38624969     0.69399341     0.62343031
h     0.61375030     0.30600656     0.37656969
h     0.23058749     0.36249694     0.99009248
h     0.76941250     0.63750304     0.00990752
h     0.23058749     0.13750302     0.49009249
h     0.76941250     0.86249695     0.50990751
h     0.29481283     0.40645497     0.22275283
h     0.70518717     0.59354500     0.77724717
h     0.29481283     0.09354499     0.72275283
h     0.70518716     0.90645499     0.27724717
h     0.04169784     0.27092656     0.01909362
h     0.95830215     0.72907342     0.98090638
h     0.04169784     0.22907340     0.51909363
h     0.95830215     0.77092657     0.48090637
h     0.40586891     0.12385615     0.04254787
h     0.59413108     0.87614383     0.95745214
h     0.40586891     0.37614381     0.54254787
h     0.59413108     0.62385616     0.45745213
h     0.96032850     0.68414698     0.10502805
h     0.03967149     0.31585299     0.89497196
h     0.96032850     0.81585298     0.60502805
h     0.03967149     0.18414699     0.39497195
h     0.92413519     0.06106436     0.06977600
h     0.07586481     0.93893562     0.93022400
h     0.92413519     0.43893560     0.56977601
h     0.07586480     0.56106437     0.43022399
h     0.97339836     0.07375378     0.13739423
h     0.02660163     0.92624620     0.86260577
h     0.97339836     0.42624618     0.63739423
h     0.02660163     0.57375379     0.36260577
h     0.48128597     0.33839734     0.14532911
h     0.51871402     0.66160263     0.85467089
h     0.48128597     0.16160262     0.64532911
h     0.51871402     0.83839736     0.35467089
h     0.51846627     0.66503179     0.22863353
h     0.48153372     0.33496819     0.77136647
h     0.51846627     0.83496817     0.72863354
h     0.48153372     0.16503180     0.27136646
h     0.73254546     0.10268261     0.07232237
h     0.26745454     0.89731737     0.92767764
h     0.73254546     0.39731735     0.57232237
h     0.26745453     0.60268262     0.42767763
h     0.60646860     0.33715483     0.05159431
h     0.39353139     0.66284515     0.94840569
h     0.60646860     0.16284513     0.55159432
h     0.39353139     0.83715484     0.44840568
h     0.59563469     0.94980428     0.08401421
h     0.40436530     0.05019570     0.91598579
h     0.59563469     0.55019568     0.58401421
h     0.40436530     0.44980429     0.41598579
h     0.89596450     0.84188404     0.25478797
h     0.10403550     0.15811594     0.74521203
h     0.89596450     0.65811592     0.75478797
h     0.10403549     0.34188405     0.24521203
h     0.95366101     0.67316097     0.20012249
h     0.04633898     0.32683900     0.79987751
h     0.95366101     0.82683899     0.70012250
h     0.04633898     0.17316098     0.29987750

K_POINTS automatic
2 2 2 1 1 1

CELL_PARAMETERS cubic
   22.267766000000     0.000000000000     0.012809000000
    0.000000000000     7.538003000000     0.000000000000
   -6.405223000000     0.000000000000    48.254171000000
