&control
 title='crystal',
 prefix='crystal',
 pseudo_dir='.',
 calculation='vc-relax',
/
&system
 ibrav=0,
 celldm(1)=1.0,
 nat=   132,
 ntyp=  4,
 ecutwfc=60.0,
 ecutrho=600.0,
 xdm=.true.,
 xdm_a1=0.4073,
 xdm_a2=2.4150,
/
&electrons
 conv_thr = 1d-8,
/
&ions
/
&cell
/
ATOMIC_SPECIES
h      1.007940 h.UPF
c     12.010700 c.UPF
n     14.006700 n.UPF
o     15.999400 o.UPF

ATOMIC_POSITIONS crystal
o     0.07385131     0.86734870     0.58764706
o     0.92614871     0.13265134     0.41235296
o     0.92614888     0.36735065     0.91235017
o     0.07385114     0.63264939     0.08764984
o     0.01403592     0.82850602     0.39703430
o     0.98596410     0.17149402     0.60296572
o     0.98596411     0.32850767     0.10296541
o     0.01403591     0.67149238     0.89703460
c     0.17399736     0.23163495     0.47533932
c     0.82600266     0.76836509     0.52466069
c     0.82600234     0.73163082     0.02466062
c     0.17399768     0.26836923     0.97533940
c     0.10558237     0.58735723     0.49321718
c     0.89441764     0.41264281     0.50678283
c     0.89441893     0.08735842     0.00678262
c     0.10558109     0.91264162     0.99321740
c     0.19338322     0.32721866     0.58044100
c     0.80661679     0.67278138     0.41955902
c     0.80661708     0.82722244     0.91955823
c     0.19338294     0.17277760     0.08044178
c     0.12082066     0.31399155     0.37752120
c     0.87917936     0.68600849     0.62247881
c     0.87918026     0.81399656     0.12247924
c     0.12081975     0.18600348     0.87752078
c     0.08706445     0.49045688     0.38703134
c     0.91293557     0.50954317     0.61296867
c     0.91293406     0.99045307     0.11296863
c     0.08706595     0.00954697     0.88703138
c     0.16074652     0.50547876     0.59266580
c     0.83925349     0.49452128     0.40733421
c     0.83925268     0.00547599     0.90733419
c     0.16074733     0.99452406     0.09266583
c     0.06390991     0.77205520     0.49762629
c     0.93609010     0.22794484     0.50237372
c     0.93608964     0.27205221     0.00237694
c     0.06391037     0.72794783     0.99762308
c     0.18674975     0.59730398     0.70952662
c     0.81325027     0.40269607     0.29047339
c     0.81325049     0.09730518     0.79047378
c     0.18674952     0.90269486     0.20952623
n     0.45310028     0.27372450     0.09588634
n     0.54689974     0.72627555     0.90411367
n     0.54689770     0.77372655     0.40410914
n     0.45310232     0.22627350     0.59589087
n     0.41786913     0.95286303     0.11643636
n     0.58213089     0.04713702     0.88356365
n     0.58212768     0.45286902     0.38355773
n     0.41787234     0.54713103     0.61644228
n     0.50742200     0.11468315     0.26700063
n     0.49257802     0.88531690     0.73299938
n     0.49257693     0.61469091     0.23299817
n     0.50742308     0.38530914     0.76700184
c     0.37114865     0.10318414     0.93288294
c     0.62885137     0.89681590     0.06711707
c     0.62884730     0.60319639     0.56711000
c     0.37115271     0.39680366     0.43289001
c     0.45852475     0.11386644     0.15793632
c     0.54147527     0.88613361     0.84206369
c     0.54147782     0.61385804     0.34206727
c     0.45852219     0.38614200     0.65793275
c     0.37497756     0.94773529     0.00485609
c     0.62502246     0.05226476     0.99514392
c     0.62502497     0.44773254     0.49514959
c     0.37497505     0.55226750     0.50485042
c     0.41015311     0.26391047     0.98449591
c     0.58984691     0.73608958     0.01550410
c     0.58985111     0.76389664     0.51551021
c     0.41014891     0.23610340     0.48448980
c     0.33115967     0.76947445     0.95950062
c     0.66884035     0.23052559     0.04049940
c     0.66884013     0.26947506     0.54049922
c     0.33115988     0.73052499     0.45950080
h     0.04500603     0.55555251     0.31166702
h     0.95499398     0.44444754     0.68833299
h     0.95499436     0.05555318     0.18833359
h     0.04500566     0.94444686     0.81166643
h     0.20087842     0.09310375     0.47000919
h     0.79912160     0.90689629     0.52999082
h     0.79912160     0.59310587     0.02999078
h     0.20087842     0.40689417     0.97000923
h     0.98159699     0.94958278     0.40842799
h     0.01840303     0.05041726     0.59157203
h     0.01840240     0.44958227     0.09157239
h     0.98159762     0.55041778     0.90842762
h     0.23555147     0.26253628     0.65630472
h     0.76444855     0.73746376     0.34369530
h     0.76444840     0.76253614     0.84369496
h     0.23555162     0.23746391     0.15630505
h     0.10470586     0.24166065     0.29459656
h     0.89529416     0.75833940     0.70540345
h     0.89529393     0.74166021     0.20540410
h     0.10470609     0.25833984     0.79459591
h     0.12787620     0.62676022     0.74781825
h     0.87212381     0.37323983     0.25218176
h     0.87212364     0.12676056     0.75218154
h     0.12787638     0.87323949     0.24781848
h     0.23337858     0.50795646     0.76894562
h     0.76662144     0.49204358     0.23105439
h     0.76662114     0.00795669     0.73105429
h     0.23337887     0.99204335     0.26894572
h     0.22006022     0.73028618     0.70330851
h     0.77993980     0.26971387     0.29669150
h     0.77993998     0.23028654     0.79669220
h     0.22006003     0.76971351     0.20330781
h     0.33818215     0.09858800     0.84149300
h     0.66181787     0.90141204     0.15850701
h     0.66181911     0.59858811     0.65850966
h     0.33818091     0.40141194     0.34149036
h     0.40771919     0.39146686     0.93453831
h     0.59228083     0.60853318     0.06546171
h     0.59228062     0.89147054     0.56546179
h     0.40771940     0.10852951     0.43453822
h     0.33721533     0.66687367     0.02920616
h     0.66278469     0.33312638     0.97079386
h     0.66278485     0.16687308     0.47079406
h     0.33721516     0.83312697     0.52920595
h     0.25953245     0.79163726     0.92199483
h     0.74046756     0.20836279     0.07800518
h     0.74046779     0.29163732     0.57800549
h     0.25953223     0.70836272     0.42199453
h     0.36284335     0.71495425     0.89012811
h     0.63715667     0.28504579     0.10987190
h     0.63715675     0.21495473     0.60987210
h     0.36284326     0.78504531     0.39012791
h     0.53761745     0.23529269     0.30272413
h     0.46238257     0.76470735     0.69727588
h     0.46238275     0.73528878     0.19727663
h     0.53761726     0.26471126     0.80272338
h     0.51608478     0.99465572     0.31558186
h     0.48391524     0.00534432     0.68441816
h     0.48391490     0.49465220     0.18441737
h     0.51608511     0.50534784     0.81558265

K_POINTS automatic
2 2 2 1 1 1

CELL_PARAMETERS cubic
   28.606948000000     0.000028000000     0.470911000000
    0.000018000000    13.675729000000     0.000014000000
   -4.873673000000     0.000028000000    21.607604000000
