&control
 title='crystal',
 prefix='crystal',
 pseudo_dir='.',
 calculation='vc-relax',
/
&system
 ibrav=0,
 celldm(1)=1.0,
 nat=    66,
 ntyp=  4,
 ecutwfc=60.0,
 ecutrho=600.0,
 xdm=.true.,
 xdm_a1=0.4073,
 xdm_a2=2.4150,
/
&electrons
 conv_thr = 1d-8,
/
&ions
/
&cell
/
ATOMIC_SPECIES
h      1.007940 h.UPF
c     12.010700 c.UPF
n     14.006700 n.UPF
o     15.999400 o.UPF

ATOMIC_POSITIONS crystal
c     0.10810411     0.74996911     0.41985028
c     0.89189591     0.25003091     0.58014971
c     0.04221262     0.77258743     0.53008198
c     0.95778739     0.22741259     0.46991801
c     0.86272531     0.69560158     0.53555990
c     0.13727471     0.30439844     0.46444010
c     0.74696716     0.59804414     0.43487964
c     0.25303285     0.40195588     0.56512036
c     0.81030288     0.57593568     0.32619861
c     0.18969713     0.42406434     0.67380139
c     0.98820859     0.65162068     0.31998451
c     0.01179143     0.34837934     0.68001549
c     0.15932920     0.87133829     0.64182593
c     0.84067082     0.12866173     0.35817406
o     0.07446022     0.87208012     0.73569251
o     0.92553980     0.12791990     0.26430748
o     0.31903650     0.94553123     0.64859583
o     0.68096351     0.05446879     0.35140416
h     0.16295825     0.92699127     0.81156061
h     0.83704177     0.07300875     0.18843939
h     0.60933898     0.53664400     0.44135210
h     0.39066104     0.46335602     0.55864790
h     0.72337448     0.49679742     0.24600695
h     0.27662554     0.50320260     0.75399304
h     0.03824297     0.63153142     0.23469762
h     0.96175704     0.36846860     0.76530237
h     0.81674592     0.71068016     0.62092581
h     0.18325409     0.28931986     0.37907418
c     0.29869791     0.82172347     0.40391179
c     0.70130211     0.17827655     0.59608820
h     0.32705017     0.98345711     0.44115347
h     0.67294984     0.01654291     0.55884653
h     0.40115920     0.76622920     0.44859523
h     0.59884081     0.23377082     0.55140477
h     0.32019646     0.77517090     0.31066211
h     0.67980355     0.22482912     0.68933788
n     0.26895154     0.02069760     0.93933841
n     0.73104848     0.97930242     0.06066158
c     0.36231282     0.20396332     0.96452995
c     0.63768719     0.79603670     0.03547004
n     0.41061363     0.33299791     0.07499521
n     0.58938638     0.66700211     0.92500478
c     0.37091418     0.26660910     0.16166250
c     0.62908583     0.73339092     0.83833749
c     0.28506579     0.07788616     0.14355527
c     0.71493422     0.92211386     0.85644473
c     0.23090932     0.95735413     0.02797331
c     0.76909070     0.04264589     0.97202668
n     0.40598976     0.26090950     0.87459190
n     0.59401025     0.73909052     0.12540809
h     0.47538293     0.39983761     0.89117167
h     0.52461709     0.60016241     0.10882833
h     0.38319219     0.15865837     0.79126678
h     0.61680783     0.84134165     0.20873322
h     0.25458099     0.02933926     0.21607471
h     0.74541903     0.97066076     0.78392528
h     0.40870701     0.37150108     0.25022081
h     0.59129301     0.62849894     0.74977919
c     0.12931450     0.75442415     0.99746952
c     0.87068552     0.24557587     0.00253048
h     0.02938109     0.72178628     0.92200024
h     0.97061892     0.27821374     0.07799975
h     0.22554838     0.64327979     0.97356068
h     0.77445164     0.35672023     0.02643932
h     0.06001685     0.73987936     0.07182300
h     0.93998316     0.26012066     0.92817700

K_POINTS automatic
2 2 2 1 1 1

CELL_PARAMETERS cubic
   13.973534000000     0.145799000000     0.225221000000
   -1.458306000000    13.578400000000    -0.042869000000
   -1.418940000000    -7.974431000000    21.590696000000
