&control
 title='crystal',
 prefix='crystal',
 pseudo_dir='..',
 calculation='vc-relax',
 etot_conv_thr=1.0D-5,
/
&system
 ibrav=0,
 celldm(1)=1.0,
 nat=    76,
 ntyp=  4,
 ecutwfc=80.0,
 ecutrho=800.0,
 xdm=.true.,
 xdm_a1=0.6512,
 xdm_a2=1.4633,
/
&electrons
 conv_thr = 1d-8,
/
&ions
/
&cell
/
ATOMIC_SPECIES
h      1.007940 h.UPF
c     12.010700 c.UPF
n     14.006700 n.UPF
o     15.999400 o.UPF

ATOMIC_POSITIONS crystal
c        0.166401557   0.958595071   0.778760431
c        0.333598648   0.458595157   0.721239697
c        0.833598443   0.041404929   0.221239569
c        0.666401352   0.541404843   0.278760303
c        0.266243022   0.047508801   0.694894509
c        0.233756958   0.547508592   0.805105538
c        0.733756978   0.952491199   0.305105491
c        0.766243042   0.452491408   0.194894462
h        0.243740280   0.027472366   0.563953045
h        0.256259763   0.527472374   0.936046983
h        0.756259720   0.972527634   0.436046955
h        0.743740237   0.472527626   0.063953017
c        0.132396019   0.147850088   0.702069963
c        0.367604068   0.647850065   0.797930039
c        0.867603981   0.852149912   0.297930037
c        0.632395932   0.352149935   0.202069961
h        0.214381663   0.208208199   0.641531551
h        0.285618440   0.708208159   0.858468441
h        0.785618337   0.791791801   0.358468449
h        0.714381560   0.291791841   0.141531559
h        0.949213187   0.137528722   0.625624002
h        0.550786893   0.637528712   0.874375988
h        0.050786813   0.862471278   0.374375998
h        0.449213107   0.362471288   0.125624012
c        0.125316576   0.182125754   0.877931753
c        0.374683522   0.682125690   0.622068388
c        0.874683424   0.817874246   0.122068247
c        0.625316478   0.317874310   0.377931612
h        0.305204725   0.198311387   0.954984248
h        0.194795457   0.698311315   0.545015863
h        0.694795275   0.801688613   0.045015752
h        0.805204543   0.301688685   0.454984137
h        0.045359549   0.122176025   0.941095278
h        0.454640464   0.622175904   0.558904670
h        0.954640451   0.877823975   0.058904722
h        0.545359536   0.377824096   0.441095330
c        0.973770342   0.276996543   0.873668287
c        0.526229930   0.776996738   0.626332096
c        0.026229658   0.723003457   0.126331713
c        0.473770070   0.223003262   0.373667904
n        0.531188230   0.058867482   0.766541494
n        0.968811853   0.558867417   0.733458527
n        0.468811770   0.941132518   0.233458506
n        0.031188147   0.441132583   0.266541473
h        0.576004958   0.059542605   0.896618497
h        0.923995104   0.559542582   0.603381527
h        0.423995042   0.940457395   0.103381503
h        0.076004896   0.440457418   0.396618473
h        0.591936688   0.126860039   0.727470618
h        0.908063453   0.626860022   0.772529393
h        0.408063312   0.873139961   0.272529382
h        0.091936547   0.373139978   0.227470607
h        0.627426681   0.000625035   0.727609360
h        0.872573279   0.500625055   0.772390592
h        0.372573319   0.999374965   0.272390640
h        0.127426721   0.499374945   0.227609408
o        0.301259513   0.910937513   0.896541896
o        0.198740689   0.410937542   0.603458089
o        0.698740487   0.089062487   0.103458104
o        0.801259311   0.589062458   0.396541911
o        0.943240004   0.939721286   0.716507449
o        0.556760081   0.439721423   0.783492694
o        0.056759996   0.060278714   0.283492551
o        0.443239919   0.560278577   0.216507306
o        0.049525074   0.357366662   0.944963203
o        0.450475169   0.857366435   0.555036954
o        0.950474926   0.642633338   0.055036797
o        0.549524831   0.142633565   0.444963046
o        0.747983423   0.266328620   0.783480888
o        0.752016705   0.766328402   0.716519153
o        0.252016577   0.733671380   0.216519112
o        0.247983295   0.233671598   0.283480847
h        0.657477684   0.337077583   0.777252748
h        0.842522438   0.837077521   0.722747299
h        0.342522316   0.662922417   0.222747252
h        0.157477562   0.162922479   0.277252701

K_POINTS automatic
4 4 4 1 1 1

CELL_PARAMETERS cubic
  10.802201988  -0.000000374   0.001657020
  -0.000000856  24.718352627  -0.000008054
  -3.743223598  -0.000004831  15.225953216
