&control
 title='crystal',
 prefix='crystal',
 pseudo_dir='.',
 calculation='vc-relax',
/
&system
 ibrav=0,
 celldm(1)=1.0,
 nat=    76,
 ntyp=  4,
 ecutwfc=60.0,
 ecutrho=600.0,
 xdm=.true.,
 xdm_a1=0.4073,
 xdm_a2=2.4150,
/
&electrons
 conv_thr = 1d-8,
/
&ions
/
&cell
/
ATOMIC_SPECIES
h      1.007940 h.UPF
c     12.010700 c.UPF
n     14.006700 n.UPF
o     15.999400 o.UPF

ATOMIC_POSITIONS crystal
c     0.16640160     0.95859506     0.77876044
c     0.83359845     0.04140492     0.22123957
c     0.66640137     0.54140483     0.27876031
c     0.33359868     0.45859515     0.72123971
c     0.26624305     0.04750880     0.69489452
c     0.73375700     0.95249118     0.30510549
c     0.76624282     0.45249109     0.19489439
c     0.23375724     0.54750889     0.80510563
h     0.24374031     0.02747237     0.56395305
h     0.75625974     0.97252761     0.43604696
h     0.74374007     0.47252752     0.06395292
h     0.25625998     0.52747245     0.93604710
c     0.13239605     0.14785009     0.70206997
c     0.86760400     0.85214989     0.29793004
c     0.63239582     0.35214980     0.20206984
c     0.36760423     0.64785018     0.79793017
h     0.21438169     0.20820820     0.64153156
h     0.78561836     0.79179178     0.35846846
h     0.71438146     0.29179169     0.14153142
h     0.28561859     0.70820829     0.85846859
h     0.94921321     0.13752871     0.62562401
h     0.05078684     0.86247127     0.37437600
h     0.44921298     0.36247118     0.12562388
h     0.55078707     0.63752880     0.87437614
c     0.12531662     0.18212575     0.87793177
c     0.87468343     0.81787423     0.12206825
c     0.62531639     0.31787413     0.37793163
c     0.37468366     0.68212584     0.62206838
h     0.30520476     0.19831139     0.95498426
h     0.69479529     0.80168859     0.04501575
h     0.80520453     0.30168850     0.45498413
h     0.19479552     0.69831148     0.54501589
h     0.04535960     0.12217603     0.94109529
h     0.95464046     0.87782395     0.05890472
h     0.54535936     0.37782386     0.44109516
h     0.45464069     0.62217612     0.55890485
c     0.97377038     0.27699653     0.87366830
c     0.02622967     0.72300345     0.12633171
c     0.47377015     0.22300336     0.37366817
c     0.52622991     0.77699662     0.62633185
n     0.53118826     0.05886748     0.76654150
n     0.46881179     0.94113250     0.23345851
n     0.03118803     0.44113241     0.26654137
n     0.96881202     0.55886757     0.73345864
h     0.57600499     0.05954260     0.89661851
h     0.42399506     0.94045738     0.10338150
h     0.07600476     0.44045728     0.39661838
h     0.92399529     0.55954269     0.60338163
h     0.59193672     0.12686003     0.72747063
h     0.40806333     0.87313995     0.27252939
h     0.09193649     0.37313985     0.22747049
h     0.90806356     0.62686012     0.77252952
h     0.62742671     0.00062503     0.72760937
h     0.37257334     0.99937495     0.27239064
h     0.12742648     0.49937486     0.22760924
h     0.87257357     0.50062512     0.77239078
o     0.30125956     0.91093750     0.89654190
o     0.69874049     0.08906248     0.10345811
o     0.80125932     0.58906239     0.39654177
o     0.19874073     0.41093759     0.60345824
o     0.94324005     0.93972126     0.71650746
o     0.05676000     0.06027872     0.28349256
o     0.44323982     0.56027862     0.21650732
o     0.55676023     0.43972135     0.78349269
o     0.04952512     0.35736666     0.94496321
o     0.95047493     0.64263332     0.05503680
o     0.54952489     0.14263322     0.44496308
o     0.45047516     0.85736675     0.55503693
o     0.74798345     0.26632861     0.78348090
o     0.25201660     0.73367137     0.21651912
o     0.24798322     0.23367128     0.28348076
o     0.75201683     0.76632870     0.71651925
h     0.65747772     0.33707757     0.77725276
h     0.34252233     0.66292240     0.22274726
h     0.15747748     0.16292231     0.27725262
h     0.84252257     0.83707766     0.72274739

K_POINTS automatic
2 2 2 1 1 1

CELL_PARAMETERS cubic
   10.802202000000     0.000000000000     0.001657000000
   -0.000001000000    24.718353000000    -0.000008000000
   -3.743224000000    -0.000005000000    15.225953000000
