%nprocs=4
%mem=4GB
#p pbepbe aug-cc-pvtz output=wfx scf=(conver=6) int=(grid=ultrafine)

title

0 1
h 0.015962542038781 -2.650111997101433 -0.478777337451252
h -0.850717654233173 0.853972118126604 -0.879966641495961
h 0.044634416295456 -2.859268407471178 0.243239662016843
h 1.117724318325580 1.218192172028278 -0.594986691260898
h -0.311982958711900 -0.040623225033596 0.304430772780806
h -0.338746137874407 2.034673083013113 0.680109029197897
h 0.301836752774195 0.244759260088171 0.829938216320046
b 0.021288721385478 1.198406996350040 -0.103987010107486

012.wfx

