%nprocs=4
%mem=4GB
#p pbepbe aug-cc-pvtz output=wfx scf=(conver=6) int=(grid=ultrafine)

title

0 1
h -0.136807723670817 2.040388002701703 0.680813364309968
h 1.201281954161156 -2.076657229395017 -0.023515236668772
o 0.004135556584142 1.372483793520038 -0.011149973946571
h 1.754748483650799 -2.261991786748268 0.453210874949332
h -1.610959102451701 -0.156625043643274 1.098691189767921
be -0.928613315599019 -0.059864782330751 -0.085451894985469
h 0.416220285723771 1.766427670555712 -0.798338668647165
h -0.700006138398347 -0.624160624660143 -1.314259654779254

015.wfx

