%nprocs=4
%mem=4GB
#p pbepbe aug-cc-pvtz output=wfx scf=(conver=6) int=(grid=ultrafine)

title

0 1
h 0.639224591494433 1.266488536998293 0.457125091895358
be -0.685789026492732 -0.010134534722042 -0.046643997086320
h 0.137562187020018 1.213106111106274 1.038397693153073
h 0.231592986490066 -1.242610743347989 1.074897534945955
s -0.407181116464998 -0.024897464934898 -1.984482872206345
h -1.618512609739481 -0.058818529034189 0.934071875882190
h 0.945509337315856 0.126163545384641 -1.991371510049127
h 0.757593650376827 -1.269296921450074 0.518006183465203

049.wfx

