%nprocs=4
%mem=4GB
#p pbepbe aug-cc-pvtz output=wfx scf=(conver=6) int=(grid=ultrafine)

title

0 1
h 0.002210493217158 -2.068133673580369 1.117839148890736
h -0.001249580353262 -1.854975988983468 1.841534147122609
h -0.970770187299269 0.785519344993844 -1.714952638385912
h 0.208842547966966 -0.521542945693344 -1.538029572967933
h 0.760748718109142 1.143255158770527 -1.768683537679309
h -0.001306768838789 1.164574906383859 2.506847012570215
c 0.000624305403359 0.525238912843110 -1.264049851049169
mg 0.000900471794710 0.826064285265830 0.819495291498779

092.wfx

