%nprocs=4
%mem=4GB
#p pbepbe aug-cc-pvtz output=wfx scf=(conver=6) int=(grid=ultrafine)

title

0 2
h -1.620011726551743 -1.354098235263252 -0.000533485573373
o 2.141323096816858 -0.135145067167188 -0.000657111597782
c -1.404840814892828 -0.291599081036980 -0.001249392460502
h 2.074339067537743 0.863004664461620 -0.001819127341977
c 0.965063204787401 -0.769479391451806 0.000551389898736
h 0.089641787765831 1.116549250583849 0.000332464222750
h -2.164482320503451 0.482195180002108 0.002834224009080
n -0.081032294959820 0.088572679871660 0.000541038843072

103.wfx

