%nprocs=4
%mem=4GB
#p pbepbe aug-cc-pvtz output=wfx scf=(conver=6) int=(grid=ultrafine)

title

0 1
h -1.025754235423230 -0.052677053565419 1.391807472883491
h -0.619316330336954 -1.262377480517242 -1.427044997300348
c 0.000116698735236 -0.000208006702876 1.001078444033324
h 0.558483084163427 -0.861836956502986 1.393231894161775
h 1.402265421371986 0.094156804415477 -1.427076338407178
h -0.783751212060889 1.167408774771345 -1.425759413701538
h 0.467840764317758 0.915700568534936 1.388725814547509
si 0.000115809232662 -0.000166650433224 -0.894962876217024

137.wfx

