%nprocs=4
%mem=4GB
#p pbepbe aug-cc-pvtz output=wfx scf=(conver=6) int=(grid=ultrafine)

title

0 1
h -0.058993446486304 -1.879933074305320 -1.223288013509041
c 0.299274574473382 -1.031685890530144 -0.625129509701011
h -1.515150114454938 -0.723938477241351 0.295871345514612
h 1.377829004833419 -0.835686538704699 -0.730035221728653
na -0.023227774822309 1.749571396319265 -0.959734157315224
h 0.315946143369046 2.287942352260010 1.017252312421463
c -0.474477601160432 -0.347150503007411 0.262874231714258
al 0.078799214248153 0.780880735209634 1.962189012603595

146.wfx

