%nprocs=4
%mem=4GB
#p pbepbe aug-cc-pvtz output=wfx scf=(conver=6) int=(grid=ultrafine)

title

0 1
h -2.344860860152131 0.136452312817428 0.424794256878787
h 0.766787576730695 -1.413904736243439 -0.338360416130803
c -1.331617260597411 -0.069364899981140 0.061874096487200
h -1.115164067685265 0.447179650170011 -0.878976926065681
si -0.386429611042205 -1.665628410299905 0.662054220368683
h 2.159317486213253 0.759854457781960 -0.461054582845161
f -0.402961083111508 0.485944361432235 1.078687445784217
h 2.654927819644577 1.319467264322867 -0.549018094477240

147.wfx

