%nprocs=4
%mem=4GB
#p pbepbe aug-cc-pvtz output=wfx scf=(conver=6) int=(grid=ultrafine)

title

0 1
n -0.274485883745017 -1.054539712670573 0.697529334185462
al 0.043719083050094 0.384809626799481 1.939200667614766
c 0.217749833468214 -0.357708700913418 -0.378765240556095
h -1.154964270852505 1.287681607805407 -0.211409489834110
h -0.066022939376385 -2.050886553747258 0.728538448061322
h 0.351721753798285 1.603930375078546 -1.251499840506475
h 1.062363124055325 -0.759342443557786 -0.958002438238633
c -0.180080700398010 0.946055801205607 -0.565591440726236

150.wfx

