&control
 title='crystal',
 prefix='crystal',
 pseudo_dir='.',
 calculation='vc-relax',
/
&system
 ibrav=0,
 celldm(1)=1.0,
 nat=    32,
 ntyp=  4,
 ecutwfc=60.0,
 ecutrho=600.0,
 xdm=.true.,
 xdm_a1=0.4073,
 xdm_a2=2.4150,
/
&electrons
 conv_thr = 1d-8,
/
&ions
/
&cell
/
ATOMIC_SPECIES
h      1.007940 h.UPF
c     12.010700 c.UPF
n     14.006700 n.UPF
o     15.999400 o.UPF

ATOMIC_POSITIONS crystal
c     0.52153880     0.04622412     0.44696724
c     0.47846116     0.54622410     0.55303273
c     0.70329569     0.08837824     0.36541484
c     0.29670426     0.58837823     0.63458513
c     0.78243227     0.89780319     0.29099532
c     0.21756768     0.39780317     0.70900465
c     0.96558716     0.91040458     0.21489371
c     0.03441279     0.41040456     0.78510626
h     0.20864906     0.00945814     0.33204489
h     0.79135089     0.50945813     0.66795508
h     0.79480294     0.80481738     0.46694035
h     0.20519701     0.30481736     0.53305962
h     0.69518794     0.82761745     0.12727698
h     0.30481202     0.32761743     0.87272298
h     0.61251804     0.16046459     0.96724297
h     0.38748191     0.66046458     0.03275700
h     0.61196508     0.34797569     0.18535276
h     0.38803487     0.84797567     0.81464721
h     0.80402330     0.27370929     0.09279001
h     0.19597666     0.77370927     0.90720996
h     0.79023372     0.15416060     0.53307934
h     0.20976623     0.65416058     0.46692063
n     0.68176081     0.22617028     0.13817580
n     0.31823915     0.72617027     0.86182417
o     0.38983510     0.03360580     0.26008736
o     0.61016485     0.53360579     0.73991261
o     0.51863614     0.01965051     0.69234235
o     0.48136381     0.51965050     0.30765762
o     0.99813812     0.83703008     0.00705304
o     0.00186183     0.33703006     0.99294693
o     0.08381723     0.99862990     0.39303164
o     0.91618272     0.49862989     0.60696833

K_POINTS automatic
2 2 2 1 1 1

CELL_PARAMETERS cubic
   14.420753000000     0.000000000000     0.074214000000
    0.000000000000    13.176645000000     0.000000000000
   -1.617452000000     0.000000000000     9.482530000000
