&control
 title='crystal',
 prefix='crystal',
 pseudo_dir='..',
 calculation='vc-relax',
 etot_conv_thr=1.0D-5,
/
&system
 ibrav=0,
 celldm(1)=1.0,
 nat=    32,
 ntyp=  4,
 ecutwfc=80.0,
 ecutrho=800.0,
 xdm=.true.,
 xdm_a1=0.6512,
 xdm_a2=1.4633,
/
&electrons
 conv_thr = 1d-8,
/
&ions
/
&cell
/
ATOMIC_SPECIES
h      1.007940 h.UPF
c     12.010700 c.UPF
n     14.006700 n.UPF
o     15.999400 o.UPF

ATOMIC_POSITIONS crystal
c        0.521538818   0.046224118   0.446967251
c        0.478461182   0.546224118   0.553032749
c        0.703295718   0.088378242   0.365414874
c        0.296704282   0.588378242   0.634585126
c        0.782432296   0.897803217   0.290995353
c        0.217567704   0.397803217   0.709004647
c        0.965587184   0.910404600   0.214893738
c        0.034412816   0.410404600   0.785106262
h        0.208649075   0.009458142   0.332044898
h        0.791350925   0.509458142   0.667955102
h        0.794802968   0.804817406   0.466940383
h        0.205197032   0.304817406   0.533059617
h        0.695187950   0.827617468   0.127277012
h        0.304812050   0.327617468   0.872722988
h        0.612518079   0.160464602   0.967242999
h        0.387481921   0.660464602   0.032757001
h        0.611965099   0.347975695   0.185352789
h        0.388034901   0.847975695   0.814647211
h        0.804023315   0.273709297   0.092790037
h        0.195976685   0.773709297   0.907209963
h        0.790233754   0.154160603   0.533079368
h        0.209766246   0.654160603   0.466920632
n        0.681760829   0.226170289   0.138175826
n        0.318239171   0.726170289   0.861824174
o        0.389835115   0.033605801   0.260087372
o        0.610164885   0.533605801   0.739912628
o        0.518636172   0.019650514   0.692342379
o        0.481363828   0.519650514   0.307657621
o        0.998138142   0.837030101   0.007053083
o        0.001861858   0.337030101   0.992946917
o        0.083817243  -0.001370097   0.393031644
o        0.916182757   0.498629903   0.606968356

K_POINTS automatic
4 4 4 1 1 1

CELL_PARAMETERS cubic
  14.420752777   0.000000000   0.074213637
   0.000000000  13.176644618   0.000000000
  -1.617452414   0.000000000   9.482529982
