&control
 title='crystal',
 prefix='crystal',
 pseudo_dir='.',
 calculation='vc-relax',
/
&system
 ibrav=0,
 celldm(1)=1.0,
 nat=   180,
 ntyp=  4,
 ecutwfc=60.0,
 ecutrho=600.0,
 xdm=.true.,
 xdm_a1=0.4073,
 xdm_a2=2.4150,
/
&electrons
 conv_thr = 1d-8,
/
&ions
/
&cell
/
ATOMIC_SPECIES
h      1.007940 h.UPF
c     12.010700 c.UPF
n     14.006700 n.UPF
o     15.999400 o.UPF

ATOMIC_POSITIONS crystal
o     0.18378996     0.91374490     0.40639603
o     0.68378995     0.58625506     0.59360396
o     0.81621237     0.41374168     0.09360395
o     0.31621238     0.08625830     0.90639604
o     0.91143967     0.80164920     0.40480395
o     0.41143966     0.69835077     0.59519604
o     0.08856266     0.30164598     0.09519603
o     0.58856267     0.19835400     0.90480397
o     0.69603353     0.37721647     0.49807397
o     0.19603352     0.12278349     0.50192602
o     0.30396880     0.87721325     0.00192601
o     0.80396881     0.62278673     0.99807399
h     0.62277471     0.37394937     0.53701971
h     0.12277469     0.12605059     0.46298028
h     0.37722763     0.87394615     0.96298027
h     0.87722764     0.62605383     0.03701973
o     0.96259491     0.20966240     0.41033004
o     0.46259489     0.29033756     0.58966994
o     0.03740743     0.70965918     0.08966993
o     0.53740744     0.79034080     0.91033006
n     0.09444033     0.81264982     0.41031197
n     0.59444031     0.68735015     0.58968802
n     0.90556201     0.31264660     0.08968801
n     0.40556202     0.18735338     0.91031199
c     0.21087884     0.69933471     0.42215019
c     0.71087883     0.80066526     0.57784980
c     0.78912349     0.19933149     0.07784979
c     0.28912350     0.30066849     0.92215021
c     0.41238316     0.71029580     0.43635903
c     0.91238314     0.78970416     0.56364096
c     0.58761918     0.21029258     0.06364094
c     0.08761918     0.28970740     0.93635905
h     0.48141993     0.80226544     0.43873351
h     0.98141992     0.69773452     0.56126648
h     0.51858241     0.30226222     0.06126647
h     0.01858241     0.19773776     0.93873352
c     0.52077120     0.60153759     0.44666278
c     0.02077118     0.89846237     0.55333721
c     0.47923114     0.10153437     0.05333719
c     0.97923115     0.39846561     0.94666280
h     0.67741904     0.60788876     0.45851080
h     0.17741903     0.89211120     0.54148919
h     0.32258330     0.10788554     0.04148918
h     0.82258330     0.39211444     0.95851081
c     0.43071453     0.48341553     0.44232873
c     0.93071452     0.01658444     0.55767125
c     0.56928780     0.98341230     0.05767124
c     0.06928781     0.51658768     0.94232875
c     0.22753755     0.47524458     0.42877309
c     0.72753753     0.02475539     0.57122690
c     0.77246479     0.97524136     0.07122689
c     0.27246479     0.52475862     0.92877310
h     0.15461453     0.38410575     0.42614750
h     0.65461452     0.11589421     0.57385249
h     0.84538780     0.88410253     0.07385248
h     0.34538781     0.61589745     0.92614751
c     0.11685566     0.58311900     0.41856543
c     0.61685564     0.91688097     0.58143455
c     0.88314668     0.08311578     0.08143454
c     0.38314669     0.41688420     0.91856545
h     0.95957703     0.57877117     0.40764268
h     0.45957702     0.92122879     0.59235730
h     0.04042530     0.07876795     0.09235729
h     0.54042531     0.42123203     0.90764270
c     0.55149605     0.36499122     0.45075252
c     0.05149604     0.13500874     0.54924747
c     0.44850628     0.86498800     0.04924746
c     0.94850629     0.63501198     0.95075254
h     0.44797650     0.28807728     0.46152484
h     0.94797648     0.21192269     0.53847515
h     0.55202584     0.78807406     0.03847514
h     0.05202585     0.71192592     0.96152486
c     0.67043579     0.33217469     0.39217115
c     0.17043577     0.16782527     0.60782884
c     0.32956655     0.83217147     0.10782883
c     0.82956655     0.66782851     0.89217116
h     0.78215254     0.40643055     0.38667331
h     0.28215252     0.09356942     0.61332668
h     0.21784980     0.90642733     0.11332666
h     0.71784980     0.59357265     0.88667333
c     0.78099692     0.21054233     0.40342692
c     0.28099691     0.28945763     0.59657306
c     0.21900541     0.71053911     0.09657305
c     0.71900542     0.78946087     0.90342694
c     0.65754695     0.09346668     0.40160255
c     0.15754694     0.40653328     0.59839744
c     0.34245539     0.59346346     0.09839743
c     0.84245539     0.90653652     0.90160256
h     0.54831752     0.09587931     0.43911358
h     0.04831751     0.40412065     0.56088641
h     0.45168482     0.59587609     0.06088640
h     0.95168482     0.90412389     0.93911360
h     0.75337988     0.01146064     0.40796760
h     0.25337987     0.48853932     0.59203238
h     0.24662245     0.51145742     0.09203237
h     0.74662246     0.98854256     0.90796762
c     0.54467271     0.08753331     0.34012667
c     0.04467269     0.41246666     0.65987332
c     0.45532963     0.58753008     0.15987331
c     0.95532963     0.91246990     0.84012669
h     0.65406519     0.07780304     0.30302415
h     0.15406517     0.42219693     0.69697584
h     0.34593715     0.57779981     0.19697583
h     0.84593716     0.92220017     0.80302416
h     0.45416476     0.00217909     0.34029392
h     0.95416475     0.49782087     0.65970607
h     0.54583757     0.50217587     0.15970605
h     0.04583758     0.99782411     0.84029394
c     0.41525938     0.20429137     0.32963464
c     0.91525936     0.29570860     0.67036535
c     0.58474296     0.70428814     0.17036533
c     0.08474296     0.79571184     0.82963466
h     0.30613392     0.20792584     0.36710512
h     0.80613390     0.29207412     0.63289487
h     0.69386842     0.70792262     0.13289485
h     0.19386843     0.79207736     0.86710514
c     0.54640901     0.32199063     0.33322196
c     0.04640899     0.17800933     0.66677802
c     0.45359333     0.82198741     0.16677801
c     0.95359334     0.67801257     0.83322198
h     0.45750256     0.40764591     0.32852463
h     0.95750254     0.09235405     0.67147535
h     0.54249978     0.90764269     0.17147534
h     0.04249979     0.59235729     0.82852465
h     0.65150565     0.32164414     0.29473348
h     0.15150563     0.17835583     0.70526650
h     0.34849669     0.82164092     0.20526649
h     0.84849670     0.67835906     0.79473350
c     0.28917870     0.19939887     0.26964548
c     0.78917868     0.30060109     0.73035451
c     0.71082364     0.69939565     0.23035450
c     0.21082365     0.80060433     0.76964550
c     0.15767320     0.08128064     0.26982689
c     0.65767319     0.41871932     0.73017310
c     0.84232913     0.58127742     0.23017308
c     0.34232914     0.91872256     0.76982691
h     0.24567380     0.99514799     0.26560708
h     0.74567378     0.50485198     0.73439291
h     0.75432854     0.49514476     0.23439290
h     0.25432855     0.00485522     0.76560709
h     0.05450725     0.08366121     0.23092285
h     0.55450724     0.41633876     0.76907713
h     0.94549508     0.58365798     0.26907712
h     0.44549509     0.91634200     0.73092287
h     0.07021470     0.07429843     0.31199103
h     0.57021469     0.42570154     0.68800895
h     0.92978763     0.57429520     0.18800894
h     0.42978764     0.92570478     0.81199105
c     0.41957263     0.19787842     0.21202025
c     0.91957262     0.30212155     0.78797974
c     0.58042970     0.69787520     0.28797973
c     0.08042971     0.80212478     0.71202027
h     0.50830828     0.28377184     0.20731531
h     0.00830827     0.21622813     0.79268468
h     0.49169406     0.78376862     0.29268467
h     0.99169406     0.71623136     0.70731532
h     0.32511020     0.19163695     0.17132506
h     0.82511019     0.30836301     0.82867493
h     0.67489213     0.69163373     0.32867492
h     0.17489214     0.80836625     0.67132507
h     0.52161373     0.11749561     0.21130434
h     0.02161372     0.38250436     0.78869565
h     0.47838861     0.61749239     0.28869564
h     0.97838861     0.88250759     0.71130435
c     0.15074562     0.31428092     0.26680942
c     0.65074560     0.18571904     0.73319057
c     0.84925672     0.81427770     0.23319056
c     0.34925673     0.68572228     0.76680944
h     0.05948932     0.32129585     0.30821541
h     0.55948931     0.17870412     0.69178458
h     0.94051301     0.82129262     0.19178456
h     0.44051302     0.67870736     0.80821543
h     0.05099891     0.30687207     0.22728614
h     0.55099889     0.19312789     0.77271385
h     0.94900343     0.80686885     0.27271384
h     0.44900344     0.69313113     0.72728616
h     0.23304661     0.40239419     0.26155664
h     0.73304660     0.09760577     0.73844335
h     0.76695572     0.90239097     0.23844334
h     0.26695573     0.59760901     0.76155666

K_POINTS automatic
2 2 2 1 1 1

CELL_PARAMETERS cubic
   12.708694000000     0.000000000000     0.000000000000
    0.000000000000    20.149162000000     0.000003000000
    0.000000000000     0.000006000000    41.362118000000
