&control
 title='crystal',
 prefix='crystal',
 pseudo_dir='..',
 calculation='vc-relax',
 etot_conv_thr=1.0D-5,
/
&system
 ibrav=0,
 celldm(1)=1.0,
 nat=   180,
 ntyp=  4,
 ecutwfc=80.0,
 ecutrho=800.0,
 xdm=.true.,
 xdm_a1=0.6512,
 xdm_a2=1.4633,
/
&electrons
 conv_thr = 1d-8,
/
&ions
/
&cell
/
ATOMIC_SPECIES
h      1.007940 h.UPF
c     12.010700 c.UPF
n     14.006700 n.UPF
o     15.999400 o.UPF

ATOMIC_POSITIONS crystal
o        0.183275786   0.914904580   0.404720588
o        0.683275786   0.585095420   0.595279412
o        0.816699775   0.414884094   0.095276247
o        0.316699775   0.085115906   0.904723753
o        0.906966698   0.802505732   0.403619129
o        0.406966688   0.697494268   0.596380871
o        0.093015099   0.302491257   0.096378309
o        0.593015099   0.197508743   0.903621691
o        0.699338809   0.378328737   0.497908696
o        0.199338809   0.121671263   0.502091304
o        0.300635061   0.878310179   0.002083506
o        0.800635061   0.621689821   0.997916494
h        0.625827496   0.374703776   0.537122258
h        0.125827496   0.125296224   0.462877742
h        0.374140256   0.874687683   0.962868920
h        0.874140256   0.625312317   0.037131080
o        0.966724446   0.209407864   0.410343567
o        0.466724446   0.290592136   0.589656433
o        0.033263926   0.709417092   0.089663138
o        0.533263926   0.790582908   0.910336862
n        0.092571823   0.813245150   0.409258868
n        0.592571823   0.686754850   0.590741132
n        0.907406273   0.313230927   0.090733280
n        0.407406273   0.186769073   0.909266720
c        0.209382677   0.700068936   0.421764614
c        0.709382677   0.799931064   0.578235386
c        0.790603921   0.200057800   0.078216507
c        0.290603921   0.299942210   0.921783493
c        0.411395976   0.711254440   0.437460633
c        0.911395976   0.788745560   0.562539367
c        0.588589528   0.211232858   0.062522870
c        0.088589528   0.288767142   0.937477130
h        0.480030246   0.803438230   0.440840385
h        0.980030246   0.696561770   0.559159615
h        0.519949810   0.303429540   0.059147503
h        0.019949810   0.196570460   0.940852497
c        0.520761396   0.602403038   0.447826359
c        0.020761396   0.897596962   0.552173641
c        0.479238901   0.102397392   0.052156287
c        0.979238901   0.397602608   0.947843713
h        0.677761968   0.608775998   0.460782864
h        0.177761968   0.891224002   0.539217136
h        0.322220578   0.108765824   0.039201313
h        0.822220578   0.391234176   0.960798687
c        0.431078650   0.484050136   0.442063295
c        0.931078650   0.015949864   0.557936705
c        0.568906236   0.984039771   0.057914759
c        0.068906236   0.515960229   0.942085241
c        0.227014182   0.475678380   0.427354238
c        0.727014182   0.024321620   0.572645762
c        0.772989057   0.975663705   0.072618384
c        0.272989057   0.524336295   0.927381616
h        0.154422704   0.384274637   0.423960767
h        0.654422704   0.115725363   0.576039233
h        0.845577242   0.884265352   0.076007579
h        0.345577242   0.615734648   0.923992421
c        0.115360097   0.583610882   0.417115305
c        0.615360097   0.916389118   0.582884695
c        0.884636566   0.083598697   0.082857062
c        0.384636566   0.416401303   0.917142938
h        0.957519573   0.579179881   0.405270336
h        0.457519573   0.920820119   0.594729664
h        0.042480963   0.079166749   0.094695964
h        0.542480963   0.420833251   0.905304036
c        0.552844226   0.365537332   0.450497629
c        0.052844226   0.134462668   0.549502371
c        0.447144188   0.865525385   0.049491891
c        0.947144188   0.634474615   0.950508109
h        0.448721765   0.288597385   0.461605014
h        0.948721765   0.211402615   0.538394986
h        0.551258048   0.788582398   0.038387468
h        0.051258048   0.711417602   0.961612532
c        0.672494709   0.332138172   0.391681949
c        0.172494709   0.167861828   0.608318051
c        0.327507164   0.832141529   0.108313697
c        0.827507164   0.667858471   0.891686303
h        0.785315409   0.406287830   0.386039855
h        0.285315409   0.093712170   0.613960145
h        0.214694160   0.906295599   0.113954564
h        0.714694160   0.593704401   0.886045436
c        0.783333977   0.210356269   0.403209746
c        0.283333977   0.289643731   0.596790254
c        0.216657966   0.710361323   0.096796059
c        0.716657966   0.789638677   0.903203941
c        0.659182532   0.093130222   0.401198840
c        0.159182532   0.406869778   0.598801160
c        0.340798260   0.593131852   0.098809689
c        0.840798260   0.906868148   0.901190311
h        0.547802817   0.095653883   0.438498559
h        0.047802807   0.404346117   0.561501441
h        0.452161905   0.595647159   0.061505342
h        0.952161905   0.904352841   0.938494658
h        0.755820199   0.011196704   0.407830115
h        0.255820199   0.488803296   0.592169885
h        0.244151005   0.511201007   0.092185844
h        0.744151005   0.988798993   0.907814156
c        0.546997001   0.086892576   0.339173487
c        0.046997001   0.413107424   0.660826513
c        0.453007721   0.586897837   0.160830709
c        0.953007721   0.913102163   0.839169281
h        0.658036125   0.077453897   0.302135699
h        0.158036125   0.422546103   0.697864301
h        0.341982180   0.577461568   0.197872614
h        0.841982180   0.922538432   0.802127386
h        0.456098672   0.001385111   0.339147108
h        0.956098672   0.498614889   0.660852892
h        0.543905139   0.501389898   0.160857274
h        0.043905139   0.998610102   0.839142726
c        0.416365593   0.203520664   0.328505523
c        0.916365593   0.296479336   0.671494477
c        0.583645036   0.703525031   0.171491173
c        0.083645036   0.796474969   0.828508827
h        0.305795120   0.207005799   0.365934277
h        0.805795120   0.292994201   0.634065723
h        0.694212592   0.707005514   0.134061593
h        0.194212592   0.792994486   0.865938407
c        0.548368567   0.321333977   0.332326685
c        0.048368567   0.178666023   0.667673305
c        0.451650739   0.821342243   0.167666140
c        0.951650739   0.678657757   0.832333860
h        0.459099358   0.406997871   0.327141943
h        0.959099348   0.093002129   0.672858057
h        0.540928757   0.907004096   0.172842991
h        0.040928757   0.592995904   0.827157009
h        0.655320892   0.320496561   0.293976186
h        0.155320892   0.179503439   0.706023804
h        0.344709147   0.820514949   0.206019512
h        0.844709147   0.679485051   0.793980488
c        0.290485550   0.198808417   0.268042239
c        0.790485550   0.301191583   0.731957761
c        0.709526873   0.698812550   0.231954085
c        0.209526873   0.801187450   0.768045915
c        0.157447589   0.080837625   0.267906992
c        0.657447589   0.419162375   0.732093008
c        0.842566246   0.580842180   0.232092356
c        0.342566246   0.919157820   0.767907644
h        0.245825738   0.994561721   0.263609575
h        0.745825738   0.505438279   0.736390425
h        0.754189528   0.494566175   0.236394165
h        0.254189528   0.005433825   0.763605835
h        0.053801890   0.083716730   0.228771044
h        0.553801890   0.416283270   0.771228956
h        0.946213941   0.583725156   0.271227621
h        0.446213941   0.916274844   0.728772379
h        0.069031326   0.073671746   0.310164332
h        0.569031326   0.426328254   0.689835668
h        0.930980396   0.573673247   0.189834988
h        0.430980396   0.926326753   0.810165012
c        0.422887946   0.197082236   0.210413399
c        0.922887946   0.302917764   0.789586601
c        0.577126999   0.697082952   0.289583399
c        0.077126999   0.802917048   0.710416601
h        0.513612175   0.282516442   0.205932576
h        0.013612175   0.217483558   0.794067424
h        0.486398895   0.782515195   0.294063603
h        0.986398895   0.717484805   0.705936397
h        0.328327445   0.191659778   0.169413505
h        0.828327445   0.308340222   0.830586495
h        0.671691293   0.691661609   0.330582521
h        0.171691293   0.808338391   0.669417479
h        0.524711530   0.116177120   0.209679155
h        0.024711530   0.383822880   0.790320845
h        0.475307826   0.616175835   0.290320430
h        0.975307826   0.883824165   0.709679570
c        0.151562488   0.314041505   0.265075194
c        0.651562488   0.185958495   0.734924806
c        0.848447071   0.814046663   0.234919996
c        0.348447071   0.685953337   0.765080004
h        0.061251223   0.321962623   0.306941565
h        0.561251223   0.178037377   0.693058435
h        0.938752061   0.821976215   0.193052626
h        0.438752061   0.678023785   0.806947374
h        0.049628462   0.306240488   0.225761322
h        0.549628462   0.193759512   0.774238678
h        0.950386627   0.806239416   0.274232411
h        0.450386627   0.693760584   0.725767589
h        0.234991914   0.401845801   0.259192065
h        0.734991914   0.098154199   0.740807935
h        0.765015418   0.901848761   0.240806113
h        0.265015418   0.598151239   0.759193887

K_POINTS automatic
4 4 4 1 1 1

CELL_PARAMETERS cubic
  12.612188596   0.000000000   0.000000000
   0.000000000  20.140110876   0.000247430
   0.000000000   0.000507265  41.203619959
