&control
 title='crystal',
 prefix='crystal',
 pseudo_dir='.',
 calculation='vc-relax',
/
&system
 ibrav=0,
 celldm(1)=1.0,
 nat=    84,
 ntyp=  5,
 ecutwfc=60.0,
 ecutrho=600.0,
 xdm=.true.,
 xdm_a1=0.4073,
 xdm_a2=2.4150,
/
&electrons
 conv_thr = 1d-8,
/
&ions
/
&cell
/
ATOMIC_SPECIES
h      1.007940 h.UPF
c     12.010700 c.UPF
n     14.006700 n.UPF
o     15.999400 o.UPF
s     32.065000 s.UPF

ATOMIC_POSITIONS crystal
s     0.41126233     0.18792749     0.99356230
s     0.91126232     0.31207251     0.00643773
s     0.08873678     0.81207310     0.49356199
s     0.58873678     0.68792690     0.50643804
o     0.26750002     0.25524573     0.62813329
o     0.76750001     0.24475428     0.37186674
o     0.23249300     0.74475404     0.12812432
o     0.73249300     0.75524596     0.87187571
n     0.50480604     0.29882051     0.79569053
n     0.00480603     0.20117950     0.20430950
n     0.99519599     0.70118032     0.29568461
n     0.49519599     0.79881969     0.70431542
c     0.39789281     0.24972982     0.80316818
c     0.89789280     0.25027019     0.19683185
c     0.10210007     0.75026914     0.30316345
c     0.60210006     0.74973086     0.69683658
c     0.46626503     0.33966573     0.57943912
c     0.96626502     0.16033428     0.42056091
c     0.03373188     0.66033235     0.07943939
c     0.53373187     0.83966765     0.92056064
c     0.27888791     0.31666539     0.51288868
c     0.77888790     0.18333462     0.48711135
c     0.22110791     0.68333293     0.01288645
c     0.72110791     0.81666708     0.98711358
c     0.47821366     0.40729565     0.64497905
c     0.97821365     0.09270436     0.35502098
c     0.02178403     0.59270203     0.14498234
c     0.52178402     0.90729798     0.85501769
c     0.57277948     0.44680371     0.48460919
c     0.07277947     0.05319630     0.51539084
c     0.92722461     0.55319413     0.98461874
c     0.42722461     0.94680587     0.01538129
c     0.58313698     0.50981196     0.53750379
c     0.08313697     0.99018805     0.46249624
c     0.91686466     0.49018557     0.03750178
c     0.41686466     0.00981444     0.96249825
c     0.50052392     0.53351160     0.75380051
c     0.00052391     0.96648841     0.24619952
c     0.99948170     0.46648813     0.25380344
c     0.49948169     0.03351187     0.74619659
c     0.40710931     0.49423104     0.91601408
c     0.90710930     0.00576897     0.08398595
c     0.09289086     0.50576952     0.41601274
c     0.59289085     0.99423049     0.58398729
c     0.39523884     0.43140285     0.86162270
c     0.89523883     0.06859716     0.13837733
c     0.10475785     0.56859621     0.36162962
c     0.60475784     0.93140380     0.63837041
h     0.62380263     0.30102933     0.89230478
h     0.12380263     0.19897068     0.10769525
h     0.87619875     0.69896769     0.39231946
h     0.37619875     0.80103232     0.60768057
h     0.55925497     0.32923103     0.42427031
h     0.05925496     0.17076898     0.57572972
h     0.94074406     0.67076486     0.92426738
h     0.44074405     0.82923515     0.07573265
h     0.17484185     0.34494568     0.60037813
h     0.67484184     0.15505433     0.39962190
h     0.32515571     0.65505504     0.10038019
h     0.82515570     0.84494497     0.89961984
h     0.25519278     0.31157112     0.30871959
h     0.75519278     0.18842889     0.69128044
h     0.24480160     0.68842500     0.80871494
h     0.74480159     0.81157501     0.19128509
h     0.63840302     0.42795302     0.31730089
h     0.13840302     0.07204699     0.68269914
h     0.86160280     0.57204405     0.81729893
h     0.36160280     0.92795596     0.18270110
h     0.65727389     0.54004459     0.41061908
h     0.15727389     0.95995542     0.58938095
h     0.84273321     0.45995237     0.91061525
h     0.34273321     0.04004764     0.08938478
h     0.51048773     0.58265410     0.79550796
h     0.01048773     0.91734591     0.20449207
h     0.98951887     0.41734474     0.29550426
h     0.48951886     0.08265527     0.70449577
h     0.34274957     0.51238303     0.08511847
h     0.84274956     0.98761698     0.91488157
h     0.15725377     0.48761720     0.58512168
h     0.65725376     0.01238281     0.41487835
h     0.32074059     0.40112985     0.98813807
h     0.82074059     0.09887016     0.01186196
h     0.17925821     0.59887165     0.48814629
h     0.67925820     0.90112836     0.51185375

K_POINTS automatic
2 2 2 1 1 1

CELL_PARAMETERS cubic
   14.281037000000     0.000000000000     0.000000000000
    0.000000000000    40.934940000000    -0.000240000000
    0.000000000000    -0.000062000000     9.926236000000
