&control
 title='crystal',
 prefix='crystal',
 pseudo_dir='.',
 calculation='vc-relax',
/
&system
 ibrav=0,
 celldm(1)=1.0,
 nat=    52,
 ntyp=  3,
 ecutwfc=60.0,
 ecutrho=600.0,
 xdm=.true.,
 xdm_a1=0.4073,
 xdm_a2=2.4150,
/
&electrons
 conv_thr = 1d-8,
/
&ions
/
&cell
/
ATOMIC_SPECIES
h      1.007940 h.UPF
c     12.010700 c.UPF
o     15.999400 o.UPF

ATOMIC_POSITIONS crystal
h     0.65935639     0.73486032     0.03626584
h     0.34064360     0.26513965     0.96373415
h     0.34064344     0.23485940     0.46373373
h     0.65935656     0.76514057     0.53626625
c     0.61068653     0.90176701     0.09645600
c     0.38931346     0.09823296     0.90354398
c     0.38931201     0.40176998     0.40354201
c     0.61068798     0.59822999     0.59645797
h     0.45540135     0.89449208     0.15859573
h     0.54459864     0.10550789     0.84140425
h     0.54460046     0.39449079     0.34140308
h     0.45539954     0.60550918     0.65859691
c     0.69321352     0.16084817     0.02518734
c     0.30678647     0.83915180     0.97481265
c     0.30678669     0.66084709     0.47480874
c     0.69321330     0.33915288     0.52519124
c     0.71728469     0.95482146     0.16085678
c     0.28271530     0.04517851     0.83914320
c     0.28272226     0.45482193     0.33914711
c     0.71727773     0.54517804     0.66085287
h     0.78976362     0.14392241     0.92397126
h     0.21023637     0.85607756     0.07602873
h     0.21023702     0.64392206     0.57602777
h     0.78976297     0.35607791     0.42397222
c     0.79040758     0.18822808     0.09766642
c     0.20959241     0.81177189     0.90233357
c     0.20960730     0.68821913     0.40233763
c     0.79039269     0.31178084     0.59766236
h     0.58489713     0.30369721     0.04583317
h     0.41510286     0.69630276     0.95416682
h     0.41510571     0.80369774     0.45416582
h     0.58489428     0.19630223     0.54583416
c     0.78489463     0.91846909     0.23613823
c     0.21510536     0.08153088     0.76386176
c     0.21510259     0.41845634     0.26385331
c     0.78489740     0.58154363     0.73614668
c     0.90064805     0.28942640     0.13594262
c     0.09935194     0.71057357     0.86405736
c     0.09933730     0.78945124     0.36405429
c     0.90066269     0.21054873     0.63594570
o     0.89861927     0.12422428     0.22193334
o     0.10138072     0.87577569     0.77806665
o     0.10138138     0.62422329     0.27806605
o     0.89861862     0.37577668     0.72193394
h     0.77703031     0.77508494     0.29924847
h     0.22296968     0.22491503     0.70075151
h     0.22296924     0.27509025     0.20075412
h     0.77703076     0.72490972     0.79924587
h     0.98381432     0.45856059     0.11870087
h     0.01618568     0.54143938     0.88129912
h     0.01619266     0.95854969     0.38129749
h     0.98380733     0.04145028     0.61870250

K_POINTS automatic
2 2 2 1 1 1

CELL_PARAMETERS cubic
   15.704245000000    -0.000023000000     0.253031000000
   -0.000014000000    10.024063000000    -0.000005000000
   12.508569000000    -0.000028000000    20.464527000000
