&control
 title='crystal',
 prefix='crystal',
 pseudo_dir='.',
 calculation='vc-relax',
/
&system
 ibrav=0,
 celldm(1)=1.0,
 nat=    52,
 ntyp=  3,
 ecutwfc=60.0,
 ecutrho=600.0,
 xdm=.true.,
 xdm_a1=0.4073,
 xdm_a2=2.4150,
/
&electrons
 conv_thr = 1d-8,
/
&ions
/
&cell
/
ATOMIC_SPECIES
h      1.007940 h.UPF
c     12.010700 c.UPF
o     15.999400 o.UPF

ATOMIC_POSITIONS crystal
c     0.96072484     0.31997329     0.00421064
c     0.03927520     0.68002668     0.99578936
c     0.96072486     0.18002670     0.50421064
c     0.03927518     0.81997327     0.49578936
c     0.77371270     0.35129418     0.10117273
c     0.22628734     0.64870579     0.89882728
c     0.77371272     0.14870581     0.60117273
c     0.22628732     0.85129416     0.39882728
c     0.59499493     0.43719096     0.19355632
c     0.40500512     0.56280901     0.80644368
c     0.59499495     0.06280903     0.69355632
c     0.40500510     0.93719095     0.30644368
c     0.48178448     0.30022703     0.25445557
c     0.51821556     0.69977294     0.74554444
c     0.48178451     0.19977296     0.75445557
c     0.51821554     0.80022702     0.24554444
c     0.67519778     0.22849414     0.15781842
c     0.32480227     0.77150583     0.84218159
c     0.67519780     0.27150585     0.65781842
c     0.32480225     0.72849413     0.34218159
c     0.80513616     0.12507917     0.09470086
c     0.19486388     0.87492080     0.90529914
c     0.80513618     0.37492082     0.59470086
c     0.19486386     0.62507915     0.40529914
o     0.98284636     0.18047069     0.99921641
o     0.01715368     0.81952928     0.00078360
o     0.98284639     0.31952930     0.49921641
o     0.01715366     0.68047068     0.50078360
h     0.08937100     0.37320681     0.93281806
h     0.91062904     0.62679317     0.06718195
h     0.08937102     0.12679318     0.43281806
h     0.91062902     0.87320679     0.56718195
h     0.70665571     0.49929089     0.26999461
h     0.29334433     0.50070909     0.73000539
h     0.70665574     0.00070910     0.76999461
h     0.29334431     0.99929087     0.23000539
h     0.44249374     0.49979743     0.13919202
h     0.55750630     0.50020254     0.86080798
h     0.44249376     0.00020256     0.63919202
h     0.55750628     0.99979741     0.36080798
h     0.52162104     0.28551218     0.36582412
h     0.47837900     0.71448780     0.63417589
h     0.52162106     0.21448781     0.86582412
h     0.47837898     0.78551216     0.13417589
h     0.26491644     0.28319071     0.23142122
h     0.73508360     0.71680926     0.76857878
h     0.26491646     0.21680928     0.73142122
h     0.73508358     0.78319069     0.26857878
h     0.80472197     0.01606281     0.09786779
h     0.19527807     0.98393717     0.90213222
h     0.80472199     0.48393718     0.59786779
h     0.19527805     0.51606279     0.40213222

K_POINTS automatic
2 2 2 1 1 1

CELL_PARAMETERS cubic
    9.271979000000     0.000000000000    -0.056734000000
    0.000000000000    18.742160000000     0.000000000000
   -0.290013000000     0.000000000000    18.175034000000
