&control
 title='crystal',
 prefix='crystal',
 pseudo_dir='.',
 calculation='vc-relax',
/
&system
 ibrav=0,
 celldm(1)=1.0,
 nat=    52,
 ntyp=  3,
 ecutwfc=60.0,
 ecutrho=600.0,
 xdm=.true.,
 xdm_a1=0.4073,
 xdm_a2=2.4150,
/
&electrons
 conv_thr = 1d-8,
/
&ions
/
&cell
/
ATOMIC_SPECIES
h      1.007940 h.UPF
c     12.010700 c.UPF
o     15.999400 o.UPF

ATOMIC_POSITIONS crystal
o     0.65290567     0.80798866     0.97580750
o     0.34709431     0.19201137     0.02419251
o     0.65290568     0.69201139     0.47580751
o     0.34709431     0.30798864     0.52419251
c     0.60931074     0.02932789     0.90195275
c     0.39068925     0.97067214     0.09804726
c     0.60931075     0.47067216     0.40195276
c     0.39068924     0.52932787     0.59804726
c     0.77710684     0.66924364     0.96344942
c     0.22289314     0.33075639     0.03655059
c     0.77710685     0.83075641     0.46344943
c     0.22289313     0.16924362     0.53655059
h     0.81656890     0.48896222     0.01395168
h     0.18343108     0.51103781     0.98604833
h     0.81656891     0.01103783     0.51395169
h     0.18343108     0.98896220     0.48604833
h     0.51102902     0.14991886     0.90330399
h     0.48897096     0.85008117     0.09669602
h     0.51102903     0.35008119     0.40330400
h     0.48897096     0.64991884     0.59669602
c     0.81153792     0.80226144     0.88482607
c     0.18846206     0.19773859     0.11517394
c     0.81153793     0.69773861     0.38482607
c     0.18846205     0.30226142     0.61517394
c     0.70512366     0.02817501     0.84547501
c     0.29487632     0.97182502     0.15452500
c     0.70512367     0.47182504     0.34547502
c     0.29487631     0.52817499     0.65452500
c     0.77294682     0.11638105     0.76179655
c     0.22705316     0.88361898     0.23820346
c     0.77294683     0.38361900     0.26179655
c     0.22705315     0.61638103     0.73820346
c     0.89222975     0.86525164     0.80604760
c     0.10777023     0.13474839     0.19395241
c     0.89222976     0.63474841     0.30604761
c     0.10777022     0.36525162     0.69395241
h     0.85205006     0.29267283     0.79449268
h     0.14794992     0.70732720     0.20550733
h     0.85205007     0.20732722     0.29449268
h     0.14794992     0.79267281     0.70550733
h     0.66801497     0.12984385     0.65688910
h     0.33198501     0.87015618     0.34311091
h     0.66801498     0.37015620     0.15688911
h     0.33198501     0.62984383     0.84311091
h     0.85611113     0.73317608     0.72624520
h     0.14388885     0.26682395     0.27375481
h     0.85611114     0.76682397     0.22624521
h     0.14388885     0.23317606     0.77375481
h     0.03984462     0.89819482     0.86406962
h     0.96015537     0.10180521     0.13593039
h     0.03984463     0.60180523     0.36406962
h     0.96015536     0.39819480     0.63593039

K_POINTS automatic
2 2 2 1 1 1

CELL_PARAMETERS cubic
   16.639492000000     0.000000000000    -0.030173000000
    0.000000000000     9.950545000000     0.000000000000
  -12.818103000000     0.000000000000    19.345104000000
