&control
 title='crystal',
 prefix='crystal',
 pseudo_dir='.',
 calculation='vc-relax',
/
&system
 ibrav=0,
 celldm(1)=1.0,
 nat=   104,
 ntyp=  3,
 ecutwfc=60.0,
 ecutrho=600.0,
 xdm=.true.,
 xdm_a1=0.4073,
 xdm_a2=2.4150,
/
&electrons
 conv_thr = 1d-8,
/
&ions
/
&cell
/
ATOMIC_SPECIES
h      1.007940 h.UPF
c     12.010700 c.UPF
o     15.999400 o.UPF

ATOMIC_POSITIONS crystal
o     0.11986276     0.96377836     0.79305966
o     0.88013721     0.03622159     0.20694033
o     0.61984662     0.53623957     0.20693151
o     0.38015334     0.46376037     0.79306849
o     0.38015379     0.03624120     0.29306921
o     0.61984617     0.96375875     0.70693078
o     0.88013765     0.46377672     0.70692196
o     0.11986231     0.53622322     0.29307804
c     0.07585867     0.18041062     0.83325465
c     0.92414129     0.81958933     0.16674535
c     0.57584253     0.31960731     0.16673652
c     0.42415743     0.68039263     0.83326347
c     0.42415381     0.81960254     0.33326544
c     0.57584616     0.18039741     0.66673456
c     0.92413767     0.68041538     0.66672573
c     0.07586230     0.31958456     0.33327426
c     0.16510297     0.83942519     0.87636475
c     0.83489699     0.16057476     0.12363524
c     0.66508683     0.66059274     0.12362642
c     0.33491313     0.33940720     0.87637358
c     0.33490209     0.16060127     0.37636560
c     0.66509788     0.83939868     0.62363440
c     0.83488595     0.33941665     0.62362557
c     0.16511401     0.66058329     0.37637442
h     0.20120333     0.66574606     0.85464383
h     0.79879663     0.33425389     0.14535616
h     0.70118719     0.83427187     0.14534734
h     0.29881277     0.16572807     0.85465266
h     0.29880765     0.33426629     0.35464550
h     0.70119231     0.66573366     0.64535449
h     0.79879152     0.16575163     0.64534567
h     0.20120845     0.83424831     0.35465433
h     0.03749501     0.29158204     0.77542992
h     0.96250496     0.70841791     0.22457007
h     0.53747887     0.20843589     0.22456125
h     0.46252109     0.79156405     0.77543875
h     0.46252318     0.70844051     0.27544899
h     0.53747678     0.29155944     0.72455100
h     0.96250704     0.79157742     0.72454218
h     0.03749292     0.20842252     0.27545782
c     0.14961098     0.97606053     0.96636088
c     0.85038898     0.02393942     0.03363911
c     0.64959485     0.52395739     0.03363029
c     0.35040512     0.47604255     0.96636971
c     0.35038599     0.02394349     0.46637045
c     0.64961397     0.97605646     0.53362954
c     0.85036985     0.47607443     0.53362072
c     0.14963011     0.52392551     0.46637927
c     0.09326942     0.19011156     0.93912326
c     0.90673055     0.80988839     0.06087674
c     0.59325328     0.30990637     0.06086792
c     0.40674669     0.69009357     0.93913208
c     0.40672947     0.80989786     0.43913645
c     0.59327050     0.19010209     0.56086355
c     0.90671333     0.69012006     0.56085472
c     0.09328664     0.30987988     0.43914527
c     0.09084074     0.28908464     0.05235608
c     0.90915923     0.71091531     0.94764392
c     0.59082460     0.21093328     0.94763509
c     0.40917537     0.78906666     0.05236490
c     0.40914330     0.71091726     0.55236511
c     0.59085666     0.28908269     0.44763489
c     0.90912717     0.78910067     0.44762606
c     0.09087280     0.21089927     0.55237393
c     0.15415908     0.05193064     0.08313692
c     0.84584088     0.94806931     0.91686307
c     0.65414295     0.44808728     0.91685425
c     0.34585702     0.55191266     0.08314575
c     0.34582290     0.94806982     0.58313927
c     0.65417706     0.05193013     0.41686072
c     0.84580676     0.55194810     0.41685190
c     0.15419320     0.44805184     0.58314810
h     0.02097537     0.29018574     0.08871160
h     0.97902459     0.70981421     0.91128840
h     0.52095924     0.20983218     0.91127957
h     0.47904073     0.79016776     0.08872042
h     0.47900455     0.70980888     0.58873199
h     0.52099541     0.29019107     0.41126801
h     0.97898842     0.79020905     0.41125918
h     0.02101155     0.20979089     0.58874081
h     0.12379321     0.47504955     0.06474238
h     0.87620676     0.52495040     0.93525762
h     0.62377707     0.02496837     0.93524879
h     0.37622289     0.97503157     0.06475120
h     0.37618850     0.52495075     0.56474365
h     0.62381146     0.47504920     0.43525634
h     0.87617237     0.97506718     0.43524752
h     0.12382760     0.02493276     0.56475248
h     0.22411198     0.10140507     0.11302677
h     0.77588798     0.89859488     0.88697323
h     0.72409584     0.39861285     0.88696440
h     0.27590412     0.60138709     0.11303559
h     0.27586553     0.89859620     0.61301840
h     0.72413443     0.10140375     0.38698160
h     0.77584940     0.60142173     0.38697278
h     0.22415057     0.39857821     0.61302722
h     0.12124554     0.91753166     0.13835209
h     0.87875442     0.08246829     0.86164790
h     0.62122940     0.58248626     0.86163908
h     0.37877056     0.41751368     0.13836092
h     0.37873039     0.08246244     0.63836299
h     0.62126957     0.91753751     0.36163700
h     0.87871425     0.41755548     0.36162818
h     0.12128571     0.58244445     0.63837182

K_POINTS automatic
2 2 2 1 1 1

CELL_PARAMETERS cubic
   26.911288000000     0.000002000000     0.000006000000
    0.000001000000     9.920061000000    -0.000012000000
    0.000008000000    -0.000026000000    23.780120000000
