&control
 title='crystal',
 prefix='crystal',
 pseudo_dir='.',
 calculation='vc-relax',
/
&system
 ibrav=0,
 celldm(1)=1.0,
 nat=    52,
 ntyp=  3,
 ecutwfc=60.0,
 ecutrho=600.0,
 xdm=.true.,
 xdm_a1=0.4073,
 xdm_a2=2.4150,
/
&electrons
 conv_thr = 1d-8,
/
&ions
/
&cell
/
ATOMIC_SPECIES
h      1.007940 h.UPF
c     12.010700 c.UPF
o     15.999400 o.UPF

ATOMIC_POSITIONS crystal
c     0.25350705     0.95518502     0.20104876
c     0.24649295     0.04481498     0.70104875
c     0.75324411     0.54478542     0.79896869
c     0.74675589     0.45521458     0.29896868
c     0.50089255     0.84988468     0.09952190
c     0.99910745     0.15011532     0.59952189
c     0.00076056     0.65012407     0.90046328
c     0.49923944     0.34987593     0.40046328
c     0.40906383     0.01672300     0.14025133
c     0.09093617     0.98327700     0.64025132
c     0.90888425     0.48328663     0.85976076
c     0.59111575     0.51671337     0.35976076
c     0.40130237     0.69013482     0.13680132
c     0.09869763     0.30986518     0.63680132
c     0.90105128     0.80991089     0.86316955
c     0.59894872     0.19008911     0.36316954
o     0.24828457     0.75340290     0.19962648
o     0.25171543     0.24659710     0.69962648
o     0.74800717     0.74657503     0.80035725
o     0.75199283     0.25342497     0.30035725
c     0.65513512     0.97111044     0.03965751
c     0.84486488     0.02888956     0.53965750
c     0.15506552     0.52893811     0.96033925
c     0.34493448     0.47106189     0.46033925
c     0.55604338     0.15692332     0.08547860
c     0.94395662     0.84307668     0.58547859
c     0.05602192     0.34310488     0.91454318
c     0.44397808     0.65689512     0.41454318
h     0.13524258     0.02159855     0.24724231
h     0.36475742     0.97840145     0.74724231
h     0.63503195     0.47838022     0.75277361
h     0.86496805     0.52161978     0.25277360
h     0.41374878     0.53372402     0.13098368
h     0.08625122     0.46627598     0.63098368
h     0.91342756     0.96628169     0.86897850
h     0.58657244     0.03371831     0.36897850
h     0.52914386     0.95991712     0.98738216
h     0.97085614     0.04008288     0.48738216
h     0.02915020     0.54018697     0.01261976
h     0.47084980     0.45981303     0.51261976
h     0.92668598     0.95039822     0.03192155
h     0.57331402     0.04960178     0.53192155
h     0.42660930     0.54960561     0.96805770
h     0.07339070     0.45039439     0.46805770
h     0.37431334     0.25406887     0.05921952
h     0.12568666     0.74593113     0.55921952
h     0.87437164     0.24601671     0.94081319
h     0.62562836     0.75398329     0.44081318
h     0.77217641     0.24253794     0.10439107
h     0.72782359     0.75746206     0.60439107
h     0.27217720     0.25742507     0.89562903
h     0.22782280     0.74257493     0.39562902

K_POINTS automatic
2 2 2 1 1 1

CELL_PARAMETERS cubic
    7.484897000000     0.000798000000     0.000000000000
    0.002278000000    12.981812000000     0.000000000000
    0.000000000000     0.000000000000    35.224973000000
