&control
 title='crystal',
 prefix='crystal',
 pseudo_dir='.',
 calculation='vc-relax',
/
&system
 ibrav=0,
 celldm(1)=1.0,
 nat=    52,
 ntyp=  3,
 ecutwfc=60.0,
 ecutrho=600.0,
 xdm=.true.,
 xdm_a1=0.4073,
 xdm_a2=2.4150,
/
&electrons
 conv_thr = 1d-8,
/
&ions
/
&cell
/
ATOMIC_SPECIES
h      1.007940 h.UPF
c     12.010700 c.UPF
o     15.999400 o.UPF

ATOMIC_POSITIONS crystal
c     0.66920639     0.04676993     0.21268626
c     0.33079359     0.95323007     0.78731375
c     0.66920640     0.45323007     0.71268625
c     0.33079358     0.54676993     0.28731376
c     0.67732157     0.31570639     0.31883661
c     0.32267841     0.68429361     0.68116339
c     0.67732158     0.18429361     0.81883661
c     0.32267840     0.81570639     0.18116340
c     0.78810871     0.21299638     0.19445962
c     0.21189127     0.78700362     0.80554038
c     0.78810872     0.28700362     0.69445962
c     0.21189126     0.71299638     0.30554039
c     0.49378014     0.20968408     0.40987913
c     0.50621984     0.79031592     0.59012088
c     0.49378015     0.29031592     0.90987912
c     0.50621983     0.70968408     0.09012088
o     0.48629074     0.04485219     0.34562535
o     0.51370925     0.95514781     0.65437465
o     0.48629075     0.45514781     0.84562535
o     0.51370923     0.54485219     0.15437466
c     0.84899784     0.47695939     0.26220887
c     0.15100214     0.52304061     0.73779114
c     0.84899785     0.02304061     0.76220886
c     0.15100213     0.97695939     0.23779114
c     0.97335286     0.35993207     0.12358583
c     0.02664713     0.64006793     0.87641417
c     0.97335287     0.14006793     0.62358583
c     0.02664712     0.85993207     0.37641418
h     0.67912588     0.91976149     0.15387130
h     0.32087410     0.08023851     0.84612871
h     0.67912589     0.58023851     0.65387129
h     0.32087409     0.41976149     0.34612872
h     0.35914892     0.22007671     0.51465099
h     0.64085107     0.77992329     0.48534902
h     0.35914893     0.27992329     0.01465098
h     0.64085106     0.72007671     0.98534903
h     0.89127675     0.36818214     0.29286648
h     0.10872324     0.63181786     0.70713352
h     0.89127676     0.13181786     0.79286648
h     0.10872323     0.86818214     0.20713353
h     0.83839104     0.74742741     0.27382251
h     0.16160894     0.25257259     0.72617750
h     0.83839105     0.75257259     0.77382250
h     0.16160893     0.24742741     0.22617751
h     0.08660926     0.17932264     0.07441453
h     0.91339072     0.82067736     0.92558548
h     0.08660927     0.32067736     0.57441452
h     0.91339071     0.67932264     0.42558549
h     0.03779498     0.56206489     0.05531452
h     0.96220501     0.43793511     0.94468549
h     0.03779499     0.93793511     0.55531451
h     0.96220500     0.06206489     0.44468550

K_POINTS automatic
2 2 2 1 1 1

CELL_PARAMETERS cubic
   22.290532000000     0.000000000000     4.642150000000
    0.000000000000     7.604056000000     0.000000000000
   22.984038000000     0.000000000000    24.580951000000
