&control
 title='crystal',
 prefix='crystal',
 pseudo_dir='.',
 calculation='vc-relax',
/
&system
 ibrav=0,
 celldm(1)=1.0,
 nat=    52,
 ntyp=  3,
 ecutwfc=60.0,
 ecutrho=600.0,
 xdm=.true.,
 xdm_a1=0.4073,
 xdm_a2=2.4150,
/
&electrons
 conv_thr = 1d-8,
/
&ions
/
&cell
/
ATOMIC_SPECIES
h      1.007940 h.UPF
c     12.010700 c.UPF
o     15.999400 o.UPF

ATOMIC_POSITIONS crystal
h     0.54676948     0.36335076     0.97393005
h     0.95323783     0.63664872     0.47393057
h     0.04676318     0.13667077     0.02606999
h     0.45323049     0.86332865     0.52606960
c     0.54647449     0.37099352     0.08248262
c     0.95352285     0.62900729     0.58248054
c     0.04647542     0.12903592     0.91751872
c     0.45352368     0.87096342     0.41751848
c     0.41299828     0.37614308     0.18198119
c     0.08699885     0.62385752     0.68198369
c     0.91300157     0.12389630     0.81801746
c     0.58700471     0.87610339     0.31801656
c     0.21620204     0.37950948     0.24861773
c     0.28378918     0.62049068     0.74861761
c     0.71621005     0.12051215     0.75138236
c     0.78379841     0.87948828     0.25138266
c     0.51179267     0.37879265     0.30716590
c     0.98818998     0.62120768     0.80716513
c     0.01180319     0.12123690     0.69283384
c     0.48820236     0.87876315     0.19283517
c     0.32651726     0.37992702     0.38820833
c     0.17346996     0.62007324     0.88820897
c     0.82652975     0.12008913     0.61179160
c     0.67348467     0.87991066     0.11179112
c     0.70322245     0.37594375     0.28100007
c     0.79677459     0.62405632     0.78099874
c     0.20323104     0.12406429     0.71900065
c     0.29678497     0.87593600     0.21900043
h     0.83540835     0.37560945     0.33826033
h     0.66457670     0.62439074     0.83825927
h     0.33542119     0.12438321     0.66174169
h     0.16459037     0.87561681     0.16173823
o     0.72760150     0.37130788     0.14208378
o     0.77239520     0.62869226     0.64208307
o     0.22760427     0.12870343     0.85791692
o     0.27239874     0.87129634     0.35791553
h     0.13031712     0.50476441     0.22874231
h     0.36967471     0.49523552     0.72874294
h     0.63033485     0.99524910     0.77126216
h     0.86967253     0.00475111     0.27126249
h     0.12668994     0.25590581     0.23149699
h     0.37330232     0.74409501     0.73149759
h     0.62668654     0.24410760     0.76849783
h     0.87332179     0.75589290     0.26849840
h     0.30160005     0.25450853     0.44856420
h     0.19838567     0.74549088     0.94856437
h     0.80160781     0.24550051     0.55143047
h     0.69840753     0.75449970     0.05143015
h     0.30272088     0.50377989     0.45025119
h     0.19726426     0.49621988     0.95025112
h     0.80273965     0.99622928     0.54975461
h     0.69727438     0.00377110     0.04975411

K_POINTS automatic
2 2 2 1 1 1

CELL_PARAMETERS cubic
   13.128000000000    -0.000093000000     0.000095000000
   -0.000096000000    13.549129000000     0.000004000000
    0.000136000000     0.000006000000    18.788352000000
