&control
 title='crystal',
 prefix='crystal',
 pseudo_dir='.',
 calculation='vc-relax',
/
&system
 ibrav=0,
 celldm(1)=1.0,
 nat=    52,
 ntyp=  3,
 ecutwfc=60.0,
 ecutrho=600.0,
 xdm=.true.,
 xdm_a1=0.4073,
 xdm_a2=2.4150,
/
&electrons
 conv_thr = 1d-8,
/
&ions
/
&cell
/
ATOMIC_SPECIES
h      1.007940 h.UPF
c     12.010700 c.UPF
o     15.999400 o.UPF

ATOMIC_POSITIONS crystal
o     0.08973992     0.24614028     0.30320922
o     0.91026011     0.75385976     0.69679079
o     0.08973994     0.25385974     0.80320922
o     0.91026010     0.74614030     0.19679078
c     0.23026425     0.47181592     0.29360892
c     0.76973578     0.52818412     0.70639108
c     0.23026428     0.02818410     0.79360893
c     0.76973577     0.97181594     0.20639107
h     0.24600438     0.58975853     0.24472439
h     0.75399566     0.41024151     0.75527561
h     0.24600440     0.91024149     0.74472440
h     0.75399565     0.08975855     0.25527561
c     0.08521604     0.11551924     0.36784206
c     0.91478399     0.88448080     0.63215794
c     0.08521606     0.38448078     0.86784207
c     0.91478398     0.61551926     0.13215793
h     0.98770225     0.93275446     0.37895880
h     0.01229779     0.06724558     0.62104120
h     0.98770227     0.56724556     0.87895881
h     0.01229778     0.43275448     0.12104119
c     0.31032244     0.48167171     0.35156601
c     0.68967760     0.51832833     0.64843399
c     0.31032246     0.01832831     0.85156602
c     0.68967759     0.98167173     0.14843398
c     0.21884467     0.25721966     0.39845909
c     0.78115536     0.74278038     0.60154091
c     0.21884469     0.24278036     0.89845910
c     0.78115535     0.75721968     0.10154090
c     0.44520691     0.58282964     0.39981415
c     0.55479313     0.41717039     0.60018585
c     0.44520693     0.91717038     0.89981416
c     0.55479312     0.08282966     0.10018584
h     0.35040400     0.75433854     0.43473116
h     0.64959603     0.24566150     0.56526884
h     0.35040402     0.74566148     0.93473116
h     0.64959602     0.25433856     0.06526884
h     0.67515697     0.60533062     0.36420097
h     0.32484307     0.39466942     0.63579903
h     0.67515699     0.89466940     0.86420098
h     0.32484306     0.10533064     0.13579902
c     0.34278455     0.33366476     0.45233596
c     0.65721549     0.66633528     0.54766404
c     0.34278457     0.16633526     0.95233597
c     0.65721548     0.83366478     0.04766404
h     0.18836496     0.36438714     0.51708174
h     0.81163508     0.63561290     0.48291826
h     0.18836498     0.13561288     0.01708175
h     0.81163507     0.86438716     0.98291825
h     0.51432051     0.21496334     0.44779716
h     0.48567953     0.78503670     0.55220284
h     0.51432053     0.28503668     0.94779717
h     0.48567952     0.71496336     0.05220283

K_POINTS automatic
2 2 2 1 1 1

CELL_PARAMETERS cubic
   10.239013000000     0.000000000000     0.851875000000
    0.000000000000    10.097077000000     0.000000000000
   14.912415000000     0.000000000000    32.186619000000
