&control
 title='crystal',
 prefix='crystal',
 pseudo_dir='.',
 calculation='vc-relax',
/
&system
 ibrav=0,
 celldm(1)=1.0,
 nat=    52,
 ntyp=  3,
 ecutwfc=60.0,
 ecutrho=600.0,
 xdm=.true.,
 xdm_a1=0.4073,
 xdm_a2=2.4150,
/
&electrons
 conv_thr = 1d-8,
/
&ions
/
&cell
/
ATOMIC_SPECIES
h      1.007940 h.UPF
c     12.010700 c.UPF
o     15.999400 o.UPF

ATOMIC_POSITIONS crystal
o     0.34368341     0.94646397     0.09666849
o     0.84368342     0.05353605     0.09666849
o     0.15631659     0.94646397     0.59666849
o     0.65631660     0.05353605     0.59666849
c     0.45527215     0.08269362     0.08981780
c     0.95527215     0.91730640     0.08981780
c     0.04472786     0.08269362     0.58981780
c     0.54472786     0.91730640     0.58981780
h     0.51805039     0.02865637     0.99539106
h     0.01805039     0.97134365     0.99539106
h     0.98194962     0.02865637     0.49539106
h     0.48194962     0.97134365     0.49539106
c     0.27259224     0.03816066     0.22159040
c     0.77259225     0.96183936     0.22159040
c     0.22740776     0.03816066     0.72159040
c     0.72740777     0.96183936     0.72159040
h     0.18297949     0.94581630     0.23804665
h     0.68297950     0.05418372     0.23804665
h     0.31702051     0.94581630     0.73804665
h     0.81702052     0.05418372     0.73804665
c     0.45362891     0.25612484     0.20801786
c     0.95362892     0.74387518     0.20801786
c     0.04637109     0.25612484     0.70801786
c     0.54637110     0.74387518     0.70801786
c     0.33814031     0.22859863     0.29076560
c     0.83814032     0.77140139     0.29076560
c     0.16185969     0.22859863     0.79076560
c     0.66185970     0.77140139     0.79076560
c     0.49899588     0.46701205     0.31627984
c     0.99899588     0.53298797     0.31627984
c     0.00100413     0.46701205     0.81627984
c     0.50100413     0.53298797     0.81627984
h     0.51400524     0.65130570     0.26031992
h     0.01400525     0.34869432     0.26031992
h     0.98599476     0.65130570     0.76031992
h     0.48599477     0.34869432     0.76031992
h     0.58161735     0.42080658     0.38771531
h     0.08161735     0.57919344     0.38771531
h     0.91838266     0.42080658     0.88771531
h     0.41838266     0.57919344     0.88771531
c     0.36929678     0.43939704     0.40632596
c     0.86929679     0.56060298     0.40632596
c     0.13070322     0.43939704     0.90632596
c     0.63070323     0.56060298     0.90632596
h     0.30904601     0.60719539     0.39964363
h     0.80904601     0.39280463     0.39964363
h     0.19095400     0.60719539     0.89964363
h     0.69095400     0.39280463     0.89964363
h     0.37639509     0.38119311     0.52979747
h     0.87639509     0.61880691     0.52979747
h     0.12360492     0.38119311     0.02979747
h     0.62360492     0.61880691     0.02979747

K_POINTS automatic
2 2 2 1 1 1

CELL_PARAMETERS cubic
   20.120565000000     0.000000000000     0.000000000000
    0.000000000000     9.980510000000     0.000000000000
    0.000000000000     0.000000000000    16.043246000000
