&control
 title='crystal',
 prefix='crystal',
 pseudo_dir='.',
 calculation='vc-relax',
/
&system
 ibrav=0,
 celldm(1)=1.0,
 nat=    52,
 ntyp=  3,
 ecutwfc=60.0,
 ecutrho=600.0,
 xdm=.true.,
 xdm_a1=0.4073,
 xdm_a2=2.4150,
/
&electrons
 conv_thr = 1d-8,
/
&ions
/
&cell
/
ATOMIC_SPECIES
h      1.007940 h.UPF
c     12.010700 c.UPF
o     15.999400 o.UPF

ATOMIC_POSITIONS crystal
o     0.62120105     0.17257961     0.66656916
o     0.87875912     0.82739166     0.16655382
o     0.12121075     0.32741529     0.33342198
o     0.37876428     0.67260997     0.83344927
c     0.48558727     0.20476819     0.54393328
c     0.01439481     0.79522849     0.04392924
c     0.98560175     0.29523691     0.45606544
c     0.51438791     0.70476986     0.95608332
c     0.44129574     0.06623440     0.46623149
c     0.05869879     0.93376900     0.96625501
c     0.94130304     0.43377410     0.53375912
c     0.55869813     0.56622453     0.03375599
c     0.55207371     0.94422597     0.54195428
c     0.94791017     0.05576230     0.04198715
c     0.05208522     0.55577221     0.45803148
c     0.44791176     0.44423683     0.95801514
c     0.66073201     0.01104827     0.66428237
c     0.83923393     0.98892433     0.16428790
c     0.16075589     0.48894385     0.33571437
c     0.33923111     0.51107789     0.83571715
c     0.33981745     0.95122428     0.34915633
c     0.16020677     0.04879097     0.84920539
c     0.83981356     0.54878040     0.65083987
c     0.66020869     0.45120534     0.15080908
c     0.46495644     0.81578897     0.43228241
c     0.03505592     0.18421401     0.93234049
c     0.96495752     0.68421023     0.56770851
c     0.53506524     0.31578541     0.06766550
h     0.44278667     0.32754550     0.53552683
h     0.05717793     0.67245076     0.03551391
h     0.94280987     0.17246183     0.46446242
h     0.55717046     0.82754679     0.96449411
h     0.36405124     0.96881704     0.21439857
h     0.13599489     0.03121803     0.71444262
h     0.86405244     0.53118720     0.78560051
h     0.63597893     0.46877835     0.28557398
h     0.18569517     0.93957850     0.36953087
h     0.31432690     0.06042658     0.86960768
h     0.68568882     0.56042537     0.63045435
h     0.81433381     0.43956785     0.13040758
h     0.56389656     0.75732486     0.34540467
h     0.93613755     0.24269267     0.84545609
h     0.06388524     0.74268117     0.65458624
h     0.43615058     0.25729883     0.15454386
h     0.38384209     0.72569424     0.50065321
h     0.11615814     0.27429858     0.00072431
h     0.88384306     0.77430741     0.49934121
h     0.61617100     0.22570076     0.99928038
h     0.76364578     0.97199115     0.75689469
h     0.73631048     0.02798529     0.25689469
h     0.26366428     0.52801613     0.24309747
h     0.23630826     0.47201138     0.74310647

K_POINTS automatic
2 2 2 1 1 1

CELL_PARAMETERS cubic
   13.234166000000     0.000107000000     0.000019000000
    0.000187000000    15.953477000000     0.000108000000
    0.000019000000     0.000081000000    15.032836000000
