&control
 title='crystal',
 prefix='crystal',
 pseudo_dir='.',
 calculation='vc-relax',
/
&system
 ibrav=0,
 celldm(1)=1.0,
 nat=   104,
 ntyp=  3,
 ecutwfc=60.0,
 ecutrho=600.0,
 xdm=.true.,
 xdm_a1=0.4073,
 xdm_a2=2.4150,
/
&electrons
 conv_thr = 1d-8,
/
&ions
/
&cell
/
ATOMIC_SPECIES
h      1.007940 h.UPF
c     12.010700 c.UPF
o     15.999400 o.UPF

ATOMIC_POSITIONS crystal
o     0.23417289     0.37289332     0.54701300
o     0.76582708     0.62710670     0.45298696
o     0.73417288     0.37289332     0.95298695
o     0.26582709     0.62710670     0.04701302
o     0.73417521     0.12712537     0.45298691
o     0.26582476     0.87287465     0.54701305
o     0.23417519     0.12712537     0.04701304
o     0.76582477     0.87287465     0.95298693
c     0.31893530     0.33405718     0.68194745
c     0.68106467     0.66594283     0.31805251
c     0.81893529     0.33405718     0.81805250
c     0.18106468     0.66594283     0.18194747
c     0.81893804     0.16595886     0.31805962
c     0.18106193     0.83404116     0.68194034
c     0.31893802     0.16595886     0.18194033
c     0.68106194     0.83404116     0.81805964
h     0.29687747     0.29958365     0.85562954
h     0.70312250     0.70041637     0.14437042
h     0.79687746     0.29958365     0.64437041
h     0.20312251     0.70041637     0.35562956
h     0.79688018     0.20044008     0.14438571
h     0.20311979     0.79955994     0.85561425
h     0.29688017     0.20044008     0.35561424
h     0.70311980     0.79955994     0.64438573
c     0.27484533     0.41566829     0.33195336
c     0.72515464     0.58433173     0.66804660
c     0.77484531     0.41566829     0.16804659
c     0.22515465     0.58433173     0.83195338
c     0.77484640     0.08434196     0.66804017
c     0.22515357     0.91565806     0.33195979
c     0.27484639     0.08434196     0.83195978
c     0.72515358     0.91565806     0.16804019
h     0.21598195     0.44867992     0.21166798
h     0.78401802     0.55132010     0.78833198
h     0.71598194     0.44867992     0.28833197
h     0.28401803     0.55132010     0.71166800
h     0.71598366     0.05133318     0.78832176
h     0.28401631     0.94866684     0.21167820
h     0.21598365     0.05133318     0.71167819
h     0.78401632     0.94866684     0.28832178
c     0.41063574     0.35208616     0.55293534
c     0.58936423     0.64791386     0.44706462
c     0.91063573     0.35208616     0.94706461
c     0.08936424     0.64791386     0.05293536
c     0.91063835     0.14791995     0.44706743
c     0.08936162     0.85208007     0.55293253
c     0.41063834     0.14791995     0.05293252
c     0.58936162     0.85208007     0.94706745
c     0.38271940     0.40364368     0.33298765
c     0.61728057     0.59635634     0.66701231
c     0.88271939     0.40364368     0.16701230
c     0.11728058     0.59635634     0.83298767
c     0.88272240     0.09635872     0.66700627
c     0.11727757     0.90364130     0.33299369
c     0.38272238     0.09635872     0.83299368
c     0.61727758     0.90364130     0.16700629
c     0.52931903     0.35031306     0.48508616
c     0.47068094     0.64968696     0.51491380
c     0.02931901     0.35031306     0.01491379
c     0.97068095     0.64968696     0.98508618
c     0.02932137     0.14968322     0.51491788
c     0.97067860     0.85031680     0.48508208
c     0.52932135     0.14968322     0.98508207
c     0.47067861     0.85031680     0.01491790
h     0.56312507     0.27989190     0.44851813
h     0.43687490     0.72010812     0.55148184
h     0.06312506     0.27989190     0.05148183
h     0.93687491     0.72010812     0.94851815
h     0.06312735     0.22010146     0.55149980
h     0.93687262     0.77989856     0.44850016
h     0.56312734     0.22010146     0.94850015
h     0.43687263     0.77989856     0.05149982
h     0.58264079     0.38809278     0.61430570
h     0.41735918     0.61190723     0.38569426
h     0.08264078     0.38809278     0.88569425
h     0.91735919     0.61190723     0.11430572
h     0.08264413     0.11190395     0.38569256
h     0.91735584     0.88809607     0.61430741
h     0.58264411     0.11190395     0.11430740
h     0.41735585     0.88809607     0.88569258
c     0.49767607     0.40786817     0.24070404
c     0.50232390     0.59213184     0.75929592
c     0.99767605     0.40786817     0.25929591
c     0.00232391     0.59213184     0.74070406
c     0.99767757     0.09212469     0.75928941
c     0.00232240     0.90787533     0.24071055
c     0.49767756     0.09212469     0.74071054
c     0.50232241     0.90787533     0.25928943
h     0.51311289     0.37070306     0.06411871
h     0.48688708     0.62929696     0.93588125
h     0.01311287     0.37070306     0.43588124
h     0.98688709     0.62929696     0.56411873
h     0.01311379     0.12928490     0.93588085
h     0.98688618     0.87071512     0.06411911
h     0.51311378     0.12928490     0.56411910
h     0.48688619     0.87071512     0.43588087
h     0.53262468     0.47901763     0.22906760
h     0.46737529     0.52098239     0.77093236
h     0.03262467     0.47901763     0.27093235
h     0.96737530     0.52098239     0.72906762
h     0.03262625     0.02097249     0.77091643
h     0.96737372     0.97902753     0.22908353
h     0.53262624     0.02097249     0.72908352
h     0.46737373     0.97902753     0.27091645

K_POINTS automatic
2 2 2 1 1 1

CELL_PARAMETERS cubic
   23.581757000000     0.000422000000     0.000000000000
    0.000478000000    26.645773000000     0.000000000000
    0.000000000000     0.000000000000    10.076020000000
