&control
 title='crystal',
 prefix='crystal',
 pseudo_dir='.',
 calculation='vc-relax',
/
&system
 ibrav=0,
 celldm(1)=1.0,
 nat=    52,
 ntyp=  3,
 ecutwfc=60.0,
 ecutrho=600.0,
 xdm=.true.,
 xdm_a1=0.4073,
 xdm_a2=2.4150,
/
&electrons
 conv_thr = 1d-8,
/
&ions
/
&cell
/
ATOMIC_SPECIES
h      1.007940 h.UPF
c     12.010700 c.UPF
o     15.999400 o.UPF

ATOMIC_POSITIONS crystal
c     0.26476533     0.29237290     0.25952962
c     0.23523467     0.70762713     0.75952960
c     0.76476144     0.20760515     0.74047828
c     0.73523856     0.79239488     0.24047826
c     0.36868277     0.40351358     0.33084022
c     0.13131723     0.59648645     0.83084020
c     0.86867561     0.09647631     0.66915646
c     0.63132439     0.90352372     0.16915644
c     0.38604385     0.31598535     0.56114098
c     0.11395615     0.68401467     0.06114096
c     0.88603581     0.18401423     0.43886300
c     0.61396419     0.81598580     0.93886298
c     0.28417259     0.19474803     0.51579578
c     0.21582741     0.80525200     0.01579576
c     0.78416597     0.30523751     0.48421417
c     0.71583403     0.69476252     0.98421415
c     0.45136743     0.52774298     0.31257307
c     0.04863257     0.47225704     0.81257305
c     0.95135522     0.97225247     0.68741145
c     0.54864478     0.02774756     0.18741143
c     0.47898517     0.38889801     0.67802969
c     0.02101483     0.61110202     0.17802967
c     0.97897467     0.11112053     0.32196439
c     0.52102533     0.88887949     0.82196437
o     0.52040890     0.52018633     0.52663833
o     0.97959110     0.47981370     0.02663831
o     0.02039597     0.97982973     0.47334419
o     0.47960403     0.02017030     0.97334417
h     0.18141709     0.36049681     0.24493886
h     0.31858291     0.63950322     0.74493884
h     0.68141159     0.13947557     0.75507488
h     0.81858841     0.86052446     0.25507486
h     0.27787489     0.21352684     0.09255302
h     0.22212511     0.78647318     0.59255300
h     0.77787645     0.28644779     0.90745291
h     0.72212355     0.71355224     0.40745290
h     0.21155011     0.20557159     0.64827007
h     0.28844989     0.79442844     0.14827005
h     0.71154488     0.29439924     0.35174255
h     0.78845512     0.70560078     0.85174253
h     0.30747783     0.05919792     0.49623690
h     0.19252217     0.94080211     0.99623688
h     0.80747130     0.44079136     0.50377346
h     0.69252870     0.55920866     0.00377344
h     0.47606640     0.62643048     0.18058156
h     0.02393360     0.37356955     0.68058154
h     0.97605062     0.87356336     0.81939475
h     0.52394938     0.12643667     0.31939473
h     0.52559148     0.37134311     0.85171150
h     0.97440852     0.62865692     0.35171148
h     0.02558199     0.12868761     0.14828953
h     0.47441801     0.87131242     0.64828951

K_POINTS automatic
2 2 2 1 1 1

CELL_PARAMETERS cubic
   21.609228000000    -0.000620000000     0.000000000000
   -0.000411000000    14.749316000000     0.000000000000
    0.000000000000     0.000000000000    10.115304000000
