&control
 title='crystal',
 prefix='crystal',
 pseudo_dir='.',
 calculation='vc-relax',
/
&system
 ibrav=0,
 celldm(1)=1.0,
 nat=    52,
 ntyp=  3,
 ecutwfc=60.0,
 ecutrho=600.0,
 xdm=.true.,
 xdm_a1=0.4073,
 xdm_a2=2.4150,
/
&electrons
 conv_thr = 1d-8,
/
&ions
/
&cell
/
ATOMIC_SPECIES
h      1.007940 h.UPF
c     12.010700 c.UPF
o     15.999400 o.UPF

ATOMIC_POSITIONS crystal
c     0.10925156     0.63343800     0.14293870
c     0.89074845     0.36656199     0.64293869
c     0.39071972     0.13343421     0.64294067
c     0.60928028     0.86656578     0.14294066
c     0.17243359     0.60677093     0.02683304
c     0.82756642     0.39322906     0.52683304
c     0.32753399     0.10677127     0.52682641
c     0.67246602     0.89322872     0.02682640
c     0.07525089     0.37784453     0.01132369
c     0.92474912     0.62215546     0.51132368
c     0.42471507     0.87784247     0.51132526
c     0.57528494     0.12215752     0.01132526
c     0.00293758     0.37705345     0.12603072
c     0.99706242     0.62294654     0.62603071
c     0.49702474     0.87704534     0.62603331
c     0.50297526     0.12295465     0.12603331
c     0.25008978     0.67070899     0.93152172
c     0.74991023     0.32929100     0.43152172
c     0.24990695     0.17070610     0.43152083
c     0.75009306     0.82929389     0.93152083
c     0.09522380     0.30790585     0.90674027
c     0.90477621     0.69209414     0.40674026
c     0.40475205     0.80790262     0.40674258
c     0.59524795     0.19209737     0.90674258
o     0.20405312     0.48675387     0.85634619
o     0.79594689     0.51324612     0.35634618
o     0.29594593     0.98676317     0.35634109
o     0.70405408     0.01323682     0.85634109
h     0.21394839     0.62855092     0.20528104
h     0.78605162     0.37144907     0.70528104
h     0.28602426     0.12855582     0.70528238
h     0.71397575     0.87144417     0.20528237
h     0.02237258     0.79736370     0.15742390
h     0.97762742     0.20263629     0.65742389
h     0.47760560     0.29735430     0.65741939
h     0.52239440     0.70264569     0.15741938
h     0.04948649     0.22169327     0.17744446
h     0.95051352     0.77830672     0.67744446
h     0.45047151     0.72169035     0.67744871
h     0.54952850     0.27830964     0.17744870
h     0.85607033     0.39237309     0.13316667
h     0.14392967     0.60762690     0.63316666
h     0.64389246     0.89236408     0.63316906
h     0.35610755     0.10763591     0.13316905
h     0.33333494     0.82272794     0.90118163
h     0.66666506     0.17727205     0.40118162
h     0.16668136     0.32275853     0.40117519
h     0.83331865     0.67724146     0.90117518
h     0.04839907     0.15637275     0.85562309
h     0.95160094     0.84362724     0.35562308
h     0.45157532     0.65637721     0.35561996
h     0.54842469     0.34362278     0.85561995

K_POINTS automatic
2 2 2 1 1 1

CELL_PARAMETERS cubic
   13.989722000000    -0.000095000000     0.000000000000
   -0.000066000000    10.011260000000     0.000000000000
    0.000000000000     0.000000000000    23.428614000000
