&control
 title='crystal',
 prefix='crystal',
 pseudo_dir='.',
 calculation='vc-relax',
/
&system
 ibrav=0,
 celldm(1)=1.0,
 nat=    26,
 ntyp=  3,
 ecutwfc=60.0,
 ecutrho=600.0,
 xdm=.true.,
 xdm_a1=0.4073,
 xdm_a2=2.4150,
/
&electrons
 conv_thr = 1d-8,
/
&ions
/
&cell
/
ATOMIC_SPECIES
h      1.007940 h.UPF
c     12.010700 c.UPF
o     15.999400 o.UPF

ATOMIC_POSITIONS crystal
h     0.47010502     0.26454493     0.19544791
h     0.52989493     0.76454492     0.80455208
h     0.88054550     0.07492549     0.13318491
h     0.11945445     0.57492548     0.86681508
c     0.89416663     0.21203090     0.04917633
c     0.10583332     0.71203089     0.95082365
c     0.63499246     0.33496386     0.09144602
c     0.36500750     0.83496386     0.90855397
c     0.87058504     0.19803999     0.82606977
c     0.12941491     0.69803998     0.17393022
c     0.63991001     0.31206345     0.86285108
c     0.36008995     0.81206345     0.13714890
c     0.56028969     0.32422790     0.68284502
c     0.43971026     0.82422789     0.31715496
c     0.92560097     0.14258981     0.62496849
c     0.07439899     0.64258980     0.37503150
h     0.40346827     0.39074006     0.62759150
h     0.59653168     0.89074005     0.37240848
h     0.07261012     0.05760830     0.52267129
h     0.92738984     0.55760829     0.47732869
o     0.73533064     0.21975134     0.53432640
o     0.26466932     0.71975133     0.46567359
h     0.65218653     0.48317827     0.14482655
h     0.34781342     0.98317826     0.85517344
h     0.06452670     0.29075561     0.07409610
h     0.93547325     0.79075560     0.92590388

K_POINTS automatic
2 2 2 1 1 1

CELL_PARAMETERS cubic
    9.969068000000     0.000000000000     0.387962000000
    0.000000000000    13.058268000000     0.000000000000
    2.371070000000     0.000000000000    12.347444000000
