%nprocs=4
%mem=2GB
#p hf aug-cc-pvdz output=wfx scf=(conver=6) int=(grid=ultrafine)

title

0 1
  C   -1.491858717   0.101062052  -0.000000000
  O   -0.926994779   1.170861437  -0.000000000
  O   -0.847305949  -1.070582257   0.000000000
  H    0.129157077  -0.901122434   0.000000000
  C   -2.986137905  -0.074097992   0.000000000
  H   -3.290093155  -0.644535420   0.876735803
  H   -3.290093155  -0.644535420  -0.876735803
  H   -3.471509099   0.895533643  -0.000000000
  H    3.518116931  -0.035147378   2.026463094
  H    3.165043869   1.515571571   1.225744873
  H    4.825982261   0.855731965   1.216696173
  H    3.518116931  -0.035147378  -2.026463094
  H    3.165043869   1.515571571  -1.225744873
  H    4.825982261   0.855731965  -1.216696173
  C    3.763276111   0.603462280   1.182021028
  O    3.468788149  -0.131902222   0.000000000
  C    3.763276111   0.603462280  -1.182021028

1.005_OH-O__aceticacid--dimethylether_200.wfx

