%nprocs=4
%mem=2GB
#p hf aug-cc-pvdz output=wfx scf=(conver=6) int=(grid=ultrafine)

title

0 1
C       -1.2026260300        -0.0807338810         0.0013504800
O       -0.6112848100        -1.1380478940         0.1024430580
C       -2.6820448030         0.0367509910        -0.2243219220
O       -0.6000495890         1.1058679860         0.0833280240
H       -3.1207905130        -0.9497240250        -0.3232011900
H       -2.8736725170         0.6268095180        -1.1192196040
H       -3.1361520920         0.5641367450         0.6137779770
H        0.3664566930         0.9543926570         0.2370926810

1.008_OH-O__aceticacid--methanol_1.wfx

