%nprocs=4
%mem=2GB
#p hf aug-cc-pvdz output=wfx scf=(conver=6) int=(grid=ultrafine)

title

0 1
  C   -1.676709350  -0.155545695   0.000000000
  O   -0.993533620  -1.155786393   0.000000000
  O   -1.173945330   1.080177302   0.000000000
  H   -0.185940107   1.035554940   0.000000000
  C   -3.180974158  -0.156065960   0.000000000
  H   -3.550265591  -1.175547772   0.000000000
  H   -3.549007807   0.375205388  -0.876744631
  H   -3.549007807   0.375205388   0.876744631
  H    3.557813695  -1.065056412   0.874204506
  H    3.557813695  -1.065056412  -0.874204506
  H    3.892756738   0.458284535   0.000000000
  H    1.162381750  -1.039150218   0.000000000
  C    3.310268039  -0.458617988   0.000000000
  C    1.845163082  -0.175462650   0.000000000
  O    1.380527634   0.945439090   0.000000000

1.001_OH-O__aceticacid--acetaldehyde_090.wfx

