%nprocs=4
%mem=2GB
#p hf aug-cc-pvdz output=wfx scf=(conver=6) int=(grid=ultrafine)

title

0 1
C       -2.0753379080         0.0740075720         0.0474915810
C       -3.5657182520        -0.1242261610        -0.0224507690
O       -1.4098961420        -1.0633517310        -0.1588778810
O       -1.5388432780         1.1369480720         0.2652963120
H       -3.8378837460        -0.5395523640        -0.9918347010
H       -3.8761737140        -0.8429884960         0.7348896000
H       -4.0719128810         0.8219164110         0.1337434810
H       -0.4363662880        -0.9106854760        -0.0977523060

1.003_OH-O__aceticacid--acetone_1.wfx

