%nprocs=4
%mem=2GB
#p hf aug-cc-pvdz output=wfx scf=(conver=6) int=(grid=ultrafine)

title

0 1
H        1.8483013950        -0.4197574840         2.0264630940
C        2.0934605750         0.2188521740         1.1820210280
O        1.7989726130        -0.5165123280         0.0000000000
H        1.4952283330         1.1309614650         1.2257448730
H        3.1561667250         0.4711218590         1.2166961730
C        2.0934605750         0.2188521740        -1.1820210280
H        1.8483013950        -0.4197574840        -2.0264630940
H        1.4952283330         1.1309614650        -1.2257448730
H        3.1561667250         0.4711218590        -1.2166961730

1.005_OH-O__aceticacid--dimethylether_2.wfx

