%nprocs=4
%mem=2GB
#p hf aug-cc-pvdz output=wfx scf=(conver=6) int=(grid=ultrafine)

title

0 1
H       -2.0667170150         2.0147766600         0.0000000000
N       -1.4685412310         1.2108381170         0.0000000000
C       -1.9803362700        -0.0266630920         0.0000000000
H       -0.4526423010         1.3254550870         0.0000000000
C       -3.4830346960        -0.1621870090         0.0000000000
O       -1.2699707020        -1.0365781860         0.0000000000
H       -3.7809489230        -0.7330354610        -0.8774485420
H       -3.7809489230        -0.7330354610         0.8774485420
H       -4.0007470450         0.7942471120         0.0000000000

1.002_OH-O__aceticacid--acetamide_2.wfx

