%nprocs=4
%mem=2GB
#p hf aug-cc-pvdz output=wfx scf=(conver=6) int=(grid=ultrafine)

title

0 1
C       -1.6767093500        -0.1555456950         0.0000000000
C       -3.1809741580        -0.1560659600         0.0000000000
O       -0.9935336200        -1.1557863930         0.0000000000
O       -1.1739453300         1.0801773020         0.0000000000
H       -3.5502655910        -1.1755477720         0.0000000000
H       -3.5490078070         0.3752053880        -0.8767446310
H       -3.5490078070         0.3752053880         0.8767446310
H       -0.1859401070         1.0355549400         0.0000000000

1.001_OH-O__aceticacid--acetaldehyde_1.wfx

