%nprocs=4
%mem=2GB
#p hf aug-cc-pvdz output=wfx scf=(conver=6) int=(grid=ultrafine)

title

0 1
H       -3.5050337850        -0.3143477180        -0.5388503450
C       -3.2467457340         0.3796816050         0.2570195780
H       -3.2185270270        -0.1468055370         1.2076872290
H       -3.9670517940         1.1893455380         0.2974790630
O       -1.9855789370         1.0148832850        -0.0107282250
C       -0.8819257480         0.2798047220        -0.1218403560
O       -1.1111480730        -1.0249676380         0.0427998480
O        0.1892833080         0.7821900860        -0.3506866620
C        0.0381730570        -1.8899660460        -0.0723828780
H       -0.3484172390        -2.8943710410         0.0570941810
H        0.4954471680        -1.7769921160        -1.0512662640
H        0.7705014980        -1.6545108080         0.6938625520

1.019_OH-O__methanol--dimethylcarbonate_2.wfx

