%nprocs=4
%mem=2GB
#p hf aug-cc-pvdz output=wfx scf=(conver=6) int=(grid=ultrafine)

title

0 1
  O    2.086138680   0.036875492  -0.640328801
  H    1.254507692   0.488108996  -0.419264519
  C    2.896636269   0.005598133   0.516670310
  H    3.809307845  -0.533808290   0.268209454
  H    2.409354595  -0.513671280   1.349953454
  H    3.173247693   1.009378863   0.854756922
  H   -3.211915489  -0.466127229   0.008619575
  H   -2.849814753   1.225587419   0.061301910
  H    0.130981898  -1.530059100  -0.575478725
  H   -1.560233431  -2.076808534  -0.418471399
  H   -0.587495734  -1.734561637   1.016714051
  O   -0.389137751   0.942240517   0.013651314
  C   -1.201351653   0.027936586   0.001981427
  N   -2.534362115   0.271857881   0.028585324
  C   -0.790375393  -1.425639077  -0.009368827

1.016_OH-O__methanol--acetamide_095.wfx

