%nprocs=4
%mem=2GB
#p hf aug-cc-pvdz output=wfx scf=(conver=6) int=(grid=ultrafine)

title

0 1
  O    1.469321090  -0.481309455   0.000000000
  H    0.791535506   0.209758574   0.000000000
  C    2.752614712   0.116432450   0.000000000
  H    3.487671960  -0.686242312   0.000000000
  H    2.919026064   0.733550505   0.888318259
  H    2.919026064   0.733550505  -0.888318259
  H   -2.251703476  -1.536002578   0.874460917
  H   -2.251703476  -1.536002578  -0.874460917
  H   -0.691379899  -1.523274178   0.000000000
  H   -2.791812027   0.770703533   0.000000000
  C   -1.715093844  -1.160253640   0.000000000
  C   -1.775197128   0.333393906   0.000000000
  O   -0.816718126   1.068688494   0.000000000

1.015_OH-O__methanol--acetaldehyde_095.wfx

