%nprocs=4
%mem=2GB
#p hf aug-cc-pvdz output=wfx scf=(conver=6) int=(grid=ultrafine)

title

0 1
H       -1.9735798270        -1.9662081510        -0.8958532650
C       -1.4620080110        -1.6270338810         0.0000000000
H       -1.9735798270        -1.9662081510         0.8958532650
H       -0.4169986430        -1.9103806420         0.0000000000
O       -1.4417492320        -0.1567352940         0.0000000000
C       -2.5917313360         0.4204280770         0.0000000000
N       -3.6062034950         0.9701390940         0.0000000000

1.010_OH-O__aceticacid--methylcyanate_2.wfx

