%nprocs=4
%mem=2GB
#p hf aug-cc-pvdz output=wfx scf=(conver=6) int=(grid=ultrafine)

title

0 1
  O    2.086138680   0.036875492  -0.640328801
  H    1.254507692   0.488108996  -0.419264519
  C    2.896636269   0.005598133   0.516670310
  H    3.809307845  -0.533808290   0.268209454
  H    2.409354595  -0.513671280   1.349953454
  H    3.173247693   1.009378863   0.854756922
  H   -3.298423144  -0.442225570   0.031404619
  H   -2.936322408   1.249489078   0.084086954
  H    0.044474243  -1.506157441  -0.552693681
  H   -1.646741086  -2.052906875  -0.395686355
  H   -0.674003389  -1.710659978   1.039499095
  O   -0.475645406   0.966142176   0.036436358
  C   -1.287859308   0.051838245   0.024766471
  N   -2.620869770   0.295759540   0.051370368
  C   -0.876883048  -1.401737418   0.013416217

1.016_OH-O__methanol--acetamide_100.wfx

