%nprocs=4
%mem=2GB
#p hf aug-cc-pvdz output=wfx scf=(conver=6) int=(grid=ultrafine)

title

0 1
O        2.0861386800         0.0368754920        -0.6403288010
H        1.2545076920         0.4881089960        -0.4192645190
C        2.8966362690         0.0055981330         0.5166703100
H        2.4093545950        -0.5136712800         1.3499534540
H        3.8093078450        -0.5338082900         0.2682094540
H        3.1732476930         1.0093788630         0.8547569220

1.016_OH-O__methanol--acetamide_1.wfx

