%nprocs=4
%mem=2GB
#p hf aug-cc-pvdz output=wfx scf=(conver=6) int=(grid=ultrafine)

title

0 1
  C    2.088996400   0.053952526   0.000000000
  O    1.727947658  -1.098490085   0.000000000
  O    1.229310109   1.087221194   0.000000000
  H    0.324001586   0.732778241   0.000000000
  C    3.517859214   0.513045574   0.000000000
  H    4.179691850  -0.345480947   0.000000000
  H    3.705216031   1.131234327   0.876881860
  H    3.705216031   1.131234327  -0.876881860
  H   -1.708717204  -1.832781121  -0.895853265
  H   -1.708717204  -1.832781121   0.895853265
  H   -0.152136020  -1.776953612   0.000000000
  C   -1.197145388  -1.493606851   0.000000000
  O   -1.176886609  -0.023308264   0.000000000
  C   -2.326868713   0.553855107   0.000000000
  N   -3.341340872   1.103566124   0.000000000

1.010_OH-O__aceticacid--methylcyanate_085.wfx

