%nprocs=4
%mem=2GB
#p hf aug-cc-pvdz output=wfx scf=(conver=6) int=(grid=ultrafine)

title

0 1
H        1.4993410010        -1.8836956370         0.8448024010
C        1.1146507450        -1.4185703520        -0.0655395220
H        0.0544164570        -1.6339291040        -0.1568602560
H        1.6657818610        -1.8559790600        -0.8985231340
C        1.3607208150         0.0669005120         0.0074044070
C        2.7940971110         0.5255963410        -0.0881740260
O        0.4561131650         0.8657833550         0.1410594900
H        2.8641890800         1.5921984400         0.1011920420
H        3.1770407330         0.3071352770        -1.0869619660
H        3.4194369220        -0.0242929380         0.6160275270

1.018_OH-O__methanol--acetone_2.wfx

