%nprocs=4
%mem=2GB
#p hf aug-cc-pvdz output=wfx scf=(conver=6) int=(grid=ultrafine)

title

0 1
H        2.6456228620        -0.9907901900        -1.4853199190
C        2.2070710110        -1.1734783100        -0.5117363270
H        1.2829683620        -1.7387764720        -0.6065096150
N        1.7928637470         0.1370257670         0.0601026050
H        2.8916819700        -1.6449724830         0.1815614830
O        1.3426858080         0.9660877800        -0.7267528400
O        1.8755534150         0.2944265300         1.2573667270

1.011_OH-O__aceticacid--nitromethane_2.wfx

