%nprocs=4
%mem=2GB
#p hf aug-cc-pvdz output=wfx scf=(conver=6) int=(grid=ultrafine)

title

0 1
O       -2.0807224110         0.3747434580        -0.2770172550
H       -1.3180262110        -0.2208474170        -0.2584042670
C       -3.2083083120        -0.2969348560         0.2534068000
H       -3.4841703410        -1.1713664920        -0.3439503040
H       -4.0425547770         0.4019476250         0.2396736180
H       -3.0476915520        -0.6191567810         1.2871205470

1.017_OH-O__methanol--aceticacid_1.wfx

