%nprocs=4
%mem=2GB
#p hf aug-cc-pvdz output=wfx scf=(conver=6) int=(grid=ultrafine)

title

0 1
  O   -1.557072727   0.447227590   0.000000000
  H   -0.883414953  -0.243086785   0.000000000
  C   -2.846448442  -0.143949748   0.000000000
  H   -3.572929249   0.665717419   0.000000000
  H   -3.015623971  -0.758297651   0.888936421
  H   -3.015623971  -0.758297651  -0.888936421
  H    2.158915025   1.524940031   0.876008433
  H    2.158915025   1.524940031  -0.876008433
  H    0.583963632   1.383433751   0.000000000
  C    1.641669749   1.129698018   0.000000000
  N    1.888112994  -0.322377319   0.000000000
  O    0.896687675  -1.002808887   0.000000000

1.026_OH-O__methanol--nitrosomethane_095.wfx

