%nprocs=4
%mem=2GB
#p hf aug-cc-pvdz output=wfx scf=(conver=6) int=(grid=ultrafine)

title

0 1
  O    2.388680733   0.327663734   0.000000000
  H    1.537962776  -0.132351328   0.000000000
  C    3.428661986  -0.632073870   0.000000000
  H    4.373781030  -0.091970573   0.000000000
  H    3.399035303  -1.271319579  -0.888004961
  H    3.399035303  -1.271319579   0.888004961
  H    0.118631371   1.656622992   0.884415489
  H   -0.921783612   2.807060082   0.000000000
  H    0.118631371   1.656622992  -0.884415489
  H   -3.197040599  -0.986744250  -0.877420088
  C   -1.343973709  -0.396991827   0.000000000
  O   -1.618765392   0.910707747   0.000000000
  C   -0.493224942   1.811468897   0.000000000
  C   -2.597558108  -1.224445774   0.000000000
  O   -0.222021374  -0.849983141   0.000000000
  H   -2.339421423  -2.277469114   0.000000000
  H   -3.197040599  -0.986744250   0.877420088

1.024_OH-O__methanol--methylacetate_100.wfx

