%nprocs=4
%mem=2GB
#p hf aug-cc-pvdz output=wfx scf=(conver=6) int=(grid=ultrafine)

title

0 1
O       -1.8020119680         0.0000000000        -0.6883786080
H       -0.8341881540         0.0000000000        -0.7117671540
C       -2.2043328850         0.0000000000         0.6662258780
H       -3.2925706620         0.0000000000         0.6877670350
H       -1.8540754470        -0.8882924930         1.2038506890
H       -1.8540754470         0.8882924930         1.2038506890

1.020_OH-O__methanol--dimethylether_1.wfx

