%nprocs=4
%mem=2GB
#p hf aug-cc-pvdz output=wfx scf=(conver=6) int=(grid=ultrafine)

title

0 1
  O   -2.033801120  -0.367838982   0.143631812
  H   -1.354642634   0.288948179   0.339232156
  C   -3.222112874   0.288656615  -0.270899880
  H   -3.953989435  -0.482557613  -0.500340226
  H   -3.063664480   0.893437237  -1.167950974
  H   -3.629650024   0.927772303   0.516891414
  H   -0.406501643  -1.550367804  -0.311325668
  H    0.638989990  -1.763162498   1.105904978
  H    1.328247995  -2.033387478  -0.522529152
  C    0.610169572  -1.471092700   0.059428657
  N    1.009302100  -0.029909037   0.012248454
  O    0.173980306   0.794942284   0.362571867
  O    2.136802437   0.238433195  -0.346410302

1.025_OH-O__methanol--nitromethane_080.wfx

