%nprocs=4
%mem=2GB
#p hf aug-cc-pvdz output=wfx scf=(conver=6) int=(grid=ultrafine)

title

0 1
  O   -1.557072727   0.447227590   0.000000000
  H   -0.883414953  -0.243086785   0.000000000
  C   -2.846448442  -0.143949748   0.000000000
  H   -3.572929249   0.665717419   0.000000000
  H   -3.015623971  -0.758297651   0.888936421
  H   -3.015623971  -0.758297651  -0.888936421
  H    1.877846189   1.644896152   0.876008433
  H    1.877846189   1.644896152  -0.876008433
  H    0.302894796   1.503389872   0.000000000
  C    1.360600913   1.249654139   0.000000000
  N    1.607044158  -0.202421198   0.000000000
  O    0.615618839  -0.882852766   0.000000000

1.026_OH-O__methanol--nitrosomethane_080.wfx

