%nprocs=4
%mem=2GB
#p hf aug-cc-pvdz output=wfx scf=(conver=6) int=(grid=ultrafine)

title

0 1
  O   -1.802011968  -0.000000000  -0.688378608
  H   -0.834188154  -0.000000000  -0.711767154
  C   -2.204332885   0.000000000   0.666225878
  H   -3.292570662   0.000000000   0.687767035
  H   -1.854075447  -0.888292493   1.203850689
  H   -1.854075447   0.888292493   1.203850689
  H    1.997161945  -2.022138578  -0.148470854
  H    3.546460552  -1.238121782   0.237850192
  H    2.221229045  -1.226126908   1.426580586
  H    1.997161945   2.022138578  -0.148470854
  H    3.546460552   1.238121782   0.237850192
  H    2.221229045   1.226126908   1.426580586
  C    2.460625273  -1.180750345   0.359268482
  O    1.947992907   0.000000000  -0.228443006
  C    2.460625273   1.180750345   0.359268482

1.020_OH-O__methanol--dimethylether_150.wfx

