%nprocs=4
%mem=2GB
#p hf aug-cc-pvdz output=wfx scf=(conver=6) int=(grid=ultrafine)

title

0 1
  O    1.314820958  -0.412457918  -0.489820465
  H    0.450880825   0.014371030  -0.399320006
  C    2.216978094   0.189483065   0.418542323
  H    3.175611578  -0.315213487   0.312205478
  H    1.889448906   0.084861602   1.458255496
  H    2.366309090   1.253907523   0.209865811
  O   -1.317540329   0.626300044  -0.148976454
  H   -1.708256751   1.037926177  -0.922944424
  C   -2.142131387  -0.460577513   0.275791009
  H   -1.645605290  -0.912170756   1.129826507
  H   -2.247542785  -1.215206206  -0.505414034
  H   -3.129559808  -0.112485278   0.583646232

1.023_OH-O__methanol--methanol_100.wfx

