%nprocs=4
%mem=2GB
#p hf aug-cc-pvdz output=wfx scf=(conver=6) int=(grid=ultrafine)

title

0 1
  O    2.388680733   0.327663734   0.000000000
  H    1.537962776  -0.132351328   0.000000000
  C    3.428661986  -0.632073870   0.000000000
  H    4.373781030  -0.091970573   0.000000000
  H    3.399035303  -1.271319579  -0.888004961
  H    3.399035303  -1.271319579   0.888004961
  H    0.470628201   1.800149355   0.884415489
  H   -0.569786782   2.950586445   0.000000000
  H    0.470628201   1.800149355  -0.884415489
  H   -2.845043769  -0.843217887  -0.877420088
  C   -0.991976879  -0.253465464   0.000000000
  O   -1.266768562   1.054234110   0.000000000
  C   -0.141228112   1.954995260   0.000000000
  C   -2.245561278  -1.080919411   0.000000000
  O    0.129975456  -0.706456778   0.000000000
  H   -1.987424593  -2.133942751   0.000000000
  H   -2.845043769  -0.843217887   0.877420088

1.024_OH-O__methanol--methylacetate_080.wfx

