%nprocs=4
%mem=2GB
#p hf aug-cc-pvdz output=wfx scf=(conver=6) int=(grid=ultrafine)

title

0 1
O        2.3886807330         0.3276637340         0.0000000000
H        1.5379627760        -0.1323513280         0.0000000000
C        3.4286619860        -0.6320738700         0.0000000000
H        3.3990353030        -1.2713195790        -0.8880049610
H        4.3737810300        -0.0919705730         0.0000000000
H        3.3990353030        -1.2713195790         0.8880049610

1.024_OH-O__methanol--methylacetate_1.wfx

