%nprocs=4
%mem=2GB
#p hf aug-cc-pvdz output=wfx scf=(conver=6) int=(grid=ultrafine)

title

0 1
H       -0.0243459080        -1.4238692780        -0.3054907400
C        0.9923253070        -1.3445941740         0.0652635850
H        1.7104037300        -1.9068889520        -0.5166942240
H        1.0211457250        -1.6366639720         1.1117399060
N        1.3914578350         0.0965894890         0.0180833820
O        0.5561360410         0.9214408100         0.3684067950
O        2.5189581720         0.3649317210        -0.3405753740

1.025_OH-O__methanol--nitromethane_2.wfx

