%nprocs=4
%mem=2GB
#p hf aug-cc-pvdz output=wfx scf=(conver=6) int=(grid=ultrafine)

title

0 1
  O    1.314820958  -0.412457918  -0.489820465
  H    0.450880825   0.014371030  -0.399320006
  C    2.216978094   0.189483065   0.418542323
  H    3.175611578  -0.315213487   0.312205478
  H    1.889448906   0.084861602   1.458255496
  H    2.366309090   1.253907523   0.209865811
  O   -1.140698214   0.565107143  -0.174010809
  H   -1.531414636   0.976733276  -0.947978779
  C   -1.965289272  -0.521770414   0.250756654
  H   -1.468763175  -0.973363657   1.104792152
  H   -2.070700670  -1.276399107  -0.530448389
  H   -2.952717693  -0.173678179   0.558611877

1.023_OH-O__methanol--methanol_090.wfx

