%nprocs=4
%mem=2GB
#p hf aug-cc-pvdz output=wfx scf=(conver=6) int=(grid=ultrafine)

title

0 1
H        0.7746898330         0.1996374990        -1.4412486470
C        1.5938063990        -0.4744231670        -1.6775251580
O        2.8315874920         0.0307923270        -1.1365555250
H        1.3765928990        -1.4598730620        -1.2754127420
H        1.7480245460        -0.5231813730        -2.7491264390
C        2.9097225150         0.1605274060         0.1884190080
O        2.0125523620        -0.1267349410         0.9505022340
C        4.2403148010         0.7094768050         0.6147091820
H        5.0408501310         0.0729932990         0.2415748020
H        4.3839538510         1.6990908280         0.1831157850
H        4.2816064620         0.7674320960         1.6964909050

1.038_OH-O__phenol--methylacetate_2.wfx

