%nprocs=4
%mem=2GB
#p hf aug-cc-pvdz output=wfx scf=(conver=6) int=(grid=ultrafine)

title

0 1
  O    3.333999454   0.411171256   0.000000000
  H    3.887689246   1.193969482   0.000000000
  H    2.422199545   0.738960793   0.000000000
  H   -3.006648198  -0.624450758  -0.888871135
  H   -3.006648198  -0.624450758   0.888871135
  H   -3.856589998   0.664530119   0.000000000
  H    1.227635285  -1.328981919   0.885042540
  H    1.227635285  -1.328981919  -0.885042540
  H    0.462457563  -2.678977710   0.000000000
  O   -1.854329054   0.871017500   0.000000000
  C   -0.627660315   0.354687835   0.000000000
  O    0.351354757   1.056915452   0.000000000
  O   -0.629032521  -0.980410011   0.000000000
  C    0.667016020  -1.614472491   0.000000000
  C   -2.998528802   0.001361632   0.000000000

1.048_OH-O__water--dimethylcarbonate_110.wfx

