%nprocs=4
%mem=2GB
#p hf aug-cc-pvdz output=wfx scf=(conver=6) int=(grid=ultrafine)

title

0 1
  O   -2.320324745   0.000000000   0.117314426
  H   -1.378458272  -0.000000000  -0.117152697
  H   -2.790829269  -0.000000000  -0.718347326
  H    0.540906380  -2.023260918  -0.279199538
  H    2.134492940  -1.236170762  -0.192582927
  H    1.053318240  -1.223291109   1.222844701
  H    0.540906380   2.023260918  -0.279199538
  H    2.134492940   1.236170762  -0.192582927
  H    1.053318240   1.223291109   1.222844701
  C    1.090537062  -1.180211636   0.130107878
  O    0.475850424   0.000000000  -0.354654003
  C    1.090537062   1.180211636   0.130107878

1.049_OH-O__water--dimethylether_100.wfx

