%nprocs=4
%mem=2GB
#p hf aug-cc-pvdz output=wfx scf=(conver=6) int=(grid=ultrafine)

title

0 1
  O   -2.699524577   0.012605344   0.025141740
  H   -1.886669166  -0.515867939   0.009831151
  H   -3.398745037  -0.573585161  -0.269451403
  H    3.161355444  -1.413464936   0.012295030
  H    1.784290796   1.674889882  -0.828927396
  H    1.602109038   1.619322152   0.914975970
  H    0.197785414   1.260818230  -0.118099730
  O    0.897102298  -1.226398272  -0.012260338
  C    1.657449598  -0.286581212  -0.012474888
  O    2.993718166  -0.460743064  -0.000675398
  C    1.272596518   1.160822688  -0.017157566

1.046_OH-O__water--aceticacid_150.wfx

