%nprocs=4
%mem=2GB
#p hf aug-cc-pvdz output=wfx scf=(conver=6) int=(grid=ultrafine)

title

0 1
H        0.5409063800        -2.0232609180        -0.2791995380
C        1.0905370620        -1.1802116360         0.1301078780
H        2.1344929400        -1.2361707620        -0.1925829270
H        1.0533182400        -1.2232911090         1.2228447010
O        0.4758504240         0.0000000000        -0.3546540030
C        1.0905370620         1.1802116360         0.1301078780
H        2.1344929400         1.2361707620        -0.1925829270
H        0.5409063800         2.0232609180        -0.2791995380
H        1.0533182400         1.2232911090         1.2228447010

1.049_OH-O__water--dimethylether_2.wfx

