%nprocs=4
%mem=2GB
#p hf aug-cc-pvdz output=wfx scf=(conver=6) int=(grid=ultrafine)

title

0 1
  O    3.333999454   0.411171256   0.000000000
  H    3.887689246   1.193969482   0.000000000
  H    2.422199545   0.738960793   0.000000000
  H   -2.441872347  -0.711165665  -0.888871135
  H   -2.441872347  -0.711165665   0.888871135
  H   -3.291814147   0.577815212   0.000000000
  H    1.792411136  -1.415696826   0.885042540
  H    1.792411136  -1.415696826  -0.885042540
  H    1.027233414  -2.765692617   0.000000000
  O   -1.289553203   0.784302593   0.000000000
  C   -0.062884464   0.267972928   0.000000000
  O    0.916130608   0.970200545   0.000000000
  O   -0.064256670  -1.067124918   0.000000000
  C    1.231791871  -1.701187398   0.000000000
  C   -2.433752951  -0.085353275   0.000000000

1.048_OH-O__water--dimethylcarbonate_080.wfx

