%nprocs=4
%mem=2GB
#p hf aug-cc-pvdz output=wfx scf=(conver=6) int=(grid=ultrafine)

title

0 1
  O   -2.320324745   0.000000000   0.117314426
  H   -1.378458272  -0.000000000  -0.117152697
  H   -2.790829269  -0.000000000  -0.718347326
  H    2.395215076  -2.023260918  -0.516700844
  H    3.988801636  -1.236170762  -0.430084233
  H    2.907626936  -1.223291109   0.985343395
  H    2.395215076   2.023260918  -0.516700844
  H    3.988801636   1.236170762  -0.430084233
  H    2.907626936   1.223291109   0.985343395
  C    2.944845758  -1.180211636  -0.107393428
  O    2.330159120   0.000000000  -0.592155309
  C    2.944845758   1.180211636  -0.107393428

1.049_OH-O__water--dimethylether_200.wfx

