%nprocs=4
%mem=2GB
#p hf aug-cc-pvdz output=wfx scf=(conver=6) int=(grid=ultrafine)

title

0 1
H       -0.8425845560        -0.3679133470         1.5371048880
C       -1.6958735340        -0.0457357120         0.9590879440
C       -2.0663539070        -0.7600178340        -0.1729224770
C       -2.4286921860         1.0751429650         1.3204012790
C       -3.1546332160        -0.3648095620        -0.9392424450
O       -1.3063182850        -1.8599652690        -0.5042537860
C       -3.5224674340         1.4828376230         0.5645830920
H       -2.1390438570         1.6338799920         2.1986371990
H       -3.4327102870        -0.9284921270        -1.8208330290
C       -3.8815964720         0.7585267910        -0.5641718700
H       -1.6522156780        -2.2784352860        -1.2970815820
H       -4.0877344280         2.3567852950         0.8523225700
H       -4.7290496580         1.0650614800        -1.1603555890

1.042_OH-O__phenol--phenol_2.wfx

