%nprocs=4
%mem=2GB
#p hf aug-cc-pvdz output=wfx scf=(conver=6) int=(grid=ultrafine)

title

0 1
  O   -2.153916054   0.260544038   0.000000000
  H   -1.423649291  -0.377504859   0.000000000
  H   -2.958877718  -0.260484419   0.000000000
  H    1.216027352   1.740537813   0.874523371
  H    1.216027352   1.740537813  -0.874523371
  H   -0.337819459   1.602218353   0.000000000
  H    1.940143967  -0.515175816   0.000000000
  C    0.711616987   1.322717266   0.000000000
  C    0.891545446  -0.161246643   0.000000000
  O   -0.004504403  -0.971307085   0.000000000

1.044_OH-O__water--acetaldehyde_080.wfx

