%nprocs=4
%mem=2GB
#p hf aug-cc-pvdz output=wfx scf=(conver=6) int=(grid=ultrafine)

title

0 1
  O   -2.153916054   0.260544038   0.000000000
  H   -1.423649291  -0.377504859   0.000000000
  H   -2.958877718  -0.260484419   0.000000000
  H    1.304723908   1.703425174   0.874523371
  H    1.304723908   1.703425174  -0.874523371
  H   -0.249122904   1.565105714   0.000000000
  H    2.028840522  -0.552288455   0.000000000
  C    0.800313542   1.285604627   0.000000000
  C    0.980242002  -0.198359282   0.000000000
  O    0.084192152  -1.008419724   0.000000000

1.044_OH-O__water--acetaldehyde_085.wfx

