%nprocs=4
%mem=2GB
#p hf aug-cc-pvdz output=wfx scf=(conver=6) int=(grid=ultrafine)

title

0 1
  H   -0.956051371  -2.354499290   0.000000000
  H   -3.336677373   1.219975701   0.000000000
  H   -3.174623169  -1.252898962   0.000000000
  H    0.945281895   1.470795290   0.000000000
  H    2.053323417  -0.540614013   0.000000000
  H   -1.262244213   2.573833817   0.000000000
  C   -2.370525400   0.737073486   0.000000000
  C   -2.276472964  -0.650949630   0.000000000
  C   -1.039402827  -1.277390569   0.000000000
  C    0.126077278  -0.512881429   0.000000000
  C    0.039938689   0.879342638   0.000000000
  C   -1.205794272   1.494028361   0.000000000
  O    1.314654888  -1.170357618   0.000000000
  O    3.953915908   0.814168431   0.000000000
  H    4.522386520   0.702857830   0.766820459
  H    4.522386520   0.702857830  -0.766820459

1.043_OH-O__phenol--water_125.wfx

