%nprocs=4
%mem=2GB
#p hf aug-cc-pvdz output=wfx scf=(conver=6) int=(grid=ultrafine)

title

0 1
  O   -2.320324745   0.000000000   0.117314426
  H   -1.378458272  -0.000000000  -0.117152697
  H   -2.790829269  -0.000000000  -0.718347326
  H    0.170044641  -2.023260918  -0.231699277
  H    1.763631201  -1.236170762  -0.145082666
  H    0.682456501  -1.223291109   1.270344962
  H    0.170044641   2.023260918  -0.231699277
  H    1.763631201   1.236170762  -0.145082666
  H    0.682456501   1.223291109   1.270344962
  C    0.719675323  -1.180211636   0.177608139
  O    0.104988685  -0.000000000  -0.307153742
  C    0.719675323   1.180211636   0.177608139

1.049_OH-O__water--dimethylether_080.wfx

