%nprocs=4
%mem=2GB
#p hf aug-cc-pvdz output=wfx scf=(conver=6) int=(grid=ultrafine)

title

0 1
  O   -2.647490238  -0.017014849   0.109261531
  H   -1.908793644   0.582338804  -0.062111237
  H   -3.359157536   0.530775568   0.446246303
  H   -0.703199640  -1.325264177   0.392610949
  H    0.975063571  -2.001803224   0.301792846
  H    0.095666867  -1.510158288  -1.178044533
  C    0.252484380  -1.316283870  -0.120323473
  N    0.817952983   0.065439920  -0.021735632
  O    0.048651951   1.000335368  -0.208788466
  O    2.001938454   0.182133904   0.215150660

1.054_OH-O__water--nitromethane_100.wfx

