%nprocs=4
%mem=2GB
#p hf aug-cc-pvdz output=wfx scf=(conver=6) int=(grid=ultrafine)

title

0 1
  O   -2.011851377   0.172486548  -0.057464338
  H   -1.115176959  -0.185826244   0.033281139
  H   -2.491709977  -0.144630420   0.709936574
  O    0.628968309  -0.622203563   0.052554617
  H    0.859895553  -1.190108822  -0.686014660
  C    1.421023688   0.566029473  -0.001709953
  H    1.109347603   1.185949559   0.833980169
  H    1.253931598   1.118937471  -0.927582322
  H    2.483499584   0.339460513   0.102461804

1.052_OH-O__water--methanol_095.wfx

