%nprocs=4
%mem=2GB
#p hf aug-cc-pvdz output=wfx scf=(conver=6) int=(grid=ultrafine)

title

0 1
  O   -2.011851377   0.172486548  -0.057464338
  H   -1.115176959  -0.185826244   0.033281139
  H   -2.491709977  -0.144630420   0.709936574
  O    0.904359667  -0.691105245   0.055597798
  H    1.135286911  -1.259010504  -0.682971479
  C    1.696415046   0.497127791   0.001333228
  H    1.384738961   1.117047877   0.837023350
  H    1.529322956   1.050035789  -0.924539141
  H    2.758890942   0.270558831   0.105504985

1.052_OH-O__water--methanol_110.wfx

