%nprocs=4
%mem=2GB
#p hf aug-cc-pvdz output=wfx scf=(conver=6) int=(grid=ultrafine)

title

0 1
O        0.7207654280        -0.6451707900         0.0535690110
H        0.9516926720        -1.2130760490        -0.6850002660
C        1.5128208070         0.5430622460        -0.0006955590
H        1.3457287170         1.0959702440        -0.9265679280
H        1.2011447220         1.1629823320         0.8349945630
H        2.5752967030         0.3164932860         0.1034761980

1.052_OH-O__water--methanol_2.wfx

