%nprocs=4
%mem=2GB
#p hf aug-cc-pvdz output=wfx scf=(conver=6) int=(grid=ultrafine)

title

0 1
  O   -2.476583740   0.070717023   0.010162718
  H   -2.515708704  -0.114184442   0.950833203
  H   -1.550248247   0.291139125  -0.161496375
  H    3.275722540  -1.542143611  -1.326773070
  H    2.904814053  -2.304602144   0.244526803
  H    1.577076009  -1.711210406  -0.786068613
  H    2.512314260   2.689958948  -0.869589161
  H    3.960725041   1.854713134  -0.239679086
  H    2.551002758   2.135174828   0.823909737
  C    2.605180741  -1.536391988  -0.466409748
  O    2.714456453  -0.324843925   0.257177058
  O    2.282190003   0.720717973  -0.668679321
  C    2.873220209   1.915818679  -0.194960002

1.050_OH-O__water--dimethylperoxide_200.wfx

