%nprocs=4
%mem=2GB
#p hf aug-cc-pvdz output=wfx scf=(conver=6) int=(grid=ultrafine)

title

0 1
  O   -2.647490238  -0.017014849   0.109261531
  H   -1.908793644   0.582338804  -0.062111237
  H   -3.359157536   0.530775568   0.446246303
  H   -1.094688759  -1.408863490   0.421946395
  H    0.583574452  -2.085402537   0.331128292
  H   -0.295822252  -1.593757601  -1.148709087
  C   -0.139004739  -1.399883183  -0.090988027
  N    0.426463864  -0.018159393   0.007599814
  O   -0.342837168   0.916736055  -0.179453020
  O    1.610449335   0.098534591   0.244486106

1.054_OH-O__water--nitromethane_080.wfx

