%nprocs=4
%mem=2GB
#p hf aug-cc-pvdz output=wfx scf=(conver=6) int=(grid=ultrafine)

title

0 1
  O   -2.011851377   0.172486548  -0.057464338
  H   -1.115176959  -0.185826244   0.033281139
  H   -2.491709977  -0.144630420   0.709936574
  O    0.445374070  -0.576269108   0.050525830
  H    0.676301314  -1.144174367  -0.688043447
  C    1.237429449   0.611963928  -0.003738740
  H    0.925753364   1.231884014   0.831951382
  H    1.070337359   1.164871926  -0.929611109
  H    2.299905345   0.385394968   0.100433017

1.052_OH-O__water--methanol_085.wfx

