%nprocs=4
%mem=2GB
#p hf aug-cc-pvdz output=wfx scf=(conver=6) int=(grid=ultrafine)

title

0 1
  O   -2.813847582  -0.579440373   0.000000000
  H   -1.864405486  -0.792150054   0.000000000
  H   -3.262956761  -1.426378985   0.000000000
  C    2.805814982  -0.829658910   0.000000000
  H    2.949662083  -1.456733983   0.877815376
  H    2.949662083  -1.456733983  -0.877815376
  H    3.552763884  -0.038368538   0.000000000
  C    1.383604146  -0.317554645   0.000000000
  O    0.432276175  -1.090791443   0.000000000
  N    1.227519856   1.022863541   0.000000000
  H    2.046589214   1.601161142   0.000000000
  C   -0.082277619   1.656471577   0.000000000
  H   -0.655628329   1.366815278   0.878089944
  H   -0.655628329   1.366815278  -0.878089944
  H    0.054496825   2.733910961   0.000000000

1.056_OH-O__water--Nmethylacetamide_125.wfx

