%nprocs=4
%mem=2GB
#p hf aug-cc-pvdz output=wfx scf=(conver=6) int=(grid=ultrafine)

title

0 1
  O   -2.647490238  -0.017014849   0.109261531
  H   -1.908793644   0.582338804  -0.062111237
  H   -3.359157536   0.530775568   0.446246303
  H   -0.898944200  -1.367063833   0.407278672
  H    0.779319012  -2.043602880   0.316460569
  H   -0.100077692  -1.551957944  -1.163376810
  C    0.056739821  -1.358083526  -0.105655750
  N    0.622208424   0.023640264  -0.007067909
  O   -0.147092608   0.958535712  -0.194120743
  O    1.806193894   0.140334248   0.229818383

1.054_OH-O__water--nitromethane_090.wfx

