%nprocs=4
%mem=2GB
#p hf aug-cc-pvdz output=wfx scf=(conver=6) int=(grid=ultrafine)

title

0 1
  O    3.643124100  -0.597811965  -0.020796782
  H    2.964630919   0.089448888  -0.026842507
  H    3.954319898  -0.635346600   0.885978140
  H    1.359576713  -1.590566747  -0.061324782
  H   -2.935444720  -1.555214345   0.026699001
  H   -0.799944682  -2.807538648  -0.029061556
  H   -0.747912429   2.130110678   0.027019849
  H    1.531785881   1.914904430  -0.058726656
  H   -2.898313062   0.920794587   0.051971131
  C   -1.994510492  -1.025343719   0.015334120
  C   -0.793908800  -1.726941023  -0.015225653
  C    0.420751317  -1.056865411  -0.031444601
  C    0.426932746   0.332871916  -0.015152106
  C   -0.764098903   1.047474201   0.014744095
  C   -1.973161186   0.362767062   0.029335186
  O    1.649534313   0.962104395  -0.027628195

1.057_OH-O__water--phenol_080.wfx

