%nprocs=4
%mem=2GB
#p hf aug-cc-pvdz output=wfx scf=(conver=6) int=(grid=ultrafine)

title

0 1
  O   -2.647490238  -0.017014849   0.109261531
  H   -1.908793644   0.582338804  -0.062111237
  H   -3.359157536   0.530775568   0.446246303
  H   -0.801071920  -1.346164005   0.399944810
  H    0.877191291  -2.022703052   0.309126707
  H   -0.002205413  -1.531058116  -1.170710672
  C    0.154612100  -1.337183698  -0.112989612
  N    0.720080703   0.044540092  -0.014401771
  O   -0.049220329   0.979435540  -0.201454605
  O    1.904066174   0.161234076   0.222484521

1.054_OH-O__water--nitromethane_095.wfx

