%nprocs=4
%mem=2GB
#p hf aug-cc-pvdz output=wfx scf=(conver=6) int=(grid=ultrafine)

title

0 1
H       -0.7031996400        -1.3252641770         0.3926109490
C        0.2524843800        -1.3162838700        -0.1203234730
H        0.0956668670        -1.5101582880        -1.1780445330
H        0.9750635710        -2.0018032240         0.3017928460
N        0.8179529830         0.0654399200        -0.0217356320
O        0.0486519510         1.0003353680        -0.2087884660
O        2.0019384540         0.1821339040         0.2151506600

1.054_OH-O__water--nitromethane_2.wfx

