%nprocs=4
%mem=2GB
#p hf aug-cc-pvdz output=wfx scf=(conver=6) int=(grid=ultrafine)

title

0 1
  O   -2.011851377   0.172486548  -0.057464338
  H   -1.115176959  -0.185826244   0.033281139
  H   -2.491709977  -0.144630420   0.709936574
  O    2.556707815  -1.104515336   0.073856883
  H    2.787635059  -1.672420595  -0.664712394
  C    3.348763194   0.083717700   0.019592313
  H    3.037087109   0.703637786   0.855282435
  H    3.181671104   0.636625698  -0.906280056
  H    4.411239090  -0.142851260   0.123764070

1.052_OH-O__water--methanol_200.wfx

