%nprocs=4
%mem=2GB
#p hf aug-cc-pvdz output=wfx scf=(conver=6) int=(grid=ultrafine)

title

0 1
  O   -3.168979061   0.031566438   0.057158001
  H   -2.271400588  -0.319570767   0.038140987
  H   -3.550834313  -0.206435184  -0.790285057
  H    3.086518838  -0.776805318   0.010106498
  H    2.293208009   1.841626541  -0.002443943
  H    0.749609854  -2.197856819   0.004798402
  H   -0.444975080   1.722554162  -0.013014280
  C    1.663378506   0.970484580  -0.004168461
  C    2.079175140  -0.401416989   0.002685407
  C    0.947841066  -1.142874051  -0.000311156
  O   -0.146198515  -0.327001349  -0.009701065
  C    0.310888443   0.960018531  -0.011168757

1.051_OH-O__water--furan_105.wfx

