%nprocs=4
%mem=2GB
#p hf aug-cc-pvdz output=wfx scf=(conver=6) int=(grid=ultrafine)

title

0 1
  O   -2.647490238  -0.017014849   0.109261531
  H   -1.908793644   0.582338804  -0.062111237
  H   -3.359157536   0.530775568   0.446246303
  H   -0.213838241  -1.220765036   0.355941642
  H    1.464424970  -1.897304083   0.265123539
  H    0.585028266  -1.405659147  -1.214713840
  C    0.741845779  -1.211784729  -0.156992780
  N    1.307314382   0.169939061  -0.058404939
  O    0.538013350   1.104834509  -0.245457773
  O    2.491299853   0.286633045   0.178481353

1.054_OH-O__water--nitromethane_125.wfx

