%nprocs=4
%mem=2GB
#p hf aug-cc-pvdz output=wfx scf=(conver=6) int=(grid=ultrafine)

title

0 1
  O   -2.011851377   0.172486548  -0.057464338
  H   -1.115176959  -0.185826244   0.033281139
  H   -2.491709977  -0.144630420   0.709936574
  O    1.179751025  -0.760006926   0.058640979
  H    1.410678269  -1.327912186  -0.679928298
  C    1.971806404   0.428226110   0.004376409
  H    1.660130319   1.048146196   0.840066531
  H    1.804714314   0.981134108  -0.921495960
  H    3.034282300   0.201657150   0.108548166

1.052_OH-O__water--methanol_125.wfx

