%nprocs=4
%mem=2GB
#p hf aug-cc-pvdz output=wfx scf=(conver=6) int=(grid=ultrafine)

title

0 1
  C    1.912545987  -0.057780332   0.000000000
  O    1.238974174  -1.078933568   0.000000000
  O    1.403277277   1.156430941   0.000000000
  H    0.402636075   1.121789389   0.000000000
  C    3.412740911  -0.073587659   0.000000000
  H    3.775203505  -1.095241731   0.000000000
  H    3.782363765   0.456370691  -0.876751219
  H    3.782363765   0.456370691   0.876751219
  H   -0.238475050  -1.117503807   0.000000000
  H   -3.618202740  -0.452085109   0.876751219
  H   -3.611042480   1.099527313   0.000000000
  H   -3.618202740  -0.452085109  -0.876751219
  O   -1.074813149   1.083219150   0.000000000
  C   -1.748384962   0.062065914   0.000000000
  O   -1.239116252  -1.152145359   0.000000000
  C   -3.248579886   0.077873241   0.000000000

1.059_OH-Ox2__aceticacid--aceticacid_090.wfx

