%nprocs=4
%mem=2GB
#p hf aug-cc-pvdz output=wfx scf=(conver=6) int=(grid=ultrafine)

title

0 1
  C    1.912545987  -0.057780332   0.000000000
  O    1.238974174  -1.078933568   0.000000000
  O    1.403277277   1.156430941   0.000000000
  H    0.402636075   1.121789389   0.000000000
  C    3.412740911  -0.073587659   0.000000000
  H    3.775203505  -1.095241731   0.000000000
  H    3.782363765   0.456370691  -0.876751219
  H    3.782363765   0.456370691   0.876751219
  H   -0.156394538  -1.115361016   0.000000000
  H   -3.536122228  -0.449942318   0.876751219
  H   -3.528961968   1.101670104   0.000000000
  H   -3.536122228  -0.449942318  -0.876751219
  O   -0.992732637   1.085361941   0.000000000
  C   -1.666304450   0.064208705   0.000000000
  O   -1.157035740  -1.150002568   0.000000000
  C   -3.166499374   0.080016032   0.000000000

1.059_OH-Ox2__aceticacid--aceticacid_085.wfx

