%nprocs=4
%mem=2GB
#p hf aug-cc-pvdz output=wfx scf=(conver=6) int=(grid=ultrafine)

title

0 1
O       -2.0118513770         0.1724865480        -0.0574643380
H       -1.1151769590        -0.1858262440         0.0332811390
H       -2.4917099770        -0.1446304200         0.7099365740

1.052_OH-O__water--methanol_1.wfx

