%nprocs=4
%mem=2GB
#p hf aug-cc-pvdz output=wfx scf=(conver=6) int=(grid=ultrafine)

title

0 1
  O    2.252064758  -0.204860672   0.000000000
  H    1.515521979   0.420353726   0.000000000
  H    3.050665278   0.326750978   0.000000000
  H   -1.576828477  -1.544942804   0.876067438
  H   -1.576828477  -1.544942804  -0.876067438
  H   -0.018638377  -1.278132440   0.000000000
  C   -1.093063699  -1.109543641   0.000000000
  N   -1.453757666   0.318252518   0.000000000
  O   -0.519412793   1.075054331   0.000000000

1.055_OH-O__water--nitrosomethane_105.wfx

