%nprocs=4
%mem=2GB
#p hf aug-cc-pvdz output=wfx scf=(conver=6) int=(grid=ultrafine)

title

0 1
O       -3.1689790610         0.0315664380         0.0571580010
H       -3.5508343130        -0.2064351840        -0.7902850570
H       -2.2714005880        -0.3195707670         0.0381409870

1.051_OH-O__water--furan_1.wfx

