%nprocs=4
%mem=2GB
#p hf aug-cc-pvdz output=wfx scf=(conver=6) int=(grid=ultrafine)

title

0 1
  O   -2.813847582  -0.579440373   0.000000000
  H   -1.864405486  -0.792150054   0.000000000
  H   -3.262956761  -1.426378985   0.000000000
  C    1.979009584  -0.722148010   0.000000000
  H    2.122856685  -1.349223083   0.877815376
  H    2.122856685  -1.349223083  -0.877815376
  H    2.725958486   0.069142362   0.000000000
  C    0.556798748  -0.210043745   0.000000000
  O   -0.394529223  -0.983280543   0.000000000
  N    0.400714458   1.130374441   0.000000000
  H    1.219783816   1.708672042   0.000000000
  C   -0.909083017   1.763982477   0.000000000
  H   -1.482433727   1.474326178   0.878089944
  H   -1.482433727   1.474326178  -0.878089944
  H   -0.772308573   2.841421861   0.000000000

1.056_OH-O__water--Nmethylacetamide_080.wfx

