%nprocs=4
%mem=2GB
#p hf aug-cc-pvdz output=wfx scf=(conver=6) int=(grid=ultrafine)

title

0 1
  O    2.252064758  -0.204860672   0.000000000
  H    1.515521979   0.420353726   0.000000000
  H    3.050665278   0.326750978   0.000000000
  H   -1.673730133  -1.513766584   0.876067438
  H   -1.673730133  -1.513766584  -0.876067438
  H   -0.115540033  -1.246956220   0.000000000
  C   -1.189965355  -1.078367421   0.000000000
  N   -1.550659322   0.349428738   0.000000000
  O   -0.616314449   1.106230551   0.000000000

1.055_OH-O__water--nitrosomethane_110.wfx

