%nprocs=4
%mem=2GB
#p hf aug-cc-pvdz output=wfx scf=(conver=6) int=(grid=ultrafine)

title

0 1
H       -0.4026360750        -1.1217893890         0.0000000000
O       -1.4032772770        -1.1564309410         0.0000000000
C       -1.9125459870         0.0577803320         0.0000000000
C       -3.4127409110         0.0735876590         0.0000000000
O       -1.2389741740         1.0789335680         0.0000000000
H       -3.7823637650        -0.4563706910        -0.8767512190
H       -3.7823637650        -0.4563706910         0.8767512190
H       -3.7752035050         1.0952417310         0.0000000000

1.059_OH-Ox2__aceticacid--aceticacid_2.wfx

