%nprocs=4
%mem=2GB
#p hf aug-cc-pvdz output=wfx scf=(conver=6) int=(grid=ultrafine)

title

0 1
  O   -2.011851377   0.172486548  -0.057464338
  H   -1.115176959  -0.185826244   0.033281139
  H   -2.491709977  -0.144630420   0.709936574
  O    1.638736622  -0.874843063   0.063712947
  H    1.869663866  -1.442748322  -0.674856330
  C    2.430792000   0.313389973   0.009448377
  H    2.119115916   0.933310059   0.845138499
  H    2.263699910   0.866297971  -0.916423992
  H    3.493267896   0.086821013   0.113620134

1.052_OH-O__water--methanol_150.wfx

