%nprocs=4
%mem=2GB
#p hf aug-cc-pvdz output=wfx scf=(conver=6) int=(grid=ultrafine)

title

0 1
  H   -1.811591436  -2.297506266  -0.214255093
  H   -4.465968539   0.853200008   0.994655395
  H   -3.987160005  -1.560723746   0.717053971
  H   -0.587517965   1.778982586  -0.585421635
  H    0.716014661  -0.013157309  -1.139574506
  H   -2.756196530   2.519453998   0.337586532
  C   -3.517935997   0.529670220   0.590928251
  C   -3.247109225  -0.825330403   0.434579676
  C   -2.031711454  -1.247869494  -0.084220334
  C   -1.077545279  -0.304983999  -0.450417877
  C   -1.336913397   1.053756182  -0.298850834
  C   -2.557930883   1.463277384   0.221699918
  O    0.111333231  -0.759532907  -0.955877787
  H    1.602539011  -1.186399106   0.219205958
  H    4.686062452   1.375255170   0.311379747
  H    5.016749109  -0.359698978   0.549845596
  H    4.219558134   0.549679728   1.820391349
  O    2.412452121   0.789028512  -0.688420798
  C    2.981016877   0.112269722   0.146310185
  O    2.476380141  -1.022793347   0.635228000
  C    4.315077518   0.451252412   0.739914373

1.060_OH-Ox2__phenol--aceticacid_105.wfx

