%nprocs=4
%mem=2GB
#p hf aug-cc-pvdz output=wfx scf=(conver=6) int=(grid=ultrafine)

title

0 1
H       -1.8115914360        -2.2975062660        -0.2142550930
C       -2.0317114540        -1.2478694940        -0.0842203340
C       -3.2471092250        -0.8253304030         0.4345796760
C       -1.0775452790        -0.3049839990        -0.4504178770
H       -3.9871600050        -1.5607237460         0.7170539710
C       -3.5179359970         0.5296702200         0.5909282510
C       -1.3369133970         1.0537561820        -0.2988508340
O        0.1113332310        -0.7595329070        -0.9558777870
H       -4.4659685390         0.8532000080         0.9946553950
C       -2.5579308830         1.4632773840         0.2216999180
H       -0.5875179650         1.7789825860        -0.5854216350
H        0.7160146610        -0.0131573090        -1.1395745060
H       -2.7561965300         2.5194539980         0.3375865320

1.060_OH-Ox2__phenol--aceticacid_1.wfx

