%nprocs=4
%mem=2GB
#p hf aug-cc-pvdz output=wfx scf=(conver=6) int=(grid=ultrafine)

title

0 1
H       -4.0209361710         0.8599512650         0.0000000000
O       -3.7048839380        -0.0545399590         0.0000000000
C       -2.3584317910        -0.0175296690         0.0000000000
C       -1.7562505950        -1.3896674550         0.0000000000
O       -1.7524176830         1.0282168370         0.0000000000
H       -2.0999566270        -1.9368234980        -0.8767141400
H       -2.0999566270        -1.9368234980         0.8767141400
H       -0.6742447430        -1.3262547020         0.0000000000

2.003_NH-O__1Hpyrrole--aceticacid_2.wfx

