%nprocs=4
%mem=2GB
#p hf aug-cc-pvdz output=wfx scf=(conver=6) int=(grid=ultrafine)

title

0 1
H        1.4888649900         0.4252240490        -2.1026969740
C        1.8747172230         0.2311311340        -1.1184167570
C        3.0523896220        -0.3510497690        -0.7104559550
N        1.1702036520         0.5860234190         0.0000000000
C        3.0523896220        -0.3510497690         0.7104559550
H        3.8263722940        -0.7273658950        -1.3558327040
H        0.2359915460         0.9712917790         0.0000000000
C        1.8747172230         0.2311311340         1.1184167570
H        3.8263722940        -0.7273658950         1.3558327040
H        1.4888649900         0.4252240490         2.1026969740

2.003_NH-O__1Hpyrrole--aceticacid_1.wfx

