%nprocs=4
%mem=2GB
#p hf aug-cc-pvdz output=wfx scf=(conver=6) int=(grid=ultrafine)

title

0 1
H       -3.7510783640         1.4707489280        -0.7925690540
C       -4.0019650180         0.8160147080         0.0383216670
O       -3.2563169320        -0.4105313180        -0.0487088390
H       -5.0453329410         0.5248561840        -0.0048028370
H       -3.7835805600         1.3259024700         0.9734221020
C       -1.9227739090        -0.2967571380        -0.0136514580
C       -1.2492562420        -1.6359940140        -0.0934578230
O       -1.3605014430         0.7714283620         0.0799844870
H       -1.6294763500        -2.1940538560        -0.9467933670
H       -0.1749884880        -1.5113610010        -0.1718047550
H       -1.4857781460        -2.2105293690         0.8016850850

2.009_NH-O__1Hpyrrole--methylacetate_2.wfx

