%nprocs=4
%mem=2GB
#p hf aug-cc-pvdz output=wfx scf=(conver=6) int=(grid=ultrafine)

title

0 1
  N   -2.378616155  -0.173103490   0.000000000
  H   -1.607872674   0.487848479   0.000000000
  H   -2.948252456   0.023192728   0.813288088
  H   -2.948252456   0.023192728  -0.813288088
  H    1.530048707  -1.665124580  -0.874267493
  H    1.530048707  -1.665124580   0.874267493
  H   -0.000216141  -1.346210874   0.000000000
  H    2.505968976   0.494680475   0.000000000
  C    1.075806964  -1.192263227   0.000000000
  C    1.421518419   0.264080754   0.000000000
  O    0.622145286   1.167189050   0.000000000

2.014_NH-O__ammonia--acetaldehyde_105.wfx

