%nprocs=4
%mem=2GB
#p hf aug-cc-pvdz output=wfx scf=(conver=6) int=(grid=ultrafine)

title

0 1
H        2.3282493370         1.0856687820         0.0000000000
O        2.1055407010         0.1444587290         0.0000000000
C        0.7557873350         0.0545995070         0.0000000000
C        0.2863034070        -1.3686134840         0.0000000000
O        0.0554625640         1.0366188670         0.0000000000
H       -0.7983400110        -1.3994545740         0.0000000000
H        0.6819379400        -1.8807052910        -0.8764601870
H        0.6819379400        -1.8807052910         0.8764601870

2.016_NH-O__ammonia--aceticacid_2.wfx

