%nprocs=4
%mem=2GB
#p hf aug-cc-pvdz output=wfx scf=(conver=6) int=(grid=ultrafine)

title

0 1
  N   -2.346918027   0.000000000   0.094855168
  H   -1.480809280   0.000000000  -0.434408038
  H   -2.878195419  -0.813163079  -0.189038305
  H   -2.878195419   0.813163079  -0.189038305
  H    1.305886117  -2.022090054  -0.451556852
  H    2.529147414  -1.217110107   0.555595186
  H    0.821349759  -1.227971715   1.065203444
  H    1.305886117   2.022090054  -0.451556852
  H    2.529147414   1.217110107   0.555595186
  H    0.821349759   1.227971715   1.065203444
  C    1.493133724  -1.174162596   0.202798059
  O    1.261058000   0.000000000  -0.550527369
  C    1.493133724   1.174162596   0.202798059

2.019_NH-O__ammonia--dimethylether_125.wfx

