%nprocs=4
%mem=2GB
#p hf aug-cc-pvdz output=wfx scf=(conver=6) int=(grid=ultrafine)

title

0 1
  N   -2.378616155  -0.173103490   0.000000000
  H   -1.607872674   0.487848479   0.000000000
  H   -2.948252456   0.023192728   0.813288088
  H   -2.948252456   0.023192728  -0.813288088
  H    1.317666045  -1.729823682  -0.874267493
  H    1.317666045  -1.729823682   0.874267493
  H   -0.212598803  -1.410909976   0.000000000
  H    2.293586314   0.429981373   0.000000000
  C    0.863424302  -1.256962329   0.000000000
  C    1.209135757   0.199381652   0.000000000
  O    0.409762624   1.102489948   0.000000000

2.014_NH-O__ammonia--acetaldehyde_095.wfx

