%nprocs=4
%mem=2GB
#p hf aug-cc-pvdz output=wfx scf=(conver=6) int=(grid=ultrafine)

title

0 1
  N   -2.919078130  -0.005279467   0.000000000
  H   -2.102771897   0.598398113   0.000000000
  H   -3.473183159   0.230195710   0.813481220
  H   -3.473183159   0.230195710  -0.813481220
  H    2.112425891   1.041846707   0.000000000
  H   -1.014163457  -1.443276649   0.000000000
  H    0.466114494  -1.924527366   0.876460187
  H    0.466114494  -1.924527366  -0.876460187
  O   -0.160360882   0.992796792   0.000000000
  C    0.539963889   0.010777432   0.000000000
  O    1.889717255   0.100636654   0.000000000
  C    0.070479961  -1.412435559   0.000000000

2.016_NH-O__ammonia--aceticacid_090.wfx

