%nprocs=4
%mem=2GB
#p hf aug-cc-pvdz output=wfx scf=(conver=6) int=(grid=ultrafine)

title

0 1
  N    2.942549562  -0.009879713   0.025692996
  H    2.086252920  -0.555572282  -0.007467359
  H    3.469718954  -0.318336430   0.832750088
  H    3.488666027  -0.249540486  -0.792067471
  H   -0.518679163   1.966750646   0.826755269
  H    0.992532377   1.448628296   0.027340532
  H   -0.441498056   1.915575617  -0.920838535
  H   -2.331345927  -1.259341611  -0.025725791
  H   -2.482609629   0.208193584   0.968889873
  C   -0.092348715   1.417138856  -0.014062874
  C   -0.588282325  -0.008431425  -0.005877720
  O    0.167750860  -0.955143567  -0.034414221
  C   -2.086142386  -0.203698255   0.039066384
  H   -2.564527849   0.341500994  -0.775787206

2.017_NH-O__ammonia--acetone_090.wfx

