%nprocs=4
%mem=2GB
#p hf aug-cc-pvdz output=wfx scf=(conver=6) int=(grid=ultrafine)

title

0 1
H        1.4238573760        -1.6974741310        -0.8742674930
C        0.9696156330        -1.2246127780         0.0000000000
H       -0.1064074720        -1.3785604250         0.0000000000
H        1.4238573760        -1.6974741310         0.8742674930
C        1.3153270880         0.2317312030         0.0000000000
H        2.3997776450         0.4623309240         0.0000000000
O        0.5159539550         1.1348394990         0.0000000000

2.014_NH-O__ammonia--acetaldehyde_2.wfx

