%nprocs=4
%mem=2GB
#p hf aug-cc-pvdz output=wfx scf=(conver=6) int=(grid=ultrafine)

title

0 1
  N   -2.346918027   0.000000000   0.094855168
  H   -1.480809280   0.000000000  -0.434408038
  H   -2.878195419  -0.813163079  -0.189038305
  H   -2.878195419   0.813163079  -0.189038305
  H    0.757512661  -2.022090054  -0.428332986
  H    1.980773958  -1.217110107   0.578819052
  H    0.272976303  -1.227971715   1.088427310
  H    0.757512661   2.022090054  -0.428332986
  H    1.980773958   1.217110107   0.578819052
  H    0.272976303   1.227971715   1.088427310
  C    0.944760268  -1.174162596   0.226021925
  O    0.712684544   0.000000000  -0.527303503
  C    0.944760268   1.174162596   0.226021925

2.019_NH-O__ammonia--dimethylether_100.wfx

