%nprocs=4
%mem=2GB
#p hf aug-cc-pvdz output=wfx scf=(conver=6) int=(grid=ultrafine)

title

0 1
N        3.2196295550        -0.6321544380         0.6398683700
H        2.4749395350        -0.9282266060         0.0169055240
H        4.0818833410        -0.6449781770         0.1098475310
H        3.3080379620        -1.3356316720         1.3621899120

2.018_NH-O__ammonia--dimethylcarbonate_1.wfx

