%nprocs=4
%mem=2GB
#p hf aug-cc-pvdz output=wfx scf=(conver=6) int=(grid=ultrafine)

title

0 1
H       -0.4308941210         0.2941465010         1.5859753040
C       -1.2914020200         0.2731704140         0.9342363510
C       -1.5217497860        -0.8436534870         0.1403241380
C       -2.1686611770         1.3457742630         0.8672944800
C       -2.6182647540        -0.8925619560        -0.7114428490
O       -0.6206060700        -1.8793717110         0.2281452330
C       -3.2706944990         1.3100928020         0.0199963180
H       -1.9867294550         2.2153069240         1.4824581630
C       -3.4909779520         0.1871086090        -0.7664906820
H       -2.7883926300        -1.7661628160        -1.3280544280
H       -0.8908798380        -2.5963203760        -0.3520721760
H       -3.9493778910         2.1487206540        -0.0267120980
H       -4.3431831710         0.1465313950        -1.4296275930

2.012_NH-O__1Hpyrrole--phenol_2.wfx

