%nprocs=4
%mem=2GB
#p hf aug-cc-pvdz output=wfx scf=(conver=6) int=(grid=ultrafine)

title

0 1
  N   -2.346918027   0.000000000   0.094855168
  H   -1.480809280   0.000000000  -0.434408038
  H   -2.878195419  -0.813163079  -0.189038305
  H   -2.878195419   0.813163079  -0.189038305
  H    0.538163279  -2.022090054  -0.419043440
  H    1.761424576  -1.217110107   0.588108598
  H    0.053626921  -1.227971715   1.097716856
  H    0.538163279   2.022090054  -0.419043440
  H    1.761424576   1.217110107   0.588108598
  H    0.053626921   1.227971715   1.097716856
  C    0.725410886  -1.174162596   0.235311472
  O    0.493335162   0.000000000  -0.518013956
  C    0.725410886   1.174162596   0.235311472

2.019_NH-O__ammonia--dimethylether_090.wfx

