%nprocs=4
%mem=2GB
#p hf aug-cc-pvdz output=wfx scf=(conver=6) int=(grid=ultrafine)

title

0 1
  N    2.942549562  -0.009879713   0.025692996
  H    2.086252920  -0.555572282  -0.007467359
  H    3.469718954  -0.318336430   0.832750088
  H    3.488666027  -0.249540486  -0.792067471
  H   -1.797680537   1.700369790   0.808790694
  H   -0.286468997   1.182247440   0.009375957
  H   -1.720499430   1.649194761  -0.938803110
  H   -3.610347301  -1.525722467  -0.043690366
  H   -3.761611003  -0.058187272   0.950925298
  C   -1.371350089   1.150758000  -0.032027449
  C   -1.867283699  -0.274812281  -0.023842295
  O   -1.111250514  -1.221524423  -0.052378796
  C   -3.365143760  -0.470079111   0.021101809
  H   -3.843529223   0.075120138  -0.793751781

2.017_NH-O__ammonia--acetone_150.wfx

