%nprocs=4
%mem=2GB
#p hf aug-cc-pvdz output=wfx scf=(conver=6) int=(grid=ultrafine)

title

0 1
H        0.7575126610        -2.0220900540        -0.4283329860
C        0.9447602680        -1.1741625960         0.2260219250
H        0.2729763030        -1.2279717150         1.0884273100
H        1.9807739580        -1.2171101070         0.5788190520
O        0.7126845440         0.0000000000        -0.5273035030
C        0.9447602680         1.1741625960         0.2260219250
H        0.7575126610         2.0220900540        -0.4283329860
H        1.9807739580         1.2171101070         0.5788190520
H        0.2729763030         1.2279717150         1.0884273100

2.019_NH-O__ammonia--dimethylether_2.wfx

