%nprocs=4
%mem=2GB
#p hf aug-cc-pvdz output=wfx scf=(conver=6) int=(grid=ultrafine)

title

0 1
N        2.9425495620        -0.0098797130         0.0256929960
H        2.0862529200        -0.5555722820        -0.0074673590
H        3.4886660270        -0.2495404860        -0.7920674710
H        3.4697189540        -0.3183364300         0.8327500880

2.017_NH-O__ammonia--acetone_1.wfx

