%nprocs=4
%mem=2GB
#p hf aug-cc-pvdz output=wfx scf=(conver=6) int=(grid=ultrafine)

title

0 1
N        2.8267172920        -0.0073115580         0.2291182210
H        2.0064289700        -0.5367348860        -0.0556691420
H        3.4686184400         0.0038372900        -0.5533636640
H        3.2789009340        -0.5237252490         0.9728734170

2.015_NH-O__ammonia--acetamide_1.wfx

