%nprocs=4
%mem=2GB
#p hf aug-cc-pvdz output=wfx scf=(conver=6) int=(grid=ultrafine)

title

0 1
H       -2.2654756910         0.1996596300         1.6138369200
C       -2.6020283090        -0.1459295410         0.6394139540
H       -3.4090314480        -0.8616842430         0.7539033720
H       -2.9344753360         0.7026242540         0.0463519310
O       -1.5577833150        -0.8632862460        -0.0363880710
C       -0.4079891690        -0.2496056000        -0.3256163210
O       -0.3938626970         1.0251864950         0.0786016730
O        0.4890803700        -0.8160041900        -0.8913183540
C        0.8207463470         1.7557457710        -0.1924153520
H        0.6327156140         2.7606171980         0.1696242360
H        1.0146926250         1.7657678150        -1.2621710460
H        1.6588276350         1.3009680480         0.3293915040

2.018_NH-O__ammonia--dimethylcarbonate_2.wfx

