%nprocs=4
%mem=2GB
#p hf aug-cc-pvdz output=wfx scf=(conver=6) int=(grid=ultrafine)

title

0 1
  N   -2.487845063  -0.124884945   0.000000000
  H   -3.063569341   0.049874018  -0.813971853
  H   -1.743326745   0.563239379   0.000000000
  H   -3.063569341   0.049874018   0.813971853
  H   -0.066323499  -1.185807410   0.000000000
  H    1.451108745  -1.640413094  -0.875970984
  H    1.451108745  -1.640413094   0.875970984
  C    1.021805379  -1.150753154   0.000000000
  N    1.546826342   0.228418618   0.000000000
  O    0.701689225   1.082455612   0.000000000

2.023_NH-O__ammonia--nitrosomethane_105.wfx

