%nprocs=4
%mem=2GB
#p hf aug-cc-pvdz output=wfx scf=(conver=6) int=(grid=ultrafine)

title

0 1
H       -2.4574928090        -0.7605514540         0.6636795030
C       -1.6126414650        -1.2241317430         0.1513815580
O       -0.8328533730        -0.2619949910        -0.5236741390
H       -1.9727875280        -1.8888991970        -0.6320914880
H       -1.0109107470        -1.7910811860         0.8648716140
O       -0.3278192110         0.6242764740         0.5238690440
C        0.1219111470         1.7825567860        -0.1531608780
H       -0.7016239400         2.2736237240        -0.6732800390
H        0.9263634280         1.5409107240        -0.8481715100
H        0.5045415220         2.4291242590         0.6346713300

2.020_NH-O__ammonia--dimethylperoxide_2.wfx

