%nprocs=4
%mem=2GB
#p hf aug-cc-pvdz output=wfx scf=(conver=6) int=(grid=ultrafine)

title

0 1
  N   -3.712708303   0.684110904   0.000000000
  H   -3.149425068  -0.158390879   0.000000000
  H   -4.312043763   0.652308240  -0.814685073
  H   -4.312043763   0.652308240   0.814685073
  H   -1.360110673   1.332499192   0.000000000
  H    2.925546435   1.666221814   0.000000000
  H    0.688675482   2.729426785   0.000000000
  H    1.062481584  -2.193161521   0.000000000
  H   -1.217459657  -2.174196183   0.000000000
  H    3.101320986  -0.804666880   0.000000000
  C    2.033549623   1.057231686   0.000000000
  C    0.775862654   1.652036861   0.000000000
  C   -0.377921478   0.881620690   0.000000000
  C   -0.265296812  -0.504699452   0.000000000
  C    0.985025575  -1.112853403   0.000000000
  C    2.131489446  -0.327616907   0.000000000
  O   -1.427028840  -1.236781126   0.000000000

2.025_NH-O__ammonia--phenol_090.wfx

