%nprocs=4
%mem=2GB
#p hf aug-cc-pvdz output=wfx scf=(conver=6) int=(grid=ultrafine)

title

0 1
  N   -3.712708303   0.684110904   0.000000000
  H   -3.149425068  -0.158390879   0.000000000
  H   -4.312043763   0.652308240  -0.814685073
  H   -4.312043763   0.652308240   0.814685073
  H   -0.690289917   0.913125206   0.000000000
  H    3.595367191   1.246847828   0.000000000
  H    1.358496238   2.310052800   0.000000000
  H    1.732302340  -2.612535506   0.000000000
  H   -0.547638901  -2.593570168   0.000000000
  H    3.771141742  -1.224040866   0.000000000
  C    2.703370379   0.637857700   0.000000000
  C    1.445683410   1.232662876   0.000000000
  C    0.291899278   0.462246704   0.000000000
  C    0.404523944  -0.924073438   0.000000000
  C    1.654846331  -1.532227388   0.000000000
  C    2.801310202  -0.746990892   0.000000000
  O   -0.757208084  -1.656155112   0.000000000

2.025_NH-O__ammonia--phenol_125.wfx

