%nprocs=4
%mem=2GB
#p hf aug-cc-pvdz output=wfx scf=(conver=6) int=(grid=ultrafine)

title

0 1
N        3.2740166950         0.0592141750         0.0000000000
H        2.5473513280        -0.6466264990         0.0000000000
H        3.8525442800        -0.1019671920        -0.8145381710
H        3.8525442800        -0.1019671920         0.8145381710

2.021_NH-O__ammonia--furan_1.wfx

