%nprocs=4
%mem=2GB
#p hf aug-cc-pvdz output=wfx scf=(conver=6) int=(grid=ultrafine)

title

0 1
  N   -2.487845063  -0.124884945   0.000000000
  H   -3.063569341   0.049874018  -0.813971853
  H   -1.743326745   0.563239379   0.000000000
  H   -3.063569341   0.049874018   0.813971853
  H    0.981540488  -0.963286167   0.000000000
  H    2.498972732  -1.417891851  -0.875970984
  H    2.498972732  -1.417891851   0.875970984
  C    2.069669366  -0.928231911   0.000000000
  N    2.594690329   0.450939860   0.000000000
  O    1.749553212   1.304976854   0.000000000

2.023_NH-O__ammonia--nitrosomethane_150.wfx

