%nprocs=4
%mem=2GB
#p hf aug-cc-pvdz output=wfx scf=(conver=6) int=(grid=ultrafine)

title

0 1
H       -0.2925836700        -0.1392461080         1.8770989110
C        0.4511519110        -0.0113107670         1.1032434980
C        0.6425481190        -1.0323779400         0.1637282330
C        1.2052435310         1.1504452450         1.0440983380
N       -0.0976218380        -2.2054252760         0.2413432560
C        1.6176762050        -0.8533755330        -0.8243747960
H        1.0396170970         1.9246352040         1.7807479160
C        2.1683339100         1.3260516860         0.0564491330
H       -0.0724368160        -2.7809977150        -0.5837115440
H       -1.0378628650        -2.0924575940         0.5900608840
H        1.7814383200        -1.6337200460        -1.5563264180
C        2.3691429260         0.3109723830        -0.8724977400
H        2.7545207220         2.2320704140         0.0150390750
H        3.1156412170         0.4265205740        -1.6460847730

2.026_NH-O__aniline--acetaldehyde_1.wfx

