%nprocs=4
%mem=2GB
#p hf aug-cc-pvdz output=wfx scf=(conver=6) int=(grid=ultrafine)

title

0 1
C       -2.2068973140        -0.8986139120        -0.3334026490
H       -2.8918219380        -0.2051715370        -0.8178050720
H       -1.9970170670        -1.7239994670        -1.0110640030
C       -0.8949309910        -0.2668770050         0.0803113720
H       -2.6864678550        -1.3145918520         0.5506874230
O       -0.0196791110        -0.9169442530         0.6354449760
N       -0.7529808850         1.0490351040        -0.1976514140
H       -1.5109097850         1.5318302150        -0.6421003660
C        0.4445377090         1.7942787540         0.1592935010
H        0.3249113860         2.8209980060        -0.1756406650
H        1.3272562900         1.3601385220        -0.3060571640
H        0.5923224010         1.7882695560         1.2390788560

2.024_NH-O__ammonia--Nmethylacetamide_2.wfx

