%nprocs=4
%mem=2GB
#p hf aug-cc-pvdz output=wfx scf=(conver=6) int=(grid=ultrafine)

title

0 1
H       -0.0912811200         0.0089180500         1.9141922610
C        0.6498250690         0.1075454180         1.1338795950
C        0.9380109680        -0.9980767800         0.3237305740
C        1.3030018550         1.3140676010         0.9369118400
C        1.9183378030        -0.8601767790        -0.6654874190
N        0.2793426470        -2.2038530760         0.5252236270
H        1.0614747680         2.1549810710         1.5727470580
C        2.2647986400         1.4507225890        -0.0585807100
H        2.1574167240        -1.7059360610        -1.2971329110
C        2.5709635350         0.3491980660        -0.8503154470
H       -0.6842940080        -2.1100834100         0.8120838310
H        0.3769226970        -2.8676258110        -0.2250388280
H        2.7721528370         2.3923049150        -0.2076225050
H        3.3208116440         0.4324744020        -1.6248591210

2.029_NH-O__aniline--acetone_1.wfx

