%nprocs=4
%mem=2GB
#p hf aug-cc-pvdz output=wfx scf=(conver=6) int=(grid=ultrafine)

title

0 1
  N    3.274016695   0.059214175   0.000000000
  H    3.852544280  -0.101967192   0.814538171
  H    3.852544280  -0.101967192  -0.814538171
  H    2.547351328  -0.646626499   0.000000000
  H   -1.187468824   2.118110095   0.000000000
  H   -2.625501318  -0.211032967   0.000000000
  H    1.435029396   1.293858183   0.000000000
  H   -0.728699995  -2.180464249   0.000000000
  C   -1.555569388  -0.104689405   0.000000000
  C   -0.802126246   1.114406948   0.000000000
  C    0.504093211   0.757686503   0.000000000
  O    0.616154750  -0.602821113   0.000000000
  C   -0.648574310  -1.109772290   0.000000000

2.021_NH-O__ammonia--furan_080.wfx

