%nprocs=4
%mem=2GB
#p hf aug-cc-pvdz output=wfx scf=(conver=6) int=(grid=ultrafine)

title

0 1
  N   -3.712708303   0.684110904   0.000000000
  H   -3.149425068  -0.158390879   0.000000000
  H   -4.312043763   0.652308240  -0.814685073
  H   -4.312043763   0.652308240   0.814685073
  H   -1.551488031   1.452320330   0.000000000
  H    2.734169077   1.786042952   0.000000000
  H    0.497298124   2.849247923   0.000000000
  H    0.871104226  -2.073340383   0.000000000
  H   -1.408837015  -2.054375045   0.000000000
  H    2.909943628  -0.684845742   0.000000000
  C    1.842172265   1.177052824   0.000000000
  C    0.584485296   1.771857999   0.000000000
  C   -0.569298836   1.001441828   0.000000000
  C   -0.456674170  -0.384878314   0.000000000
  C    0.793648217  -0.993032265   0.000000000
  C    1.940112088  -0.207795769   0.000000000
  O   -1.618406198  -1.116959988   0.000000000

2.025_NH-O__ammonia--phenol_080.wfx

