%nprocs=4
%mem=2GB
#p hf aug-cc-pvdz output=wfx scf=(conver=6) int=(grid=ultrafine)

title

0 1
  N   -3.712708303   0.684110904   0.000000000
  H   -3.149425068  -0.158390879   0.000000000
  H   -4.312043763   0.652308240  -0.814685073
  H   -4.312043763   0.652308240   0.814685073
  H   -0.977355955   1.092856914   0.000000000
  H    3.308301153   1.426579536   0.000000000
  H    1.071430200   2.489784507   0.000000000
  H    1.445236302  -2.432803799   0.000000000
  H   -0.834704939  -2.413838461   0.000000000
  H    3.484075704  -1.044309158   0.000000000
  C    2.416304341   0.817589408   0.000000000
  C    1.158617372   1.412394583   0.000000000
  C    0.004833240   0.641978412   0.000000000
  C    0.117457906  -0.744341730   0.000000000
  C    1.367780293  -1.352495681   0.000000000
  C    2.514244164  -0.567259185   0.000000000
  O   -1.044274122  -1.476423404   0.000000000

2.025_NH-O__ammonia--phenol_110.wfx

