%nprocs=4
%mem=2GB
#p hf aug-cc-pvdz output=wfx scf=(conver=6) int=(grid=ultrafine)

title

0 1
N       -2.4878450630        -0.1248849450         0.0000000000
H       -3.0635693410         0.0498740180        -0.8139718530
H       -1.7433267450         0.5632393790         0.0000000000
H       -3.0635693410         0.0498740180         0.8139718530

2.023_NH-O__ammonia--nitrosomethane_1.wfx

