%nprocs=4
%mem=2GB
#p hf aug-cc-pvdz output=wfx scf=(conver=6) int=(grid=ultrafine)

title

0 1
  N    2.996085791  -0.555457000   0.324906636
  H    2.141921207  -0.853106611  -0.135212830
  H    3.237976922  -1.265300107   1.004574238
  H    3.731035625  -0.551389813  -0.371000210
  H   -0.898510308   1.265443717  -0.176573312
  H   -1.936473653   2.711766479  -0.362584684
  H   -1.626636260   1.635213924  -1.751205367
  H   -4.317850412  -1.998326328  -0.448792959
  C   -3.006948223  -0.328519921  -0.608346482
  O   -2.964610827   0.974524998  -0.299132091
  C   -1.768545899   1.686601137  -0.673795966
  C   -4.302690682  -0.951299500  -0.167125344
  O   -2.113086007  -0.914614149  -1.170044854
  H   -4.408843889  -0.855073416   0.912538810
  H   -5.141718371  -0.428854531  -0.623878959

2.022_NH-O__ammonia--methylacetate_200.wfx

