%nprocs=4
%mem=2GB
#p hf aug-cc-pvdz output=wfx scf=(conver=6) int=(grid=ultrafine)

title

0 1
  N    3.274016695   0.059214175   0.000000000
  H    3.852544280  -0.101967192   0.814538171
  H    3.852544280  -0.101967192  -0.814538171
  H    2.547351328  -0.646626499   0.000000000
  H   -2.877265829   2.156439808   0.000000000
  H   -4.315298323  -0.172703254   0.000000000
  H   -0.254767609   1.332187896   0.000000000
  H   -2.418497000  -2.142134536   0.000000000
  C   -3.245366393  -0.066359692   0.000000000
  C   -2.491923251   1.152736662   0.000000000
  C   -1.185703794   0.796016216   0.000000000
  O   -1.073642255  -0.564491400   0.000000000
  C   -2.338371315  -1.071442576   0.000000000

2.021_NH-O__ammonia--furan_150.wfx

