%nprocs=4
%mem=2GB
#p hf aug-cc-pvdz output=wfx scf=(conver=6) int=(grid=ultrafine)

title

0 1
O       -3.1907594980        -0.0520804610         0.2343595990
H       -4.0103084670        -0.3163651370         0.6564777520
C       -2.9597740490        -0.8681683960        -0.9134852760
H       -3.7368048230        -0.7286429490        -1.6678195490
H       -2.8959921230        -1.9254176000        -0.6493221540
H       -2.0041122690        -0.5606289600        -1.3281901140

2.033_NH-O__aniline--methanol_2.wfx

