%nprocs=4
%mem=2GB
#p hf aug-cc-pvdz output=wfx scf=(conver=6) int=(grid=ultrafine)

title

0 1
H        3.2937584990         0.7503610270         1.3055270150
C        2.2384492580         0.7994575930         1.0298735130
N        2.0689534610         0.4117839790        -0.3554692900
H        1.9029555350         1.8256131590         1.1684206340
H        1.6864154450         0.1623534580         1.7432217130
C        2.4093701370        -0.9691065370        -0.6132030390
H        1.1259349810         0.6140681020        -0.6667360510
H        1.8899468470        -1.6972342910         0.0412770630
H        2.1771401390        -1.2236079600        -1.6457776610
H        3.4781765790        -1.1292290210        -0.4581382730

2.038_NH-O__dimethylamine--acetamide_1.wfx

