%nprocs=4
%mem=2GB
#p hf aug-cc-pvdz output=wfx scf=(conver=6) int=(grid=ultrafine)

title

0 1
H        0.0558264850        -0.4919863290         1.5301942310
C       -0.8152843830        -0.4471715460         0.8930311410
C       -1.4209744780        -1.6099407550         0.4452241940
C       -1.3255271160         0.8075245950         0.5314817020
C       -2.5529487010        -1.5613574490        -0.3623315680
H       -1.0086546330        -2.5664116430         0.7376820860
C       -2.4692504090         0.8503491210        -0.2756046730
N       -0.7214334900         1.9663268540         0.9946612150
C       -3.0724837290        -0.3201312970        -0.7115983420
H       -3.0238747270        -2.4706342080        -0.7055459570
H       -2.8811684250         1.8098652930        -0.5609093060
H       -1.0020399080         2.8106119390         0.5250466450
H        0.2826461870         1.9047465310         1.1068913850
H       -3.9544838360        -0.2596355120        -1.3343343590

2.035_NH-O__aniline--Nmethylacetamide_1.wfx

