%nprocs=4
%mem=2GB
#p hf aug-cc-pvdz output=wfx scf=(conver=6) int=(grid=ultrafine)

title

0 1
O        3.0104865040        -0.8235042910        -0.7001769280
H        2.0817674550        -1.0492950190        -0.8214423290
H        3.4862799800        -1.6543725940        -0.7682393020

2.036_NH-O__aniline--water_2.wfx

