%nprocs=4
%mem=2GB
#p hf aug-cc-pvdz output=wfx scf=(conver=6) int=(grid=ultrafine)

title

0 1
  N   -1.738257590  -0.036342273  -0.699663151
  H   -0.969151528   0.623244535  -0.709253901
  H   -2.412123860   0.266661278  -1.389648823
  C   -2.343321657  -0.084029552   0.630262989
  H   -3.147801398  -0.819221818   0.641315593
  H   -2.750634222   0.869215527   0.986797531
  H   -1.594673646  -0.411287084   1.351770086
  H    2.107025287  -1.701374970  -0.763163279
  H    1.523541706  -1.794253063   0.882273182
  H    0.391951824  -1.313685574  -0.421497865
  H    2.852055952   0.330111694   0.536162192
  C    1.413170979  -1.242481901  -0.054630670
  C    1.816293618   0.181708015   0.169415126
  O    1.108522412   1.140098040  -0.017009849

2.048_NH-O__methylamine--acetaldehyde_100.wfx

