%nprocs=4
%mem=2GB
#p hf aug-cc-pvdz output=wfx scf=(conver=6) int=(grid=ultrafine)

title

0 1
  N   -1.738257590  -0.036342273  -0.699663151
  H   -0.969151528   0.623244535  -0.709253901
  H   -2.412123860   0.266661278  -1.389648823
  C   -2.343321657  -0.084029552   0.630262989
  H   -3.147801398  -0.819221818   0.641315593
  H   -2.750634222   0.869215527   0.986797531
  H   -1.594673646  -0.411287084   1.351770086
  H    2.003141590  -1.727217645  -0.797775482
  H    1.419658009  -1.820095738   0.847660979
  H    0.288068127  -1.339528249  -0.456110068
  H    2.748172255   0.304269019   0.501549989
  C    1.309287282  -1.268324576  -0.089242873
  C    1.712409921   0.155865340   0.134802923
  O    1.004638715   1.114255365  -0.051622052

2.048_NH-O__methylamine--acetaldehyde_095.wfx

