%nprocs=4
%mem=2GB
#p hf aug-cc-pvdz output=wfx scf=(conver=6) int=(grid=ultrafine)

title

0 1
H        2.9028787460         0.0310886910         1.1421528290
N        2.3334636230        -0.5328981140         0.5409609010
C        1.2536245860        -0.0301268220        -0.1157703730
H        2.5846425660        -1.4938809170         0.3885248640
O        0.5788085840        -0.7249209800        -0.8571862520
C        0.9579267030         1.4335234900         0.1175436450
H        1.2794899440         1.9926231820        -0.7614401330
H       -0.1184971990         1.5613206340         0.2136412240
H        1.4657620930         1.8374477970         0.9912602600

2.049_NH-O__methylamine--acetamide_2.wfx

