%nprocs=4
%mem=2GB
#p hf aug-cc-pvdz output=wfx scf=(conver=6) int=(grid=ultrafine)

title

0 1
H       -2.1775330180         1.4429317170         1.2447669080
C       -2.2480555320         0.9066036620         0.3021111630
H       -3.3014941690         0.7047118370         0.0808287610
O       -1.5168020750        -0.2935977680         0.4431351340
H       -1.8358172110         1.5306199710        -0.4983308160
C       -1.5240979880        -1.0775376510        -0.7321916640
H       -0.9321461390        -1.9672331260        -0.5336362970
H       -1.0819896950        -0.5345498700        -1.5742939520
H       -2.5424695750        -1.3758362580        -1.0025288400

2.042_NH-O__dimethylamine--dimethylether_2.wfx

