%nprocs=4
%mem=2GB
#p hf aug-cc-pvdz output=wfx scf=(conver=6) int=(grid=ultrafine)

title

0 1
H        2.1070252870        -1.7013749700        -0.7631632790
C        1.4131709790        -1.2424819010        -0.0546306700
H        0.3919518240        -1.3136855740        -0.4214978650
H        1.5235417060        -1.7942530630         0.8822731820
C        1.8162936180         0.1817080150         0.1694151260
O        1.1085224120         1.1400980400        -0.0170098490
H        2.8520559520         0.3301116940         0.5361621920

2.048_NH-O__methylamine--acetaldehyde_2.wfx

