%nprocs=4
%mem=2GB
#p hf aug-cc-pvdz output=wfx scf=(conver=6) int=(grid=ultrafine)

title

0 1
H        2.4737886090         1.4754287780        -0.2284654800
C        1.4131267730         1.2662606780        -0.0768204450
N        1.2495994520        -0.0452229820         0.5203412820
H        0.9152705010         1.3750116940        -1.0548395530
H        1.0166242090         2.0287749620         0.5922403290
C        1.6684696840        -1.1236023120        -0.3546344920
H        0.2857433250        -0.1788107930         0.7964891800
H        1.1806946190        -1.1083456560        -1.3438300130
H        2.7453624810        -1.0665789980        -0.5245659780
H        1.4548186850        -2.0831633370         0.1134125710

2.044_NH-O__dimethylamine--methanol_1.wfx

