%nprocs=4
%mem=2GB
#p hf aug-cc-pvdz output=wfx scf=(conver=6) int=(grid=ultrafine)

title

0 1
H        2.7184344550        -1.8038187090        -0.3193888290
C        1.6480297690        -1.7479998250        -0.1154277670
H        1.0858227880        -1.8503268720        -1.0454789900
H        1.3617184710        -2.5373691610         0.5775475960
O        1.3202233890        -0.5463824340         0.5483515600
O        1.7026938140         0.5155605830        -0.3822244150
C        1.4696087180         1.7263497570         0.3118680140
H        1.7719653010         2.5019455210        -0.3899736050
H        0.4133723060         1.8408453080         0.5582255870
H        2.0838777830         1.7842861970         1.2121448670

2.043_NH-O__dimethylamine--dimethylperoxide_2.wfx

