%nprocs=4
%mem=2GB
#p hf aug-cc-pvdz output=wfx scf=(conver=6) int=(grid=ultrafine)

title

0 1
H        4.0846073230        -0.3348490660        -0.0685231150
C        3.2971301470         0.0169978040         0.6008763810
N        2.0024269600        -0.1335285760        -0.0389371170
H        3.3330498800        -0.5888198790         1.5051248820
H        3.5359317580         1.0565112170         0.8743754100
C        1.8449091070         0.7176306680        -1.2042437150
H        1.2577391410         0.0632659740         0.6194675690
H        0.8376591670         0.6092019450        -1.6053184390
H        2.5476322920         0.4144267400        -1.9828992410
H        2.0180444690         1.7855004710        -0.9991909960

2.046_NH-O__dimethylamine--Nmethylacetamide_1.wfx

