%nprocs=4
%mem=2GB
#p hf aug-cc-pvdz output=wfx scf=(conver=6) int=(grid=ultrafine)

title

0 1
C        2.1116179650        -1.6642665520         0.4993216420
H        2.4135302820        -2.4596322630        -0.1794019220
H        2.4262822350        -1.9533293750         1.5013994510
H        1.0295114220        -1.5603830340         0.4781899920
C        2.8441497090        -0.3947795290         0.1114212230
N        2.0691560420         0.6985917760        -0.0681164080
O        4.0594423160        -0.3679859220        -0.0209892610
C        2.6492056320         1.9774438340        -0.4210447750
H        1.0696554700         0.6394357710         0.0517533170
H        1.8491578110         2.7077439190        -0.5087453460
H        3.1859067910         1.9171710900        -1.3679298490
H        3.3575381660         2.3104919270         0.3376791230

2.059_NH-O__Nmethylacetamide--dimethylcarbonate_1.wfx

