%nprocs=4
%mem=2GB
#p hf aug-cc-pvdz output=wfx scf=(conver=6) int=(grid=ultrafine)

title

0 1
H        2.8039206610        -1.0680030610         0.3294292090
O        2.5740435860        -0.1295154490         0.2860261130
C        1.2626523100        -0.0554707400        -0.0382924410
O        0.5971930700        -1.0450185780        -0.2179280580
C        0.7851100790         1.3620322660        -0.1323680300
H        1.3938075590         1.9046398990        -0.8544838250
H       -0.2601371310         1.3799102590        -0.4250418940
H        0.9185084710         1.8521622840         0.8316897870

2.050_NH-O__methylamine--aceticacid_2.wfx

