%nprocs=4
%mem=2GB
#p hf aug-cc-pvdz output=wfx scf=(conver=6) int=(grid=ultrafine)

title

0 1
H        0.8500876640         1.8440811280         0.8185900530
C        0.7933305790         1.3529656510        -0.1555290090
H       -0.2367988850         1.3472000860        -0.5011889220
C        1.3232466140        -0.0547731060        -0.0278214840
H        1.4190709140         1.9343458540        -0.8340336470
O        0.6095343930        -1.0261257470        -0.1518392000
C        2.7980390640        -0.1985356020         0.2682108150
H        3.3770726690         0.1770952100        -0.5776246010
H        3.0482045550        -1.2401990010         0.4445948690
H        3.0754232970         0.4058184860         1.1328448170

2.051_NH-O__methylamine--acetone_2.wfx

