%nprocs=4
%mem=2GB
#p hf aug-cc-pvdz output=wfx scf=(conver=6) int=(grid=ultrafine)

title

0 1
  N   -1.924102404  -0.484806007   0.513383399
  H   -0.979899356  -0.369296403   0.861046291
  H   -2.557039828  -0.350397193   1.289921033
  C   -2.188494797   0.484902339  -0.546053857
  H   -3.202712713   0.351914201  -0.922219708
  H   -2.074024980   1.536661280  -0.253811067
  H   -1.510932686   0.298701945  -1.379492268
  H    2.418658808   2.017241236   0.632192154
  H    3.725717510   1.318231706  -0.349669512
  H    2.126595430   1.609575972  -1.073603208
  H    2.070705470  -1.908052156  -0.269525830
  H    3.529803864  -1.086552078  -0.877147196
  H    1.944560632  -0.764196132  -1.620471216
  C    2.647181870   1.306958880  -0.158398210
  O    2.218388712   0.035002664   0.277786466
  C    2.458366910  -0.978910930  -0.677450984

2.053_NH-O__methylamine--dimethylether_150.wfx

