%nprocs=4
%mem=2GB
#p hf aug-cc-pvdz output=wfx scf=(conver=6) int=(grid=ultrafine)

title

0 1
C       -1.3124736210        -1.7345449530        -0.5538079540
H       -1.9439392720        -2.2497565740        -1.2746429780
C       -2.0270055810        -0.4775725690        -0.0963779600
H       -0.3412747020        -1.5375946890        -1.0023250300
H       -1.1888636310        -2.3972432210         0.3018371790
O       -3.1597031450        -0.5104492540         0.3589420690
N       -1.3229172460         0.6731426990        -0.2151632390
H       -0.3892194990         0.6506758080        -0.5964437850
C       -1.8948464710         1.9456149440         0.1758498720
H       -1.1381439370         2.7174537370         0.0618205100
H       -2.7573530240         2.1984802990        -0.4411516490
H       -2.2287738340         1.9185863280         1.2124584380

2.058_NH-O__Nmethylacetamide--aceticacid_1.wfx

