%nprocs=4
%mem=2GB
#p hf aug-cc-pvdz output=wfx scf=(conver=6) int=(grid=ultrafine)

title

0 1
  N   -2.344403272  -0.465357477  -0.713483010
  H   -1.470883704  -0.812145831  -0.330859986
  H   -2.713250565  -1.178985136  -1.327481537
  C   -3.286996117  -0.178980010   0.365879202
  H   -4.215685195   0.213848858  -0.048716902
  H   -3.536631103  -1.037803015   1.000427839
  H   -2.867562741   0.592832014   1.011281587
  C    3.697712551  -0.992809424   0.229862578
  H    4.059413272  -1.462498848   1.142587110
  H    4.450341911  -0.296861428  -0.135941716
  H    3.551688893  -1.779688164  -0.507811266
  C    2.360179253  -0.344991650   0.516764092
  O    1.414024362  -0.993065548   0.943174196
  N    2.277195705   0.983493242   0.277338130
  H    3.086920220   1.462551940  -0.068921572
  C    1.058403810   1.740983976   0.516371002
  H    0.240243953   1.367606062  -0.097455884
  H    0.762840121   1.665352066   1.562343952
  H    1.246866533   2.783926024   0.277022116

2.056_NH-O__methylamine--Nmethylacetamide_150.wfx

