%nprocs=4
%mem=2GB
#p hf aug-cc-pvdz output=wfx scf=(conver=6) int=(grid=ultrafine)

title

0 1
H       -0.2020871040         0.7172824680         1.7316243900
C       -0.9934224770         0.3379293950         1.1033753060
C       -1.6903793570        -0.8125068750         1.4411263540
C       -1.3076049080         1.0033828810        -0.0748700750
H       -1.4373788630        -1.3352637730         2.3521748910
C       -2.7009011300        -1.2970389570         0.6176172750
O       -0.5559998970         2.1093566310        -0.3961940110
C       -2.3189769880         0.5339671810        -0.9032087210
C       -3.0141867020        -0.6163059700        -0.5513946030
H       -3.2375815040        -2.1950613280         0.8849304100
H       -0.9178221300         2.5300073370        -1.1810178960
H       -2.5541486240         1.0560389500        -1.8221812600
H       -3.7980497820        -0.9813527050        -1.1993850340

2.064_NH-O__Nmethylacetamide--phenol_2.wfx

