%nprocs=4
%mem=2GB
#p hf aug-cc-pvdz output=wfx scf=(conver=6) int=(grid=ultrafine)

title

0 1
C        1.8501598620        -1.6297021190         0.7885426470
H        0.8209008290        -1.5004945040         1.1160084910
H        1.8979450690        -2.4103595200         0.0302102770
C        2.4570019880        -0.3608163410         0.2203153750
H        2.4574178620        -1.9580921470         1.6298652380
N        1.6227156060         0.6996296880         0.1433134260
O        3.6236121570        -0.3131540930        -0.1432844130
C        2.0771432150         1.9711247730        -0.3787534130
H        0.6549458090         0.6002216510         0.4252396550
H        1.2457557180         2.6711717140        -0.3595355070
H        2.4401112190         1.8712328280        -1.4022101090
H        2.8947416950         2.3723797230         0.2200387460

2.063_NH-O__Nmethylacetamide--Nmethylacetamide_1.wfx

