%nprocs=4
%mem=2GB
#p hf aug-cc-pvdz output=wfx scf=(conver=6) int=(grid=ultrafine)

title

0 1
  C   -0.448107058   1.825208162   0.000000000
  H   -0.851097083   2.328101242  -0.877441241
  H   -0.851097083   2.328101242   0.877441241
  H    0.636347764   1.912619875   0.000000000
  C   -0.932564966   0.388761160   0.000000000
  O   -2.121628432   0.109288053   0.000000000
  N    0.035788431  -0.557890254   0.000000000
  H    1.004621635  -0.283135579   0.000000000
  C   -0.296772004  -1.967859167   0.000000000
  H   -0.884048369  -2.232082909   0.879279975
  H    0.625240105  -2.543351169   0.000000000
  H   -0.884048369  -2.232082909  -0.879279975
  O    2.584807610   0.099506523   0.000000000
  H    3.141147993   0.258889890   0.766287764
  H    3.141147993   0.258889890  -0.766287764

2.065_NH-O__Nmethylacetamide--water_080.wfx

