%nprocs=4
%mem=2GB
#p hf aug-cc-pvdz output=wfx scf=(conver=6) int=(grid=ultrafine)

title

0 1
H        1.8910248260        -1.4016755580        -1.3495061990
C        2.0658439940        -1.2033906900        -0.2901064050
H        1.2796326100        -1.7262545940         0.2547856400
N        1.8227857710         0.2292617980        -0.0898966310
H        3.0708513030        -1.4824619030         0.0171750340
O        2.7514737950         0.8609314310         0.3258621750

3.009_OH-N__aceticacid--nitrosomethane_2.wfx

