%nprocs=4
%mem=2GB
#p hf aug-cc-pvdz output=wfx scf=(conver=6) int=(grid=ultrafine)

title

0 1
C       -1.4447642640        -0.1383921970         0.0000000000
O       -0.6197583510        -1.0228256000         0.0000000000
C       -2.9320983070        -0.3594406560         0.0000000000
O       -1.1377147230         1.1640960640         0.0000000000
H       -3.1466331630        -1.4222529680         0.0000000000
H       -3.3740531350         0.1118665630        -0.8768192950
H       -3.3740531350         0.1118665630         0.8768192950
H       -0.1655951320         1.2773436580         0.0000000000

3.001_OH-N__aceticacid--acetonitrile_1.wfx

