%nprocs=4
%mem=2GB
#p hf aug-cc-pvdz output=wfx scf=(conver=6) int=(grid=ultrafine)

title

0 1
  C   -1.444764264  -0.138392197   0.000000000
  O   -0.619758351  -1.022825600   0.000000000
  O   -1.137714723   1.164096064   0.000000000
  H   -0.165595132   1.277343658   0.000000000
  C   -2.932098307  -0.359440656   0.000000000
  H   -3.146633163  -1.422252968   0.000000000
  H   -3.374053135   0.111866563  -0.876819295
  H   -3.374053135   0.111866563   0.876819295
  H    1.737852329  -1.761050403   0.000000000
  H    3.220186605  -1.331685156  -0.886775002
  H    3.220186605  -1.331685156   0.886775002
  C    2.623440995  -1.127036415   0.000000000
  C    2.178082994   0.251759906   0.000000000
  N    1.778792694   1.328779066   0.000000000

3.001_OH-N__aceticacid--acetonitrile_100.wfx

