%nprocs=4
%mem=2GB
#p hf aug-cc-pvdz output=wfx scf=(conver=6) int=(grid=ultrafine)

title

0 1
H       -2.8090618840        -1.2793344520        -1.0736457600
C       -2.4222619030        -1.2204859380        -0.0564720390
H       -3.2726905710        -1.2682175570         0.6335274510
H       -1.7856080110        -2.0859559390         0.1161359360
N       -1.6364036550         0.0000000000         0.0951141340
C       -2.4222619030         1.2204859380        -0.0564720390
H       -1.1625905210         0.0000000000         0.9924204000
H       -2.8090618840         1.2793344520        -1.0736457600
H       -3.2726905710         1.2682175570         0.6335274510
H       -1.7856080110         2.0859559390         0.1161359360

3.004_OH-N__aceticacid--dimethylamine_2.wfx

