%nprocs=4
%mem=2GB
#p hf aug-cc-pvdz output=wfx scf=(conver=6) int=(grid=ultrafine)

title

0 1
C       -1.8479408020         0.0297069720        -0.1031854120
O       -1.3000438620        -0.5768991050        -0.9924921100
C       -3.3072700730         0.3901039560        -0.0805731420
O       -1.2072863850         0.4641953930         0.9929540300
H       -3.4166728610         1.4729435500        -0.0351068540
H       -3.7951745900         0.0045832160        -0.9687589550
H       -3.7757128340        -0.0194210150         0.8132585450
H       -0.2576928740         0.2187725600         0.9206258340

3.007_OH-N__aceticacid--methylazide_1.wfx

