%nprocs=4
%mem=2GB
#p hf aug-cc-pvdz output=wfx scf=(conver=6) int=(grid=ultrafine)

title

0 1
N        2.5660010620         0.0431510080         0.0000000000
H        2.1294368890        -0.8738861590         0.0000000000
H        3.1565789720         0.1160919600        -0.8182514110
H        3.1565789720         0.1160919600         0.8182514110

3.002_OH-N__aceticacid--ammonia_2.wfx

