%nprocs=4
%mem=2GB
#p hf aug-cc-pvdz output=wfx scf=(conver=6) int=(grid=ultrafine)

title

0 1
H        1.2185470480        -2.0929259830         1.2802008950
C        1.4539739770        -1.8206738860         0.2507744780
H        2.3973421260        -2.2659202620        -0.0596694450
H        0.6204977610        -2.1539788050        -0.3649626700
N        1.4988150670        -0.3653308730         0.1760505840
N        2.5842551480         0.1051357640        -0.1573095050
C        2.6089514520         1.5615211890        -0.2334756960
H        1.6520306040         2.0172205940         0.0213305980
H        2.9049021630         1.8350458260        -1.2461045010
H        3.3914820420         1.9148097770         0.4378302870

3.005_OH-N__aceticacid--dimethyldiazene_2.wfx

