%nprocs=4
%mem=2GB
#p hf aug-cc-pvdz output=wfx scf=(conver=6) int=(grid=ultrafine)

title

0 1
  O    2.271169342   0.653276194   0.000000000
  H    1.313480436   0.533481438   0.000000000
  C    2.876155121  -0.624338818   0.000000000
  H    3.954807364  -0.476204534   0.000000000
  H    2.611442796  -1.208150724  -0.888085808
  H    2.611442796  -1.208150724   0.888085808
  H   -4.713540548   0.648629520   0.000000000
  H   -4.587278164  -0.879914980  -0.885640940
  H   -4.587278164  -0.879914980   0.885640940
  C   -4.257843054  -0.339800674   0.000000000
  C   -2.810312246  -0.219356264   0.000000000
  N   -1.667663474  -0.123279866   0.000000000

3.013_OH-N__methanol--acetonitrile_150.wfx

