%nprocs=4
%mem=2GB
#p hf aug-cc-pvdz output=wfx scf=(conver=6) int=(grid=ultrafine)

title

0 1
C        2.6453440340         0.0927415410         0.0000000000
O        1.9240838360        -1.0255639910         0.0000000000
O        2.1647408750         1.2055655010         0.0000000000
C        4.1263648560        -0.1828492520         0.0000000000
H        0.9434394930        -0.8028656000         0.0000000000
H        4.3911594240        -0.7724224220        -0.8768414410
H        4.3911594240        -0.7724224220         0.8768414410
H        4.6771161660         0.7513951240         0.0000000000

3.011_OH-N__aceticacid--pyridine_1.wfx

