%nprocs=4
%mem=2GB
#p hf aug-cc-pvdz output=wfx scf=(conver=6) int=(grid=ultrafine)

title

0 1
  O   -1.978053535  -0.023446482   0.668943910
  H   -1.041058927   0.187252730   0.522641944
  C   -2.656380907   0.093829410  -0.565780324
  H   -3.692356972  -0.197906375  -0.403387047
  H   -2.234448733  -0.562984397  -1.334728767
  H   -2.647648037   1.120277903  -0.948211132
  H    1.275867735   2.280731181   0.915853902
  H    2.495273911   1.737499350  -0.282585820
  H    0.876781426   2.316650840  -0.794141882
  H    1.239494647  -2.318765782  -0.978110414
  H    0.027923177  -1.800336520   0.240092513
  H    1.660207612  -2.360219348   0.723908653
  C    1.435295987   1.770476185  -0.033927828
  N    0.861639255   0.433042137   0.072751472
  N    1.661239593  -0.477823579  -0.133721400
  C    1.085083116  -1.814601698  -0.024025201

3.017_OH-N__methanol--dimethyldiazene_100.wfx

