%nprocs=4
%mem=2GB
#p hf aug-cc-pvdz output=wfx scf=(conver=6) int=(grid=ultrafine)

title

0 1
H        1.3628544800        -2.1401153290        -0.6122911870
C        0.7590893040        -1.6851664540         0.1734960900
H       -0.2518355230        -2.0726369610         0.1168919060
H        1.1860182580        -1.9264367440         1.1475430790
N        0.6525618750        -0.2268991430        -0.0134441700
N        1.7062535850         0.4008324980        -0.0093706630
N        2.6122842210         1.0719965040        -0.0207947110

3.019_OH-N__methanol--methylazide_2.wfx

