%nprocs=4
%mem=2GB
#p hf aug-cc-pvdz output=wfx scf=(conver=6) int=(grid=ultrafine)

title

0 1
  O   -1.381580817   0.540266585  -0.400640626
  H   -0.453659817   0.613664390  -0.105659031
  C   -1.981236071  -0.539769485   0.280588208
  H   -3.016523899  -0.611018642  -0.049777707
  H   -1.490933710  -1.495750111   0.060514036
  H   -1.982737432  -0.398740089   1.367695104
  N    1.400011094   0.590126126   0.332033260
  H    1.605487033   0.655972265   1.320229476
  H    1.800631933   1.409079103  -0.106654200
  C    1.960892139  -0.638396160  -0.242084504
  H    1.693776595  -0.691501936  -1.295705972
  H    3.048153765  -0.720136210  -0.155958378
  H    1.513445069  -1.498924472   0.251950450

3.018_OH-N__methanol--methylamine_100.wfx

