%nprocs=4
%mem=2GB
#p hf aug-cc-pvdz output=wfx scf=(conver=6) int=(grid=ultrafine)

title

0 1
O        0.7490946270        -0.6541736460         0.0000000000
H       -0.1818616190        -0.3696155680         0.0000000000
C        1.5705775650         0.4933642320         0.0000000000
H        2.6074843610         0.1606095490         0.0000000000
H        1.4159533850         1.1172449400        -0.8880088310
H        1.4159533850         1.1172449400         0.8880088310

3.014_OH-N__methanol--ammonia_1.wfx

