%nprocs=4
%mem=2GB
#p hf aug-cc-pvdz output=wfx scf=(conver=6) int=(grid=ultrafine)

title

0 1
  O   -1.381580817   0.540266585  -0.400640626
  H   -0.453659817   0.613664390  -0.105659031
  C   -1.981236071  -0.539769485   0.280588208
  H   -3.016523899  -0.611018642  -0.049777707
  H   -1.490933710  -1.495750111   0.060514036
  H   -1.982737432  -0.398740089   1.367695104
  N    1.492694640   0.588949213   0.353917875
  H    1.698170579   0.654795352   1.342114091
  H    1.893315479   1.407902190  -0.084769585
  C    2.053575685  -0.639573073  -0.220199889
  H    1.786460141  -0.692678849  -1.273821357
  H    3.140837311  -0.721313123  -0.134073763
  H    1.606128615  -1.500101385   0.273835065

3.018_OH-N__methanol--methylamine_105.wfx

