%nprocs=4
%mem=2GB
#p hf aug-cc-pvdz output=wfx scf=(conver=6) int=(grid=ultrafine)

title

0 1
  O   -1.381580817   0.540266585  -0.400640626
  H   -0.453659817   0.613664390  -0.105659031
  C   -1.981236071  -0.539769485   0.280588208
  H   -3.016523899  -0.611018642  -0.049777707
  H   -1.490933710  -1.495750111   0.060514036
  H   -1.982737432  -0.398740089   1.367695104
  N    1.585378185   0.587772300   0.375802489
  H    1.790854124   0.653618439   1.363998705
  H    1.985999024   1.406725277  -0.062884971
  C    2.146259230  -0.640749986  -0.198315275
  H    1.879143686  -0.693855762  -1.251936743
  H    3.233520856  -0.722490036  -0.112189149
  H    1.698812160  -1.501278298   0.295719679

3.018_OH-N__methanol--methylamine_110.wfx

