%nprocs=4
%mem=2GB
#p hf aug-cc-pvdz output=wfx scf=(conver=6) int=(grid=ultrafine)

title

0 1
H       -0.4512512180         0.8724800100         2.1413642260
C       -0.8130860790         0.4962070980         1.1935496440
C       -1.8549939180        -0.4188494750         1.1598871730
C       -0.2173667360         0.9265654950         0.0081163270
C       -2.3190404000        -0.9186392790        -0.0508081380
H       -2.3051240600        -0.7430684060         2.0875359100
C       -0.6833717200         0.4253275030        -1.2074626450
N        0.8963861250         1.7846945750         0.0409818340
H       -3.1295398920        -1.6318442870        -0.0735718810
C       -1.7264306210        -0.4883992140        -1.2320354300
H       -0.2168279570         0.7429205690        -2.1304086600
H        1.0162310820         2.3401695170        -0.7919458580
H        0.9525937620         2.3605034620         0.8665259170
H       -2.0748495440        -0.8683494850        -2.1820076080

3.015_OH-N__methanol--aniline_2.wfx

