%nprocs=4
%mem=2GB
#p hf aug-cc-pvdz output=wfx scf=(conver=6) int=(grid=ultrafine)

title

0 1
H        1.5286650630         1.2423646950        -1.1221940220
C        1.8614999550         1.0407137230        -0.1044325230
H        2.9374466170         0.8271289540        -0.1330907190
H        1.6979009170         1.9407394250         0.4846606670
N        1.0726555280        -0.0572051080         0.4471229900
C        1.2910855600        -1.3222937300        -0.2467958850
H        1.2772577450        -0.1652219360         1.4313226690
H        2.3471217460        -1.6180796860        -0.2860592250
H        0.9270920100        -1.2347038080        -1.2702927590
H        0.7258509010        -2.1126034500         0.2436053880

3.016_OH-N__methanol--dimethylamine_2.wfx

