%nprocs=4
%mem=2GB
#p hf aug-cc-pvdz output=wfx scf=(conver=6) int=(grid=ultrafine)

title

0 1
  O   -1.381580817   0.540266585  -0.400640626
  H   -0.453659817   0.613664390  -0.105659031
  C   -1.981236071  -0.539769485   0.280588208
  H   -3.016523899  -0.611018642  -0.049777707
  H   -1.490933710  -1.495750111   0.060514036
  H   -1.982737432  -0.398740089   1.367695104
  N    1.029276912   0.594833779   0.244494802
  H    1.234752851   0.660679918   1.232691018
  H    1.429897751   1.413786756  -0.194192658
  C    1.590157957  -0.633688507  -0.329622962
  H    1.323042413  -0.686794283  -1.383244430
  H    2.677419583  -0.715428557  -0.243496836
  H    1.142710887  -1.494216819   0.164411992

3.018_OH-N__methanol--methylamine_080.wfx

