%nprocs=4
%mem=2GB
#p hf aug-cc-pvdz output=wfx scf=(conver=6) int=(grid=ultrafine)

title

0 1
  O    2.918572453   0.000000000  -0.605637020
  H    1.949094148   0.000000000  -0.504913136
  C    3.497253484   0.000000000   0.681677575
  H    4.579607695   0.000000000   0.560896664
  H    3.221051514   0.887249147   1.263031668
  H    3.221051514  -0.887249147   1.263031668
  H   -2.947529416   2.146999384   0.225245388
  H   -0.486799790   2.052345875  -0.114758810
  C   -3.143721366   0.000000000   0.253381926
  C   -2.443642300   1.194345616   0.156819434
  C   -1.069403526   1.143788024  -0.032281606
  N   -0.391208240   0.000000000  -0.124914314
  C   -1.069403526  -1.143788024  -0.032281606
  C   -2.443642300  -1.194345616   0.156819434
  H   -0.486799790  -2.052345875  -0.114758810
  H   -2.947529416  -2.146999384   0.225245388
  H   -4.214435750   0.000000000   0.400301578

3.022_OH-N__methanol--pyridine_125.wfx

