%nprocs=4
%mem=2GB
#p hf aug-cc-pvdz output=wfx scf=(conver=6) int=(grid=ultrafine)

title

0 1
O        2.9185724530         0.0000000000        -0.6056370200
H        1.9490941480         0.0000000000        -0.5049131360
C        3.4972534840         0.0000000000         0.6816775750
H        3.2210515140        -0.8872491470         1.2630316680
H        4.5796076950         0.0000000000         0.5608966640
H        3.2210515140         0.8872491470         1.2630316680

3.022_OH-N__methanol--pyridine_1.wfx

