%nprocs=4
%mem=2GB
#p hf aug-cc-pvdz output=wfx scf=(conver=6) int=(grid=ultrafine)

title

0 1
  O   -1.870564293  -0.756998080   0.000000000
  H   -0.924380728  -0.504380189   0.000000000
  C   -2.642544109   0.423845411  -0.000000000
  H   -3.693626155   0.138881740   0.000000000
  H   -2.460648385   1.040868745  -0.887998323
  H   -2.460648385   1.040868745   0.887998323
  H    2.267061450   1.113881363   1.290437192
  H    0.951715194   0.222280626   2.082411001
  H    0.597764861   1.708688170   1.198625865
  H    0.597764861   1.708688170  -1.198625865
  H    2.267061450   1.113881363  -1.290437192
  H    0.951715194   0.222280626  -2.082411001
  H    2.799018593  -1.043342050   0.000000000
  H    1.454849424  -1.797730920  -0.882114329
  C    1.213079398   0.810506263   1.204615285
  N    0.958693921   0.032569260  -0.000000000
  C    1.213079398   0.810506263  -1.204615285
  C    1.712340996  -1.214395441   0.000000000
  H    1.454849424  -1.797730920   0.882114329

3.023_OH-N__methanol--trimethylamine_105.wfx

