%nprocs=4
%mem=2GB
#p hf aug-cc-pvdz output=wfx scf=(conver=6) int=(grid=ultrafine)

title

0 1
  O    2.918572453   0.000000000  -0.605637020
  H    1.949094148   0.000000000  -0.504913136
  C    3.497253484   0.000000000   0.681677575
  H    4.579607695   0.000000000   0.560896664
  H    3.221051514   0.887249147   1.263031668
  H    3.221051514  -0.887249147   1.263031668
  H   -2.292244748   2.146999384   0.118845717
  H    0.168484878   2.052345875  -0.221158481
  C   -2.488436697   0.000000000   0.146982255
  C   -1.788357632   1.194345616   0.050419763
  C   -0.414118858   1.143788024  -0.138681277
  N    0.264076429   0.000000000  -0.231313984
  C   -0.414118858  -1.143788024  -0.138681277
  C   -1.788357632  -1.194345616   0.050419763
  H    0.168484878  -2.052345875  -0.221158481
  H   -2.292244748  -2.146999384   0.118845717
  H   -3.559151081   0.000000000   0.293901908

3.022_OH-N__methanol--pyridine_090.wfx

