%nprocs=4
%mem=2GB
#p hf aug-cc-pvdz output=wfx scf=(conver=6) int=(grid=ultrafine)

title

0 1
  O   -1.870564293  -0.756998080   0.000000000
  H   -0.924380728  -0.504380189   0.000000000
  C   -2.642544109   0.423845411  -0.000000000
  H   -3.693626155   0.138881740   0.000000000
  H   -2.460648385   1.040868745  -0.887998323
  H   -2.460648385   1.040868745   0.887998323
  H    1.908380565   1.011605278   1.290437192
  H    0.593034309   0.120004541   2.082411001
  H    0.239083976   1.606412085   1.198625865
  H    0.239083976   1.606412085  -1.198625865
  H    1.908380565   1.011605278  -1.290437192
  H    0.593034309   0.120004541  -2.082411001
  H    2.440337708  -1.145618135   0.000000000
  H    1.096168539  -1.900007005  -0.882114329
  C    0.854398513   0.708230178   1.204615285
  N    0.600013036  -0.069706825   0.000000000
  C    0.854398513   0.708230178  -1.204615285
  C    1.353660111  -1.316671526   0.000000000
  H    1.096168539  -1.900007005   0.882114329

3.023_OH-N__methanol--trimethylamine_085.wfx

