%nprocs=4
%mem=2GB
#p hf aug-cc-pvdz output=wfx scf=(conver=6) int=(grid=ultrafine)

title

0 1
N        3.0871613050        -0.7362752040         0.0000000860
H        3.1215964840        -1.3382794680        -0.8128244700
H        3.1215963980        -1.3382791630         0.8128248720
C        4.2166814800         0.2047078250        -0.0000000110
H        5.1969867350        -0.2781941240         0.0000001340
H        4.1452897980         0.8437470420        -0.8775622890
H        4.1452896810         0.8437473380         0.8775620430

3.029_OH-N__phenol--methylamine_2.wfx

