%nprocs=4
%mem=2GB
#p hf aug-cc-pvdz output=wfx scf=(conver=6) int=(grid=ultrafine)

title

0 1
O        1.6515627620        -0.2862504070         0.2898548040
C        2.9468065330        -0.1558572490        -0.2780873100
H        1.2378631940         0.5834820020         0.3412519300
H        3.3722545780        -1.1547592560        -0.3441094280
H        2.9098448180         0.2732529620        -1.2827777960
H        3.6023608680         0.4585243790         0.3441448620

3.020_OH-N__methanol--methylcyanate_1.wfx

