%nprocs=4
%mem=2GB
#p hf aug-cc-pvdz output=wfx scf=(conver=6) int=(grid=ultrafine)

title

0 1
  O    2.536736371   0.182918899  -0.061451462
  H    1.578854572   0.331992874   0.022473871
  H    2.921944478   0.519691564   0.749931716
  H   -0.297134430   2.250115921  -0.861563279
  H   -1.768235540   1.574699559  -0.088600086
  H   -0.423817979   2.244749058   0.890574999
  H   -0.472046750  -2.417289393   0.856155218
  H    1.009595686  -1.762114153   0.083539308
  H   -0.350130495  -2.400837679  -0.893253647
  C   -0.688066432   1.691880129  -0.011002190
  N   -0.004711126   0.402962042   0.032254392
  N   -0.756670442  -0.568088036  -0.026089166
  C   -0.073246768  -1.857394891   0.010130124

3.039_OH-N__water--dimethyldiazene_080.wfx

