%nprocs=4
%mem=2GB
#p hf aug-cc-pvdz output=wfx scf=(conver=6) int=(grid=ultrafine)

title

0 1
  O    2.079875756  -0.208919275   0.000000000
  H    2.999613891   0.063843842   0.000000000
  H    1.566421342   0.606257085   0.000000000
  H   -2.252354400  -1.312219274   0.886042719
  H   -2.252354400  -1.312219274  -0.886042719
  H   -0.726210570  -1.511868542   0.000000000
  C   -1.694795703  -1.014793718   0.000000000
  C   -1.480022926   0.421426568   0.000000000
  N   -1.265579638   1.550192882   0.000000000

3.035_OH-N__water--acetonitrile_125.wfx

