%nprocs=4
%mem=2GB
#p hf aug-cc-pvdz output=wfx scf=(conver=6) int=(grid=ultrafine)

title

0 1
N        1.4550902940        -0.0126147970         0.0000000000
H        1.8960262800        -0.4160395300        -0.8168380660
H        1.8960262800        -0.4160395300         0.8168380660
H        1.6657922020         0.9777692660         0.0000000000

3.036_OH-N__water--ammonia_2.wfx

