%nprocs=4
%mem=2GB
#p hf aug-cc-pvdz output=wfx scf=(conver=6) int=(grid=ultrafine)

title

0 1
  O    2.079875756  -0.208919275   0.000000000
  H    2.999613891   0.063843842   0.000000000
  H    1.566421342   0.606257085   0.000000000
  H   -1.912514282  -1.425491569   0.886042719
  H   -1.912514282  -1.425491569  -0.886042719
  H   -0.386370452  -1.625140837   0.000000000
  C   -1.354955585  -1.128066014   0.000000000
  C   -1.140182808   0.308154272   0.000000000
  N   -0.925739520   1.436920587   0.000000000

3.035_OH-N__water--acetonitrile_110.wfx

