%nprocs=4
%mem=2GB
#p hf aug-cc-pvdz output=wfx scf=(conver=6) int=(grid=ultrafine)

title

0 1
H       -3.6117196900        -1.8113635700         1.6602598830
C       -3.3630727080        -1.0515162130         0.9345998470
C       -4.2916543600        -0.6151225590        -0.0000601840
C       -2.0949379190        -0.4890338580         0.9210398620
H       -5.2888987110        -1.0310029530        -0.0198596390
C       -3.9170591030         0.3644072170        -0.9090183250
H       -1.3389465040        -0.8014933680         1.6298902490
N       -1.7303663040         0.4522886710         0.0496412790
H       -4.6074201370         0.7327667400        -1.6530137150
C       -2.6258486020         0.8687959280        -0.8458611390
H       -2.2928251760         1.6335893880        -1.5352621970

3.033_OH-N__phenol--pyridine_2.wfx

