%nprocs=4
%mem=2GB
#p hf aug-cc-pvdz output=wfx scf=(conver=6) int=(grid=ultrafine)

title

0 1
  O   -1.470668174   0.057604709   0.000000000
  H   -0.502275126  -0.054060965   0.000000000
  H   -1.831636709  -0.830709539   0.000000000
  N    1.455090294  -0.012614797   0.000000000
  H    1.665792202   0.977769266   0.000000000
  H    1.896026280  -0.416039530  -0.816838066
  H    1.896026280  -0.416039530   0.816838066

3.036_OH-N__water--ammonia_100.wfx

