%nprocs=4
%mem=2GB
#p hf aug-cc-pvdz output=wfx scf=(conver=6) int=(grid=ultrafine)

title

0 1
H       -0.0543563050         2.1404158390        -0.5580707260
C        0.4305495530         1.2029279300        -0.3200255370
C       -0.1982505750         0.0000000000        -0.6432096350
C        1.6673278760         1.1981786990         0.3082677070
N       -1.4820298040         0.0000000000        -1.2169343360
C        0.4305495530        -1.2029279300        -0.3200255370
H        2.1419069740         2.1387973590         0.5497253620
C        2.2951040280         0.0000000000         0.6269189560
H       -1.6987754840        -0.8297710940        -1.7471630120
H       -1.6987754840         0.8297710940        -1.7471630120
H       -0.0543563050        -2.1404158390        -0.5580707260
C        1.6673278760        -1.1981786990         0.3082677070
H        3.2580466820         0.0000000000         1.1156440440
H        2.1419069740        -2.1387973590         0.5497253620

3.037_OH-N__water--aniline_2.wfx

