%nprocs=4
%mem=2GB
#p hf aug-cc-pvdz output=wfx scf=(conver=6) int=(grid=ultrafine)

title

0 1
  O   -3.334474181  -0.000000000   1.106021140
  H   -2.729465437  -0.000000000   0.346198096
  H   -2.765185049  -0.000000000   1.878242025
  H   -0.116728087   2.140415839  -0.479914104
  H    3.195674900   0.000000000   1.193800666
  H    2.079535192   2.138797359   0.627881984
  H   -0.116728087  -2.140415839  -0.479914104
  H   -1.761147266   0.829771094  -1.669006390
  H    2.079535192  -2.138797359   0.627881984
  H   -1.761147266  -0.829771094  -1.669006390
  C    2.232732246   0.000000000   0.705075578
  C    1.604956094   1.198178699   0.386424329
  C    0.368177771   1.202927930  -0.241868915
  C   -0.260622357  -0.000000000  -0.565053013
  C    0.368177771  -1.202927930  -0.241868915
  C    1.604956094  -1.198178699   0.386424329
  N   -1.544401586  -0.000000000  -1.138777714

3.037_OH-N__water--aniline_095.wfx

