%nprocs=4
%mem=2GB
#p hf aug-cc-pvdz output=wfx scf=(conver=6) int=(grid=ultrafine)

title

0 1
  O   -3.334474181  -0.000000000   1.106021140
  H   -2.729465437  -0.000000000   0.346198096
  H   -2.765185049  -0.000000000   1.878242025
  H   -0.303843432   2.140415839  -0.245444240
  H    3.008559555   0.000000000   1.428270530
  H    1.892419847   2.138797359   0.862351848
  H   -0.303843432  -2.140415839  -0.245444240
  H   -1.948262611   0.829771094  -1.434536526
  H    1.892419847  -2.138797359   0.862351848
  H   -1.948262611  -0.829771094  -1.434536526
  C    2.045616901   0.000000000   0.939545442
  C    1.417840749   1.198178699   0.620894193
  C    0.181062426   1.202927930  -0.007399051
  C   -0.447737702  -0.000000000  -0.330583149
  C    0.181062426  -1.202927930  -0.007399051
  C    1.417840749  -1.198178699   0.620894193
  N   -1.731516931  -0.000000000  -0.904307850

3.037_OH-N__water--aniline_080.wfx

