%nprocs=4
%mem=2GB
#p hf aug-cc-pvdz output=wfx scf=(conver=6) int=(grid=ultrafine)

title

0 1
H        4.0517782310         1.2778604920         1.0650243160
C        4.0467215600         0.9421182490         0.0269194830
C        2.6891720750         0.4067391510        -0.3514640360
H        4.3392565650         1.7746296360        -0.6066463010
H        4.8037665970         0.1607745170        -0.0557326680
N        2.1223189130        -0.5630060470         0.2441456400
C        1.9873467810         1.0754172090        -1.4948518370
C        2.7841001100        -1.2233681010         1.3579739850
H        1.0310027010         0.6071403990        -1.7037110920
H        1.8283580180         2.1318758910        -1.2687993810
H        2.6114870310         1.0369483220        -2.3898668100
H        2.1357571930        -2.0073060350         1.7396054680
H        2.9988893800        -0.5287849020         2.1740378190
H        3.7291145630        -1.6796801220         1.0529935700

3.032_OH-N__phenol--Nmethyl2propanimine_2.wfx

