%nprocs=4
%mem=2GB
#p hf aug-cc-pvdz output=wfx scf=(conver=6) int=(grid=ultrafine)

title

0 1
O       -3.3344741810         0.0000000000         1.1060211400
H       -2.7294654370         0.0000000000         0.3461980960
H       -2.7651850490         0.0000000000         1.8782420250

3.037_OH-N__water--aniline_1.wfx

