%nprocs=4
%mem=2GB
#p hf aug-cc-pvdz output=wfx scf=(conver=6) int=(grid=ultrafine)

title

0 1
  O    2.536736371   0.182918899  -0.061451462
  H    1.578854572   0.331992874   0.022473871
  H    2.921944478   0.519691564   0.749931716
  H   -1.682754416   2.312213943  -0.853005324
  H   -3.153855526   1.636797581  -0.080042130
  H   -1.809437966   2.306847080   0.899132954
  H   -1.857666736  -2.355191371   0.864713174
  H   -0.376024300  -1.700016131   0.092097264
  H   -1.735750482  -2.338739657  -0.884695692
  C   -2.073686418   1.753978151  -0.002444234
  N   -1.390331112   0.465060064   0.040812348
  N   -2.142290428  -0.505990014  -0.017531210
  C   -1.458866754  -1.795296869   0.018688080

3.039_OH-N__water--dimethyldiazene_150.wfx

