%nprocs=4
%mem=2GB
#p hf aug-cc-pvdz output=wfx scf=(conver=6) int=(grid=ultrafine)

title

0 1
  O   -2.734992815  -0.615436303   0.076022684
  H   -1.773433311  -0.649782338  -0.023192102
  H   -3.082764985  -1.193624201  -0.605949093
  H   -0.011738307   1.806649821   1.024048853
  H    0.170719485   2.015997193  -0.735895604
  H   -1.423404491   1.664098429  -0.038548769
  C   -0.359938291   1.472258504   0.046376418
  N   -0.188481373   0.016146895  -0.110256369
  N    0.956139389  -0.410564754  -0.002463471
  N    1.966205234  -0.905913851   0.076010711

3.041_OH-N__water--methylazide_085.wfx

