%nprocs=4
%mem=2GB
#p hf aug-cc-pvdz output=wfx scf=(conver=6) int=(grid=ultrafine)

title

0 1
H        0.2679590940         1.9241667450         1.0086845710
C       -0.0802408900         1.5897754280         0.0310121360
H       -1.1437070900         1.7816153530        -0.0539130510
N        0.0912160280         0.1336638190        -0.1256206510
H        0.4504168860         2.1335141170        -0.7512598860
N        1.2358367900        -0.2930478300        -0.0178277530
N        2.2459026350        -0.7883969270         0.0606464290

3.041_OH-N__water--methylazide_2.wfx

