%nprocs=4
%mem=2GB
#p hf aug-cc-pvdz output=wfx scf=(conver=6) int=(grid=ultrafine)

title

0 1
  O   -1.952573200   0.183687112   0.000000000
  H   -1.074646913  -0.247298404   0.000000000
  H   -2.591802599  -0.530867844   0.000000000
  N    0.503632255  -0.639897552   0.000000000
  H    0.780969589  -1.174258924   0.812943926
  H    0.780969589  -1.174258924  -0.812943926
  C    1.145342716   0.681316830   0.000000000
  H    0.815639201   1.235232047  -0.876570680
  H    2.238570919   0.648888304   0.000000000
  H    0.815639201   1.235232047   0.876570680

3.040_OH-N__water--methylamine_085.wfx

