%nprocs=4
%mem=2GB
#p hf aug-cc-pvdz output=wfx scf=(conver=6) int=(grid=ultrafine)

title

0 1
  O   -2.456856240  -0.000000000   0.067839251
  H   -1.479185564  -0.000000000   0.148310503
  H   -2.792392285  -0.000000000   0.966017957
  H    1.286070098   0.000000000  -1.668779540
  H   -0.247872595   0.881611693  -1.831301318
  H   -0.247872595  -0.881611693  -1.831301318
  H    0.090557829  -2.082230858   0.221296889
  H    1.650723156  -1.289308321   0.520220763
  H    0.354213754  -1.200087780   1.727742494
  H    1.650723156   1.289308321   0.520220763
  H    0.354213754   1.200087780   1.727742494
  C    0.220026578   0.000000000  -1.397465112
  N    0.020080648  -0.000000000   0.046405033
  C    0.562556610  -1.204433680   0.658907658
  C    0.562556610   1.204433680   0.658907658
  H    0.090557829   2.082230858   0.221296889

3.045_OH-N__water--trimethylamine_080.wfx

