%nprocs=4
%mem=2GB
#p hf aug-cc-pvdz output=wfx scf=(conver=6) int=(grid=ultrafine)

title

0 1
  O   -2.456856240  -0.000000000   0.067839251
  H   -1.479185564  -0.000000000   0.148310503
  H   -2.792392285  -0.000000000   0.966017957
  H    2.129407342   0.000000000  -1.726101368
  H    0.595464649   0.881611693  -1.888623146
  H    0.595464649  -0.881611693  -1.888623146
  H    0.933895073  -2.082230858   0.163975062
  H    2.494060400  -1.289308321   0.462898936
  H    1.197550998  -1.200087780   1.670420666
  H    2.494060400   1.289308321   0.462898936
  H    1.197550998   1.200087780   1.670420666
  C    1.063363822   0.000000000  -1.454786940
  N    0.863417892   0.000000000  -0.010916794
  C    1.405893854  -1.204433680   0.601585830
  C    1.405893854   1.204433680   0.601585830
  H    0.933895073   2.082230858   0.163975062

3.045_OH-N__water--trimethylamine_125.wfx

