%nprocs=4
%mem=2GB
#p hf aug-cc-pvdz output=wfx scf=(conver=6) int=(grid=ultrafine)

title

0 1
  O   -1.952573200   0.183687112   0.000000000
  H   -1.074646913  -0.247298404   0.000000000
  H   -2.591802599  -0.530867844   0.000000000
  N    0.596472206  -0.662991620   0.000000000
  H    0.873809540  -1.197352992   0.812943926
  H    0.873809540  -1.197352992  -0.812943926
  C    1.238182667   0.658222762   0.000000000
  H    0.908479152   1.212137979  -0.876570680
  H    2.331410870   0.625794236   0.000000000
  H    0.908479152   1.212137979   0.876570680

3.040_OH-N__water--methylamine_090.wfx

