%nprocs=4
%mem=2GB
#p hf aug-cc-pvdz output=wfx scf=(conver=6) int=(grid=ultrafine)

title

0 1
  O   -1.952573200   0.183687112   0.000000000
  H   -1.074646913  -0.247298404   0.000000000
  H   -2.591802599  -0.530867844   0.000000000
  N    0.782152108  -0.709179755   0.000000000
  H    1.059489442  -1.243541127   0.812943926
  H    1.059489442  -1.243541127  -0.812943926
  C    1.423862569   0.612034627   0.000000000
  H    1.094159054   1.165949844  -0.876570680
  H    2.517090772   0.579606101   0.000000000
  H    1.094159054   1.165949844   0.876570680

3.040_OH-N__water--methylamine_100.wfx

