%nprocs=4
%mem=2GB
#p hf aug-cc-pvdz output=wfx scf=(conver=6) int=(grid=ultrafine)

title

0 1
N        0.7821521080        -0.7091797550         0.0000000000
H        1.0594894420        -1.2435411270        -0.8129439260
H        1.0594894420        -1.2435411270         0.8129439260
C        1.4238625690         0.6120346270         0.0000000000
H        1.0941590540         1.1659498440        -0.8765706800
H        2.5170907720         0.5796061010         0.0000000000
H        1.0941590540         1.1659498440         0.8765706800

3.040_OH-N__water--methylamine_2.wfx

