%nprocs=4
%mem=2GB
#p hf aug-cc-pvdz output=wfx scf=(conver=6) int=(grid=ultrafine)

title

0 1
O       -1.9525732000         0.1836871120         0.0000000000
H       -2.5918025990        -0.5308678440         0.0000000000
H       -1.0746469130        -0.2472984040         0.0000000000

3.040_OH-N__water--methylamine_1.wfx

