%nprocs=4
%mem=2GB
#p hf aug-cc-pvdz output=wfx scf=(conver=6) int=(grid=ultrafine)

title

0 1
  O   -3.475931869  -0.000000063  -0.087855349
  H   -2.501930068  -0.000000050  -0.021587774
  H   -3.789910179   0.000001147   0.818290805
  H    2.177600324   2.146980226  -0.019476053
  H   -0.305557071   2.052302044   0.044477233
  C    2.375978956   0.000000011  -0.022624730
  C    1.669395265   1.194262647  -0.004309940
  C    0.282627615   1.143668242   0.032510592
  N   -0.401906902  -0.000000006   0.051958907
  C    0.282627593  -1.143668249   0.032510625
  C    1.669395261  -1.194262627  -0.004309915
  H   -0.305557058  -2.052302043   0.044477290
  H    2.177600346  -2.146980198  -0.019476012
  H    3.456341039  -0.000000002  -0.051971587

3.044_OH-N__water--pyridine_110.wfx

