%nprocs=4
%mem=2GB
#p hf aug-cc-pvdz output=wfx scf=(conver=6) int=(grid=ultrafine)

title

0 1
H        1.1679889940         1.3499130150         1.3248149100
C        1.0424486200         1.3883746180         0.2462174780
O        1.3492418380         0.0648899640        -0.3106993370
H        1.7689589790         2.0523842690        -0.2051491390
H        0.0246179730         1.6575213420        -0.0191862660
C        0.5054643270        -0.8538477150        -0.0357787070
N       -0.2528960760        -1.6961588760         0.1919085330

3.042_OH-N__water--methylcyanate_2.wfx

