%nprocs=4
%mem=2GB
#p hf aug-cc-pvdz output=wfx scf=(conver=6) int=(grid=ultrafine)

title

0 1
O       -2.7349928150        -0.6154363030         0.0760226840
H       -3.0827649850        -1.1936242010        -0.6059490930
H       -1.7734333110        -0.6497823380        -0.0231921020

3.041_OH-N__water--methylazide_1.wfx

