%nprocs=4
%mem=2GB
#p hf aug-cc-pvdz output=wfx scf=(conver=6) int=(grid=ultrafine)

title

0 1
  O    2.874349788   0.167364362  -0.086939366
  H    1.942388950  -0.128418705  -0.015895281
  H    3.272831708  -0.041384546   0.759968976
  H   -2.203212958  -0.362954133   0.785714997
  H   -2.423200287   1.176057615  -0.055609995
  H   -2.135438080  -0.311460003  -0.964233356
  H   -0.281013728   2.424213616  -0.862772025
  H   -0.576707205  -2.096350712   0.865318967
  H   -0.534914572  -2.073087973  -0.898485294
  H    0.917744450  -2.493456604   0.011467882
  H   -0.337311056   2.417340238   0.887623536
  H    1.167165055   1.957288339   0.054910880
  C   -0.381309210   0.473270323   0.001067332
  N    0.480291668  -0.460333159   0.030425574
  C    0.044487336  -1.846696852   0.000633027
  C    0.083419780   1.899152233   0.022914769
  C   -1.871170811   0.240262796  -0.060524867

3.043_OH-N__water--Nmethyl2propanimine_080.wfx

