%nprocs=4
%mem=2GB
#p hf aug-cc-pvdz output=wfx scf=(conver=6) int=(grid=ultrafine)

title

0 1
  O   -2.164066826   0.673628527  -0.058441427
  H   -1.914751889  -0.255799065   0.026437608
  H   -3.043517756   0.674244371  -0.441855628
  H    1.084896203   1.421931006   1.316541364
  H    1.685866188   2.124402260  -0.213422685
  H   -0.058474818   1.729539333  -0.027459812
  C    0.959355829   1.460392609   0.237943932
  O    1.266149047   0.136907955  -0.318972883
  C    0.422371536  -0.781829724  -0.044052253
  N   -0.335988867  -1.624140885   0.183634987

3.042_OH-N__water--methylcyanate_095.wfx

