%nprocs=4
%mem=2GB
#p hf aug-cc-pvdz output=wfx scf=(conver=6) int=(grid=ultrafine)

title

0 1
  O   -2.164066826   0.673628527  -0.058441427
  H   -1.914751889  -0.255799065   0.026437608
  H   -3.043517756   0.674244371  -0.441855628
  H    0.918710622   1.565966987   1.299994271
  H    1.519680607   2.268438241  -0.229969778
  H   -0.224660399   1.873575314  -0.044006905
  C    0.793170248   1.604428590   0.221396839
  O    1.099963466   0.280943936  -0.335519976
  C    0.256185955  -0.637793743  -0.060599346
  N   -0.502174448  -1.480104904   0.167087894

3.042_OH-N__water--methylcyanate_085.wfx

