%nprocs=4
%mem=2GB
#p hf aug-cc-pvdz output=wfx scf=(conver=6) int=(grid=ultrafine)

title

0 1
  O   -2.734992815  -0.615436303   0.076022684
  H   -1.773433311  -0.649782338  -0.023192102
  H   -3.082764985  -1.193624201  -0.605949093
  H    0.361191561   1.963339053   1.003563144
  H    0.543649353   2.172686425  -0.756381313
  H   -1.050474623   1.820787661  -0.059034478
  C    0.012991577   1.628947736   0.025890709
  N    0.184448495   0.172836127  -0.130742078
  N    1.329069257  -0.253875522  -0.022949180
  N    2.339135102  -0.749224619   0.055525002

3.041_OH-N__water--methylazide_105.wfx

