%nprocs=4
%mem=2GB
#p hf aug-cc-pvdz output=wfx scf=(conver=6) int=(grid=ultrafine)

title

0 1
H        1.5407900000        -0.8736879710        -2.1403369470
C        1.7808928830        -0.3900101480        -1.2028718440
C        1.4864961060        -1.0320945450         0.0000013090
C        2.3577148160         0.8712221190        -1.1984160980
N        0.8070396110        -2.2637426770         0.0000026880
C        1.7808916190        -0.3900067350         1.2028730140
C        2.6483492490         1.5121058240        -0.0000017240
H        2.5748362770         1.3573012370        -2.1388931820
H        0.9539836680        -2.8171318480        -0.8297574210
H        0.9539881850        -2.8171329600         0.8297612290
H        1.5407873640        -0.8736816410         2.1403392000
C        2.3577135760         0.8712254870         1.1984141800
H        3.0931941130         2.4960137250        -0.0000029200
H        2.5748338220         1.3573075580         2.1388899880

4.003_NH-N__1Hpyrrole--aniline_2.wfx

