%nprocs=4
%mem=2GB
#p hf aug-cc-pvdz output=wfx scf=(conver=6) int=(grid=ultrafine)

title

0 1
H       -1.3702039340         0.1287944050         2.1027835940
C       -1.7980877440         0.0780441670         1.1178983590
C       -3.1027408970        -0.0767663400         0.7104442930
N       -1.0142742110         0.1721216960         0.0000000000
C       -3.1027408970        -0.0767663400        -0.7104442930
H       -3.9574415900        -0.1774394740         1.3558961870
C       -1.7980877440         0.0780441670        -1.1178983590
H       -0.0058662920         0.2793179380         0.0000000000
H       -3.9574415900        -0.1774394740        -1.3558961870
H       -1.3702039340         0.1287944050        -2.1027835940

4.005_NH-N__1Hpyrrole--dimethyldiazene_1.wfx

