%nprocs=4
%mem=2GB
#p hf aug-cc-pvdz output=wfx scf=(conver=6) int=(grid=ultrafine)

title

0 1
  H    0.978274764   2.101781861  -0.204061062
  H    3.519600476   1.356075081   0.370580363
  H    3.519600476  -1.356075081   0.370580363
  H    0.978274764  -2.101781861  -0.204061062
  N    0.627113075  -0.000000000  -0.284360306
  C    1.397549985   1.116435183  -0.108070033
  C    2.680108539   0.710261470   0.181864603
  C    2.680108539  -0.710261470   0.181864603
  C    1.397549985  -1.116435183  -0.108070033
  H   -0.373053477  -0.000000000  -0.489080736
  H   -2.199397673   1.280730330   1.174552872
  H   -3.884573637   1.255940491   0.636693756
  H   -2.646968484   2.087582262  -0.326693566
  H   -3.006119744   0.000000000  -1.331361813
  H   -2.646968484  -2.087582262  -0.326693566
  H   -2.199397673  -1.280730330   1.174552872
  H   -3.884573637  -1.255940491   0.636693756
  C   -2.842159524   1.216666639   0.296302524
  N   -2.522542323   0.000000000  -0.443697169
  C   -2.842159524  -1.216666639   0.296302524

4.004_NH-N__1Hpyrrole--dimethylamine_110.wfx

