%nprocs=4
%mem=2GB
#p hf aug-cc-pvdz output=wfx scf=(conver=6) int=(grid=ultrafine)

title

0 1
  H   -1.370203934   0.128794405   2.102783594
  H   -3.957441590  -0.177439474   1.355896187
  H   -3.957441590  -0.177439474  -1.355896187
  H   -1.370203934   0.128794405  -2.102783594
  N   -1.014274211   0.172121696   0.000000000
  C   -1.798087744   0.078044167   1.117898359
  C   -3.102740897  -0.076766340   0.710444293
  C   -3.102740897  -0.076766340  -0.710444293
  C   -1.798087744   0.078044167  -1.117898359
  H   -0.005866292   0.279317938   0.000000000
  H    2.788266721   2.312098966   0.877904238
  H    4.242853430   1.737373556   0.000000000
  H    2.788266721   2.312098966  -0.877904238
  H    3.158017162  -2.331078248  -0.876967692
  H    1.695034941  -1.782088986   0.000000000
  H    3.158017162  -2.331078248   0.876967692
  C    3.154491191   1.779825276   0.000000000
  N    2.559123293   0.446917656   0.000000000
  N    3.378676789  -0.469911438   0.000000000
  C    2.784563745  -1.802530946   0.000000000

4.005_NH-N__1Hpyrrole--dimethyldiazene_125.wfx

