%nprocs=4
%mem=2GB
#p hf aug-cc-pvdz output=wfx scf=(conver=6) int=(grid=ultrafine)

title

0 1
H       -1.1330760010         1.5305292630        -1.3543158840
C       -1.2174716730         1.6814180020        -0.2826438830
O       -2.3191682700         0.8569062400         0.2316024030
H       -1.5091673940         2.6988115860        -0.0545290970
H       -0.2957937410         1.4104723610         0.2227507690
C       -2.2087637790        -0.4014912170         0.0414280770
N       -2.1331316750        -1.5440917510        -0.1150024490

4.007_NH-N__1Hpyrrole--methylcyanate_2.wfx

