%nprocs=4
%mem=2GB
#p hf aug-cc-pvdz output=wfx scf=(conver=6) int=(grid=ultrafine)

title

0 1
H        1.3325172380         2.1010716730         0.0000000000
C        1.7658070230         1.1174436710         0.0000000000
N        0.9789894080        -0.0014107000         0.0000000000
C        3.0804494730         0.7121817860         0.0000000000
H       -0.0302444480        -0.0028634340         0.0000000000
C        1.7691111480        -1.1179220210         0.0000000000
C        3.0825491610        -0.7087792190         0.0000000000
H        3.9398325590         1.3593367220         0.0000000000
H        1.3387323960        -2.1028292950         0.0000000000
H        3.9438403800        -1.3533903680         0.0000000000

4.001_NH-N__1Hpyrrole--acetonitrile_1.wfx

