%nprocs=4
%mem=2GB
#p hf aug-cc-pvdz output=wfx scf=(conver=6) int=(grid=ultrafine)

title

0 1
N       -2.6868236540        -0.7096678880         0.0000000000
H       -3.0298657960        -1.2054708790        -0.8124323690
H       -3.0298657960        -1.2054708790         0.8124323690
C       -3.1599714020         0.6800823760         0.0000000000
H       -4.2483793840         0.7862661400         0.0000000000
H       -2.7676529670         1.1899928250        -0.8782295900
H       -2.7676529670         1.1899928250         0.8782295900

4.006_NH-N__1Hpyrrole--methylamine_2.wfx

