%nprocs=4
%mem=2GB
#p hf aug-cc-pvdz output=wfx scf=(conver=6) int=(grid=ultrafine)

title

0 1
H        2.1908485660         0.1022629700         2.1014769740
C        2.6193864930         0.0531514090         1.1167049680
N        1.8347640320         0.1425623220         0.0000024290
C        3.9259795930        -0.0942074940         0.7103797190
C        2.6193777620         0.0531240180        -1.1167040240
H        0.8219534060         0.2465544750         0.0000045890
C        3.9259740770        -0.0942249430        -0.7103853870
H        4.7810493520        -0.1898476700         1.3562983040
H        2.1908320590         0.1022115150        -2.1014739000
H        4.7810387720        -0.1898809720        -1.3563083780

4.009_NH-N__1Hpyrrole--pyridine_1.wfx

