%nprocs=4
%mem=2GB
#p hf aug-cc-pvdz output=wfx scf=(conver=6) int=(grid=ultrafine)

title

0 1
N       -3.3127997910         0.0000000000        -0.0005108530
H       -3.6867529050        -0.8147140870         0.4703637790
H       -3.6841667750         0.0000000030        -0.9424990680
H       -3.6867528870         0.8147140970         0.4703637750

4.002_NH-N__1Hpyrrole--ammonia_2.wfx

