%nprocs=4
%mem=2GB
#p hf aug-cc-pvdz output=wfx scf=(conver=6) int=(grid=ultrafine)

title

0 1
H        0.0969266400        -2.1021425380         0.0003699670
C        0.5266751660        -1.1166771660         0.0003463460
C        1.8413325800        -0.7102699410        -0.0004926440
N       -0.2632645010        -0.0000000030         0.0008898720
C        1.8413325830         0.7102699440        -0.0004926440
H        2.7016047020        -1.3562712120        -0.0010190590
H       -1.2797302880        -0.0000000040         0.0012892800
C        0.5266751620         1.1166771640         0.0003463470
H        2.7016046930         1.3562712280        -0.0010190590
H        0.0969266360         2.1021425410         0.0003699620

4.002_NH-N__1Hpyrrole--ammonia_1.wfx

