%nprocs=4
%mem=2GB
#p hf aug-cc-pvdz output=wfx scf=(conver=6) int=(grid=ultrafine)

title

0 1
  H    1.332517238   2.101071673   0.000000000
  H    3.939832559   1.359336722   0.000000000
  H    3.943840380  -1.353390368   0.000000000
  H    1.338732396  -2.102829295   0.000000000
  N    0.978989408  -0.001410700   0.000000000
  C    1.765807023   1.117443671   0.000000000
  C    3.080449473   0.712181786   0.000000000
  C    3.082549161  -0.708779219   0.000000000
  C    1.769111148  -1.117922021   0.000000000
  H   -0.030244448  -0.002863434   0.000000000
  H   -5.085873039   0.513848061  -0.885676302
  H   -5.088624254  -1.019966573   0.000000000
  H   -5.085873039   0.513848061   0.885676302
  C   -4.714154870   0.001984206   0.000000000
  C   -3.261696656  -0.000732398   0.000000000
  N   -2.114865126  -0.002821814   0.000000000

4.001_NH-N__1Hpyrrole--acetonitrile_100.wfx

