%nprocs=4
%mem=2GB
#p hf aug-cc-pvdz output=wfx scf=(conver=6) int=(grid=ultrafine)

title

0 1
  N   -2.122607070   0.107973100   0.048841426
  H   -1.238203179  -0.344137733  -0.173760739
  H   -2.817041333  -0.618313924   0.169396541
  H   -2.401379739   0.649474224  -0.759530311
  N    0.941313397  -0.725931853  -0.040760295
  H    1.571640551  -1.257941201  -0.625630006
  H    0.965384365  -1.147429103   0.878464262
  C    1.346346359   0.681464860   0.025557983
  H    0.622965861   1.228928197   0.627089417
  H    2.344027038   0.850045023   0.444252360
  H    1.325159498   1.106384063  -0.977131302

4.014_NH-N__ammonia--methylamine_100.wfx

