%nprocs=4
%mem=2GB
#p hf aug-cc-pvdz output=wfx scf=(conver=6) int=(grid=ultrafine)

title

0 1
N        1.5879696390        -0.0000000050         0.0244953060
H        1.4996563350         0.0000000060        -0.9841918690
H        2.1302226660        -0.8152921060         0.2805171720
H        2.1302225000         0.8152921970         0.2805172090

4.011_NH-N__ammonia--ammonia_2.wfx

