%nprocs=4
%mem=2GB
#p hf aug-cc-pvdz output=wfx scf=(conver=6) int=(grid=ultrafine)

title

0 1
H        2.5978395100         0.1623762070        -0.8759230600
C        2.2287674700        -0.3737197500         0.0000000000
C        0.7182656250        -0.4205966940         0.0000000000
H        2.6606262680        -1.3709014800         0.0000000000
H        2.5978395100         0.1623762070         0.8759230600
N       -0.0244840040         0.6100354950         0.0000000000
C        0.0851962310        -1.7813278930         0.0000000000
C        0.5867737080         1.9282775230         0.0000000000
H       -0.9983277420        -1.7103916730         0.0000000000
H        0.4135000310        -2.3468778550        -0.8753455500
H        0.4135000310        -2.3468778550         0.8753455500
H       -0.1948617780         2.6840224770         0.0000000000
H        1.2140191740         2.0897418670        -0.8818135440
H        1.2140191740         2.0897418670         0.8818135440

4.015_NH-N__ammonia--Nmethyl2propanimine_2.wfx

