%nprocs=4
%mem=2GB
#p hf aug-cc-pvdz output=wfx scf=(conver=6) int=(grid=ultrafine)

title

0 1
  N   -1.654883145  -0.000000004  -0.060693613
  H   -0.669988029   0.000000078   0.192247937
  H   -2.080128157  -0.812840007   0.366967928
  H   -2.080128299   0.812839957   0.366967869
  N    1.587969639  -0.000000005   0.024495306
  H    2.130222666  -0.815292106   0.280517172
  H    2.130222500   0.815292197   0.280517209
  H    1.499656335   0.000000006  -0.984191869

4.011_NH-N__ammonia--ammonia_100.wfx

