%nprocs=4
%mem=2GB
#p hf aug-cc-pvdz output=wfx scf=(conver=6) int=(grid=ultrafine)

title

0 1
  N    2.584762668   0.224020853   0.023954426
  H    1.580966436   0.394728666  -0.006189534
  H    3.051410457   1.081116058  -0.244226564
  H    2.836507797   0.041360392   0.987104430
  H   -0.271637337  -1.300884343   1.208496456
  H   -1.352356928  -1.763431609  -0.111468519
  H    0.412467141  -1.814543034  -0.330373009
  H   -0.363013323   0.167711937  -1.320525720
  H   -1.388249018   1.945010788  -0.181403748
  H   -1.343037622   1.005312361   1.307487887
  H   -2.442553511   0.529184880   0.008013880
  C   -0.404813768  -1.260218234   0.126609320
  N   -0.357727234   0.128625099  -0.310357962
  C   -1.444223229   0.935985636   0.223734921

4.012_NH-N__ammonia--dimethylamine_090.wfx

