%nprocs=4
%mem=2GB
#p hf aug-cc-pvdz output=wfx scf=(conver=6) int=(grid=ultrafine)

title

0 1
  N   -1.654883145  -0.000000004  -0.060693613
  H   -0.669988029   0.000000078   0.192247937
  H   -2.080128157  -0.812840007   0.366967928
  H   -2.080128299   0.812839957   0.366967869
  N    1.249275989   0.000000007   0.049658201
  H    1.791529016  -0.815292094   0.305680067
  H    1.791528850   0.815292209   0.305680104
  H    1.160962685   0.000000018  -0.959028974

4.011_NH-N__ammonia--ammonia_085.wfx

