%nprocs=4
%mem=2GB
#p hf aug-cc-pvdz output=wfx scf=(conver=6) int=(grid=ultrafine)

title

0 1
  N    2.760290743  -0.431650215   0.000000000
  H    1.762874329  -0.624851451   0.000000000
  H    3.161841645  -0.878790271   0.814264093
  H    3.161841645  -0.878790271  -0.814264093
  H   -1.122443107  -2.155346135   0.878241575
  H   -2.375792116  -1.220970097   0.000000000
  H   -1.122443107  -2.155346135  -0.878241575
  H   -0.278368044   2.423389877  -0.876518679
  H    0.997059384   1.515880791   0.000000000
  H   -0.278368044   2.423389877   0.876518679
  C   -1.335259823  -1.545458109   0.000000000
  N   -0.410385037  -0.415433017   0.000000000
  N   -0.968784238   0.680639081   0.000000000
  C   -0.050057282   1.816458573   0.000000000

4.013_NH-N__ammonia--dimethyldiazene_095.wfx

