%nprocs=4
%mem=2GB
#p hf aug-cc-pvdz output=wfx scf=(conver=6) int=(grid=ultrafine)

title

0 1
H        3.6067681780         0.4701906200         1.3363456720
C        2.5097705350         0.5216936690         1.2714161370
H        2.0899658990        -0.0581587800         2.0916586230
H        2.2082162710         1.5601735220         1.3979843680
N        2.0062162790         0.0142790410         0.0027892680
C        2.3262599620        -1.3955165180        -0.1739807810
C        2.4763192300         0.8129396810        -1.1204693420
H        3.4105667350        -1.5765024140        -0.2138767890
H        1.8845615630        -1.7591363550        -1.1004756830
H        1.9142424480        -1.9722208660         0.6527387670
H        2.1769231800         1.8509359610        -0.9847105930
H        2.0306579300         0.4465633040        -2.0437535150
H        3.5707742350         0.7807435540        -1.2271462190

4.010_NH-N__1Hpyrrole--trimethylamine_2.wfx

