%nprocs=4
%mem=2GB
#p hf aug-cc-pvdz output=wfx scf=(conver=6) int=(grid=ultrafine)

title

0 1
H        0.1284772380        -0.3027800000         0.7708521350
C        1.1645106780        -0.3045835990         0.4679523970
C        1.8501397550        -1.5034542480         0.3554951450
C        1.8052671670         0.9079108040         0.1878447520
H        1.3293954410        -2.4263547970         0.5710137510
C        3.1863495270        -1.5306801860        -0.0295101860
N        1.1373618060         2.1178395400         0.3377798850
C        3.1507281840         0.8767517930        -0.1971758460
C        3.8286423160        -0.3284912960        -0.3024465900
H        3.7158000680        -2.4682484890        -0.1148388310
H        1.5583738070         2.9012926980        -0.1315078900
H        0.1324184270         2.1047587120         0.2384828950
H        3.6631220950         1.8058836690        -0.4123329300
H        4.8674710230        -0.3261157640        -0.6030532920

4.019_NH-N__aniline--aniline_1.wfx

