%nprocs=4
%mem=2GB
#p hf aug-cc-pvdz output=wfx scf=(conver=6) int=(grid=ultrafine)

title

0 1
  N    2.760290743  -0.431650215   0.000000000
  H    1.762874329  -0.624851451   0.000000000
  H    3.161841645  -0.878790271   0.814264093
  H    3.161841645  -0.878790271  -0.814264093
  H   -1.236825179  -2.144324112   0.878241575
  H   -2.490174188  -1.209948074   0.000000000
  H   -1.236825179  -2.144324112  -0.878241575
  H   -0.392750116   2.434411900  -0.876518679
  H    0.882677312   1.526902814   0.000000000
  H   -0.392750116   2.434411900   0.876518679
  C   -1.449641895  -1.534436086   0.000000000
  N   -0.524767109  -0.404410994   0.000000000
  N   -1.083166310   0.691661104   0.000000000
  C   -0.164439354   1.827480596   0.000000000

4.013_NH-N__ammonia--dimethyldiazene_100.wfx

