%nprocs=4
%mem=2GB
#p hf aug-cc-pvdz output=wfx scf=(conver=6) int=(grid=ultrafine)

title

0 1
  N    2.760290743  -0.431650215   0.000000000
  H    1.762874329  -0.624851451   0.000000000
  H    3.161841645  -0.878790271   0.814264093
  H    3.161841645  -0.878790271  -0.814264093
  H   -1.008061035  -2.166368158   0.878241575
  H   -2.261410044  -1.231992120   0.000000000
  H   -1.008061035  -2.166368158  -0.878241575
  H   -0.163985972   2.412367854  -0.876518679
  H    1.111441456   1.504858768   0.000000000
  H   -0.163985972   2.412367854   0.876518679
  C   -1.220877751  -1.556480132   0.000000000
  N   -0.296002965  -0.426455040   0.000000000
  N   -0.854402166   0.669617058   0.000000000
  C    0.064324790   1.805436550   0.000000000

4.013_NH-N__ammonia--dimethyldiazene_090.wfx

