%nprocs=4
%mem=2GB
#p hf aug-cc-pvdz output=wfx scf=(conver=6) int=(grid=ultrafine)

title

0 1
  N   -2.122607070   0.107973100   0.048841426
  H   -1.238203179  -0.344137733  -0.173760739
  H   -2.817041333  -0.618313924   0.169396541
  H   -2.401379739   0.649474224  -0.759530311
  N    0.832337568  -0.706842147  -0.047410317
  H    1.462664722  -1.238851495  -0.632280028
  H    0.856408536  -1.128339397   0.871814240
  C    1.237370530   0.700554566   0.018907961
  H    0.513990032   1.248017903   0.620439395
  H    2.235051209   0.869134729   0.437602338
  H    1.216183669   1.125473769  -0.983781324

4.014_NH-N__ammonia--methylamine_095.wfx

