%nprocs=4
%mem=2GB
#p hf aug-cc-pvdz output=wfx scf=(conver=6) int=(grid=ultrafine)

title

0 1
H        0.9874512850        -1.3272794160         0.5848103210
C        0.0802495830        -0.7992880270         0.3254220710
C       -1.1097161720        -1.4930369970         0.1697836840
C        0.1224369570         0.5929370320         0.1659191850
C       -2.2892485710        -0.8262004430        -0.1428637840
H       -1.1154902910        -2.5669369320         0.2986561360
C       -1.0700053820         1.2582224170        -0.1474178420
N        1.3036385170         1.2882724990         0.3633873740
H       -3.2144381340        -1.3704926990        -0.2613360760
C       -2.2553114100         0.5552720370        -0.2972728580
H       -1.0594721420         2.3336362330        -0.2704602890
H        2.1600486760         0.7690001900         0.2019610720
H        1.3249308670         2.2203029560        -0.0133062510
H       -3.1613975040         1.0937314490        -0.5394369240

4.018_NH-N__aniline--ammonia_1.wfx

