%nprocs=4
%mem=2GB
#p hf aug-cc-pvdz output=wfx scf=(conver=6) int=(grid=ultrafine)

title

0 1
  N   -2.672544687   0.000000000  -0.265348551
  H   -1.677475101   0.000000000  -0.483710111
  H   -3.084491707  -0.813088756  -0.705086623
  H   -3.084491707   0.813088756  -0.705086623
  H    2.648092563   0.000000000  -0.573615176
  H    1.572013844  -0.882837800  -1.673504638
  H    1.572013844   0.882837800  -1.673504638
  H    0.534708014   2.082511936   0.123260398
  H    1.514121844   1.279376535   1.365564508
  H   -0.260400962   1.198932907   1.429225744
  H    1.514121844  -1.279376535   1.365564508
  H   -0.260400962  -1.198932907   1.429225744
  C    1.649458631   0.000000000  -1.040261625
  N    0.576916131   0.000000000  -0.061226139
  C    0.597499311   1.200257489   0.759154335
  C    0.597499311  -1.200257489   0.759154335
  H    0.534708014  -2.082511936   0.123260398

4.017_NH-N__ammonia--trimethylamine_105.wfx

