%nprocs=4
%mem=2GB
#p hf aug-cc-pvdz output=wfx scf=(conver=6) int=(grid=ultrafine)

title

0 1
  N    2.760290743  -0.431650215   0.000000000
  H    1.762874329  -0.624851451   0.000000000
  H    3.161841645  -0.878790271   0.814264093
  H    3.161841645  -0.878790271  -0.814264093
  H   -0.779296891  -2.188412203   0.878241575
  H   -2.032645900  -1.254036165   0.000000000
  H   -0.779296891  -2.188412203  -0.878241575
  H    0.064778172   2.390323809  -0.876518679
  H    1.340205600   1.482814723   0.000000000
  H    0.064778172   2.390323809   0.876518679
  C   -0.992113607  -1.578524177   0.000000000
  N   -0.067238821  -0.448499085   0.000000000
  N   -0.625638022   0.647573013   0.000000000
  C    0.293088934   1.783392505   0.000000000

4.013_NH-N__ammonia--dimethyldiazene_080.wfx

