%nprocs=4
%mem=2GB
#p hf aug-cc-pvdz output=wfx scf=(conver=6) int=(grid=ultrafine)

title

0 1
H       -0.1465314280        -1.2073727200         0.7644217110
C       -1.0564563800        -0.7266441290         0.4339578950
C       -2.1878692260        -1.4823308100         0.1699554960
C       -1.0788682390         0.6679251810         0.2944138830
C       -3.3727606100        -0.8759483170        -0.2330030660
H       -2.1439068460        -2.5568878960         0.2849811380
C       -2.2766016030         1.2722395200        -0.1084618710
N        0.0446094370         1.4202597070         0.5945844040
H       -4.2526891420        -1.4681841520        -0.4360711220
C       -3.4041443580         0.5077304860        -0.3659261490
H       -2.3163227360         2.3485374590        -0.2171783960
H        0.0384935120         2.3628209500         0.2442554150
H        0.9396435610         0.9490271220         0.4778987210
H       -4.3159261690         0.9995562690        -0.6762945110

4.026_NH-N__aniline--trimethylamine_1.wfx

