%nprocs=4
%mem=2GB
#p hf aug-cc-pvdz output=wfx scf=(conver=6) int=(grid=ultrafine)

title

0 1
H       -2.2441115620         1.2853224190         0.2054813900
C       -1.2089553970         1.2085400590        -0.1338249790
H       -1.2206311120         1.2564521270        -1.2352557100
H       -0.6734002620         2.0816306320         0.2375610120
N       -0.6036958980         0.0000000000         0.3925391940
C       -1.2089553970        -1.2085400590        -0.1338249790
H        0.3920148900         0.0000000000         0.1985019010
H       -1.2206311120        -1.2564521270        -1.2352557100
H       -0.6734002620        -2.0816306320         0.2375610120
H       -2.2441115620        -1.2853224190         0.2054813900

4.028_NH-N__dimethylamine--ammonia_1.wfx

