%nprocs=4
%mem=2GB
#p hf aug-cc-pvdz output=wfx scf=(conver=6) int=(grid=ultrafine)

title

0 1
H        1.0021897450        -0.8209418040        -1.7401405450
C        2.0564325030        -0.5502107670        -1.7992943590
H        2.6688923430        -1.4204915910        -2.0320541170
H        2.1553824050         0.2098409180        -2.5744347900
N        2.4319071180         0.0558434030        -0.5257751510
N        3.3603567410        -0.5098884150         0.0485489060
C        3.7201202030         0.0968780820         1.3257332970
H        3.6284705400        -0.6685448800         2.0963483710
H        3.0990279340         0.9599951640         1.5669507720
H        4.7711840040         0.3812963870         1.2764222900

4.021_NH-N__aniline--dimethyldiazene_2.wfx

