%nprocs=4
%mem=2GB
#p hf aug-cc-pvdz output=wfx scf=(conver=6) int=(grid=ultrafine)

title

0 1
H       -2.5743648060         2.1110633390        -1.5281016650
C       -2.7402181870         1.2490944990        -0.8990306660
C       -3.9810115760         0.9995790040        -0.3300535740
C       -1.7017967600         0.3643272940        -0.6412630070
C       -4.1331785520        -0.1224771840         0.4723315130
H       -4.8126980170         1.6666979390        -0.5072448690
N       -1.8402348290        -0.7165530450         0.1281522900
H       -0.7167620570         0.5299103780        -1.0586461410
H       -5.0799162130        -0.3558497370         0.9366946080
C       -3.0351616010        -0.9488252410         0.6712190090
H       -3.1159960000        -1.8324049920         1.2917599100

4.025_NH-N__aniline--pyridine_2.wfx

