%nprocs=4
%mem=2GB
#p hf aug-cc-pvdz output=wfx scf=(conver=6) int=(grid=ultrafine)

title

0 1
  H    0.129445245  -0.804407176   0.876196783
  H   -3.950273214  -1.877162994   0.118814843
  H   -1.656767585  -2.491634641   0.834959417
  H   -2.628680392   2.144536627  -0.545861398
  H    0.832193070   1.390111041   0.084356386
  H   -4.416140832   0.460555263  -0.565644069
  H   -0.283631532   2.584146876  -0.314861870
  C   -3.163789636  -1.137198037   0.129211999
  C   -1.876325820  -1.477925187   0.528755957
  C   -0.863389172  -0.531444900   0.547245522
  C   -1.115394101   0.790025364   0.155071662
  C   -2.414219749   1.127466170  -0.243805948
  C   -3.421221897   0.174528369  -0.253126401
  N   -0.108185810   1.743640625   0.209110527
  H    1.002189745  -0.820941804  -1.740140545
  H    2.668892343  -1.420491591  -2.032054117
  H    2.155382405   0.209840918  -2.574434790
  H    4.771184004   0.381296387   1.276422290
  H    3.099027934   0.959995164   1.566950772
  H    3.628470540  -0.668544880   2.096348371
  C    2.056432503  -0.550210767  -1.799294359
  N    2.431907118   0.055843403  -0.525775151
  N    3.360356741  -0.509888415   0.048548906
  C    3.720120203   0.096878082   1.325733297

4.021_NH-N__aniline--dimethyldiazene_100.wfx

