%nprocs=4
%mem=2GB
#p hf aug-cc-pvdz output=wfx scf=(conver=6) int=(grid=ultrafine)

title

0 1
H        0.6511357230         0.2537755960         1.4027739940
C        1.5728669670         0.2517577880         0.8382744760
C        1.8582406380        -0.8372042230         0.0024007130
C        2.4634534440         1.3082618630         0.9482856420
N        0.9824112730        -1.9071474030        -0.0794079740
C        3.0664322430        -0.8293266370        -0.7067174110
H        2.2201480680         2.1369852360         1.5993470350
C        3.6601588720         1.3113885100         0.2396124930
H        0.0077265050        -1.6995610990         0.1105403890
H        1.1129477710        -2.5146822540        -0.8698848560
H        3.3065569260        -1.6637112310        -1.3532103320
C        3.9514881920         0.2308690740        -0.5856359510
H        4.3516600020         2.1359442300         0.3306746920
H        4.8772817360         0.2123417330        -1.1443615100

4.025_NH-N__aniline--pyridine_1.wfx

