%nprocs=4
%mem=2GB
#p hf aug-cc-pvdz output=wfx scf=(conver=6) int=(grid=ultrafine)

title

0 1
N        2.6025814230         0.0000000000        -0.0564897430
H        2.9094598090         0.0000000000         0.9082065730
H        3.0047634360        -0.8152862260        -0.5014101600
H        3.0047634360         0.8152862260        -0.5014101600

4.028_NH-N__dimethylamine--ammonia_2.wfx

