%nprocs=4
%mem=2GB
#p hf aug-cc-pvdz output=wfx scf=(conver=6) int=(grid=ultrafine)

title

0 1
H        3.3249467520         1.3218149580         0.0197347460
C        2.2458215900         1.2049891190        -0.0986782810
N        1.8008397760        -0.0078114660         0.5604055620
H        2.0320488220         1.2263051960        -1.1808030760
H        1.7673601460         2.0704258210         0.3585367250
H        0.7854712710        -0.0416919230         0.5549507380
C        2.3286054590        -1.2095236460        -0.0570926920
H        2.1193830400        -1.2813060090        -1.1376140970
H        1.9077695120        -2.0891435030         0.4287806340
H        3.4127279450        -1.2492536170         0.0665703600

4.035_NH-N__dimethylamine--trimethylamine_1.wfx

