%nprocs=4
%mem=2GB
#p hf aug-cc-pvdz output=wfx scf=(conver=6) int=(grid=ultrafine)

title

0 1
H       -2.8206938800         1.4790457620        -0.0493863190
C       -1.7971989480         1.3197422290         0.3265385570
N       -1.3010526230        -0.0159603160         0.0425342650
H       -1.1465765030         2.0602587430        -0.1365571630
H       -1.7987657120         1.4913305230         1.4018753890
C       -1.2001595430        -0.2578867380        -1.3867905290
C       -2.0927366920        -1.0368220320         0.7067357840
H       -2.1775469080        -0.2136052860        -1.8932464870
H       -0.7686475930        -1.2418176020        -1.5643972010
H       -0.5472911420         0.4861813850        -1.8408174370
H       -3.1383784450        -1.0532360320         0.3591683180
H       -1.6583718750        -2.0182838450         0.5218685150
H       -2.0939329280        -0.8609493670         1.7813515430

4.035_NH-N__dimethylamine--trimethylamine_2.wfx

