%nprocs=4
%mem=2GB
#p hf aug-cc-pvdz output=wfx scf=(conver=6) int=(grid=ultrafine)

title

0 1
H       -2.7798773960         1.0597890220         0.8362918590
C       -2.1369516980         0.9481838700        -0.0348261490
C       -1.4492725670        -0.3309186560         0.0104639610
H       -1.4095485850         1.7577926310        -0.0419950290
H       -2.7473943470         1.0143106500        -0.9335117150
N       -0.8975317230        -1.3372347720         0.0448730320

4.036_NH-N__methylamine--acetonitrile_2.wfx

