%nprocs=4
%mem=2GB
#p hf aug-cc-pvdz output=wfx scf=(conver=6) int=(grid=ultrafine)

title

0 1
  N    2.264148055  -0.428237459  -0.124151649
  H    1.481586218  -1.069931740  -0.149833010
  H    2.852920550  -0.711089118   0.647497866
  C    1.789924404   0.938056608   0.063637384
  H    2.640829402   1.616340136   0.123582257
  H    1.171569577   1.096455008   0.957797370
  H    1.203728008   1.236697234  -0.806148643
  H   -2.541965602   1.086519325   0.816821255
  H   -1.171636791   1.784522934  -0.061465633
  H   -2.509482553   1.041040953  -0.952982319
  C   -1.899039904   0.974914173  -0.054296753
  C   -1.211360773  -0.304188353  -0.009006643
  N   -0.659619929  -1.310504469   0.025402428

4.036_NH-N__methylamine--acetonitrile_090.wfx

