%nprocs=4
%mem=2GB
#p hf aug-cc-pvdz output=wfx scf=(conver=6) int=(grid=ultrafine)

title

0 1
  N   -0.884101126  -0.681387473  -0.069541677
  H    0.088170033  -0.487710679   0.148735491
  H   -1.213579512  -1.368555024   0.594944779
  C   -1.679766174   0.540233720   0.016954691
  H   -2.716435461   0.325500967  -0.243685036
  H   -1.675988310   1.029804861   0.999590641
  H   -1.309070780   1.261636343  -0.711516426
  N    2.797759608   0.274107485  -0.008733493
  H    2.878670601  -0.020508226  -0.973992640
  H    3.010261121   1.263107958   0.024020009
  H    3.517705573  -0.206623866   0.515481014

4.037_NH-N__methylamine--ammonia_125.wfx

