%nprocs=4
%mem=2GB
#p hf aug-cc-pvdz output=wfx scf=(conver=6) int=(grid=ultrafine)

title

0 1
  N   -2.215224378  -0.298360416  -0.514556461
  H   -1.330415481  -0.254940679  -1.005862023
  H   -2.947226756  -0.116073706  -1.187460994
  C   -2.243963812   0.684797155   0.566405837
  H   -3.189149747   0.609559802   1.103168998
  H   -2.119627517   1.727213581   0.247710700
  H   -1.449834676   0.459352366   1.277381527
  H    1.042198700  -2.528433462  -0.562611995
  H    1.147717419  -1.893499569   1.112115495
  H   -0.435524479  -2.093547215   0.285058948
  H    0.845167258   2.343712142   0.423461961
  H    0.794148797   1.715340173  -1.254769353
  H    2.350029638   1.963838700  -0.398473100
  C    0.616377257  -1.834625325   0.162325907
  N    0.671173839  -0.494522299  -0.412769949
  N    1.277470531   0.322517882   0.278144504
  C    1.307120036   1.664917108  -0.293678024

4.039_NH-N__methylamine--dimethyldiazene_090.wfx

