%nprocs=4
%mem=2GB
#p hf aug-cc-pvdz output=wfx scf=(conver=6) int=(grid=ultrafine)

title

0 1
  N   -1.875749101  -0.527593336  -0.507110752
  H   -0.899209159  -0.392815787  -0.754977708
  H   -2.424055453  -0.415062006  -1.348985884
  C   -2.280043739   0.444347452   0.504445077
  H   -3.328104703   0.294754510   0.764568226
  H   -2.153750340   1.496594190   0.217066259
  H   -1.699713716   0.280090518   1.412986256
  H    0.625034414   1.471695852   0.745911381
  H    2.365418718   1.385892011   0.448494569
  H    1.263588970   1.959798994  -0.820449496
  H    1.761555650  -0.282593279  -1.302447319
  H    1.240022152  -2.119179764   0.057332214
  H    0.599098993  -1.029312811   1.277130168
  H    2.344479567  -1.082537009   0.988003559
  C    1.376659033   1.241965568  -0.009720987
  N    1.158069176  -0.107368363  -0.511041871
  C    1.359548912  -1.133751058   0.503067317

4.038_NH-N__methylamine--dimethylamine_095.wfx

