%nprocs=4
%mem=2GB
#p hf aug-cc-pvdz output=wfx scf=(conver=6) int=(grid=ultrafine)

title

0 1
  H   -3.985684876  -0.270111115  -0.696348801
  H   -3.442578344   1.410010602  -0.772041873
  H   -2.900677312   0.236229575  -1.988128555
  H   -1.156462383   0.453983068  -0.429005446
  H   -1.273750301  -0.047957719   1.836196953
  H   -2.979938475  -0.462300819   1.664451711
  H   -2.470556049   1.226651035   1.544999678
  C   -3.131310358   0.366556497  -0.931850616
  N   -1.990025408  -0.031801325  -0.125731675
  C   -2.188372380   0.192553739   1.296330851
  H    1.287826696  -1.983496582  -0.920141450
  H    1.140869642  -1.878359062   0.850674776
  H   -0.297192358  -1.675201617  -0.175749609
  C    0.768421192  -1.488948439  -0.098028451
  N    0.932471866  -0.025021848  -0.171638060
  N    2.079630704   0.395117605  -0.089406989
  N    3.092157770   0.891036342  -0.024025717

4.032_NH-N__dimethylamine--methylazide_090.wfx

