%nprocs=4
%mem=2GB
#p hf aug-cc-pvdz output=wfx scf=(conver=6) int=(grid=ultrafine)

title

0 1
H        3.2399283120        -0.0629969180        -0.3291367040
C        2.6077974570         0.4560333930         0.3932323210
H        2.7296981930        -0.0605251840         1.3467496080
C        1.1623071900         0.4304471220        -0.0468421560
H        2.9751765180         1.4727513850         0.5036913590
N        0.4997661910        -0.6344160280        -0.2488186160
C        0.4948218450         1.7595724230        -0.2487884330
C        1.1439199540        -1.9217755580        -0.0516882710
H       -0.5367629510         1.6376949820        -0.5659193550
H        1.0389735140         2.3419945940        -0.9960237910
H        0.5257820110         2.3384800080         0.6774329140
H        0.4291178510        -2.7142687550        -0.2592456180
H        2.0016304860        -2.0567117600        -0.7173866410
H        1.5023035800        -2.0491867130         0.9741906930

4.041_NH-N__methylamine--Nmethyl2propanimine_2.wfx

