%nprocs=4
%mem=2GB
#p hf aug-cc-pvdz output=wfx scf=(conver=6) int=(grid=ultrafine)

title

0 1
N        3.0109092740        -0.0586610920         0.5873944450
H        2.1762671970         0.5044218800         0.7123892910
C        3.4437628370        -0.0096567650        -0.8070538810
H        3.7266687820         0.3072009000         1.2000946750
H        2.6456763230        -0.3953152690        -1.4411518360
H        4.3110943680        -0.6550599080        -0.9473359720
H        3.7041646850         0.9899570810        -1.1765914310

4.042_NH-N__methylamine--pyridine_1.wfx

