%nprocs=4
%mem=2GB
#p hf aug-cc-pvdz output=wfx scf=(conver=6) int=(grid=ultrafine)

title

0 1
  N   -2.063249797  -0.704944079  -0.154966234
  H   -1.106567202  -0.483428816  -0.417444501
  H   -2.425526964  -1.358101999  -0.836277569
  C   -2.877348118   0.507152304  -0.118194458
  H   -3.895550807   0.259771589   0.182446018
  H   -2.932316387   1.058919290  -1.065346459
  H   -2.476095866   1.185505060   0.634813543
  H    1.351178220   0.894569582   1.656919327
  H   -0.309540124   0.261923769   1.682478694
  H    0.060115606   1.728605572   0.770596924
  H    1.201803524   1.574303722  -1.329548238
  H    2.595070080   0.747976776  -0.606049291
  H    1.707684314  -0.000480828  -1.947491506
  H    2.083138790  -1.387019638   0.762456258
  H    1.252016592  -1.986712856  -0.685754090
  C    0.437921936   0.748264960   1.058030183
  N    0.676277734  -0.054734439  -0.130399285
  C    1.595044730   0.599180975  -1.045227521
  C    1.124777522  -1.392945249   0.218594676
  H    0.376523142  -1.876712505   0.844172193

4.043_NH-N__methylamine--trimethylamine_085.wfx

