%nprocs=4
%mem=2GB
#p hf aug-cc-pvdz output=wfx scf=(conver=6) int=(grid=ultrafine)

title

0 1
  N    1.427339082  -0.599460933  -0.391210405
  H    0.524716799  -0.814135861   0.022375840
  H    2.004866126  -1.425237666  -0.309450334
  C    2.047308300   0.531660202   0.293967970
  H    3.009553628   0.759268640  -0.165146751
  H    2.214250713   0.389080652   1.369340867
  H    1.417609392   1.413212598   0.173110974
  N   -2.758554354  -0.500266522   0.469616884
  H   -3.098650984  -1.196257825  -0.180830961
  H   -3.331145512  -0.568445464   1.300193999
  C   -2.840801684   0.840422115  -0.117741491
  H   -2.493172386   1.570685908   0.611558806
  H   -3.843913852   1.136042313  -0.442284053
  H   -2.171593564   0.891889360  -0.974829758

4.040_NH-N__methylamine--methylamine_150.wfx

