%nprocs=4
%mem=2GB
#p hf aug-cc-pvdz output=wfx scf=(conver=6) int=(grid=ultrafine)

title

0 1
  C    0.936148994   1.803524151   0.000000000
  H    1.247586894   2.366974188   0.877790110
  H    1.247586894   2.366974188  -0.877790110
  H   -0.147317299   1.708883430   0.000000000
  C    1.652223100   0.466504076   0.000000000
  O    2.872648699   0.395551997   0.000000000
  N    0.855329160  -0.625080597   0.000000000
  H   -0.156992093  -0.523366400   0.000000000
  C    1.423170645  -1.956683386   0.000000000
  H    2.046676181  -2.120112683   0.879135935
  H    2.046676181  -2.120112683  -0.879135935
  H    0.611997806  -2.681251498   0.000000000
  H   -2.718209656   1.228010899   1.275250578
  H   -4.238585422   0.327025698   1.265804280
  H   -2.808352251  -0.330662706   2.088248986
  H   -2.985770605  -1.392512643   0.000000000
  H   -2.808352251  -0.330662706  -2.088248986
  H   -2.718209656   1.228010899  -1.275250578
  H   -4.238585422   0.327025698  -1.265804280
  C   -3.146751159   0.227509489   1.217442241
  N   -2.680095739  -0.428343810   0.000000000
  C   -3.146751159   0.227509489  -1.217442241

4.047_NH-N__Nmethylacetamide--dimethylamine_125.wfx

