%nprocs=4
%mem=2GB
#p hf aug-cc-pvdz output=wfx scf=(conver=6) int=(grid=ultrafine)

title

0 1
  N    1.427339082  -0.599460933  -0.391210405
  H    0.524716799  -0.814135861   0.022375840
  H    2.004866126  -1.425237666  -0.309450334
  C    2.047308300   0.531660202   0.293967970
  H    3.009553628   0.759268640  -0.165146751
  H    2.214250713   0.389080652   1.369340867
  H    1.417609392   1.413212598   0.173110974
  N   -3.852978071  -0.395643409   0.618697232
  H   -4.193074702  -1.091634712  -0.031750613
  H   -4.425569229  -0.463822351   1.449274347
  C   -3.935225402   0.945045228   0.031338857
  H   -3.587596103   1.675309021   0.760639154
  H   -4.938337570   1.240665426  -0.293203705
  H   -3.266017281   0.996512473  -0.825749410

4.040_NH-N__methylamine--methylamine_200.wfx

