%nprocs=4
%mem=2GB
#p hf aug-cc-pvdz output=wfx scf=(conver=6) int=(grid=ultrafine)

title

0 1
H       -2.2135889270         1.2090063810         1.2752505780
C       -2.6421304300         0.2085049710         1.2174422410
H       -3.7339646930         0.3080211800         1.2658042800
H       -2.3037315220        -0.3496672240         2.0882489860
N       -2.1754750100        -0.4473483280         0.0000000000
H       -2.4811498760        -1.4115171610         0.0000000000
C       -2.6421304300         0.2085049710        -1.2174422410
H       -3.7339646930         0.3080211800        -1.2658042800
H       -2.3037315220        -0.3496672240        -2.0882489860
H       -2.2135889270         1.2090063810        -1.2752505780

4.047_NH-N__Nmethylacetamide--dimethylamine_2.wfx

