%nprocs=4
%mem=2GB
#p hf aug-cc-pvdz output=wfx scf=(conver=6) int=(grid=ultrafine)

title

0 1
H       -4.7460528880        -1.2517678360         0.0000285130
C       -4.5404004810        -0.1829588960        -0.0000035070
H       -4.9894910960         0.2625003870        -0.8857088900
H       -4.9895037540         0.2625534880         0.8856689650
C       -3.1062513490         0.0472098500         0.0000009620
N       -1.9736507720         0.2286480780         0.0000048820

4.044_NH-N__Nmethylacetamide--acetonitrile_2.wfx

