%nprocs=4
%mem=2GB
#p hf aug-cc-pvdz output=wfx scf=(conver=6) int=(grid=ultrafine)

title

0 1
C       -2.0827703820        -1.7955716920        -0.3922045430
H       -1.0032864260        -1.7177722240        -0.5028538940
C       -2.7479072100        -0.4677904690        -0.0841787550
H       -2.5116174020        -2.1956347140        -1.3093981360
H       -2.3151052580        -2.4961620190         0.4082331210
O       -3.9575851710        -0.3748382470         0.0668157080
N       -1.9152019040         0.5931724220         0.0120293000
H       -0.9166016310         0.4684759250        -0.1191724550
C       -2.4242860480         1.9169824010         0.3019057460
H       -3.1114350600         2.2555436220        -0.4739775570
H       -2.9657129710         1.9313424840         1.2478379040
H       -1.5854905140         2.6064736200         0.3600744000

4.052_NH-N__Nmethylacetamide--pyridine_1.wfx

