%nprocs=4
%mem=2GB
#p hf aug-cc-pvdz output=wfx scf=(conver=6) int=(grid=ultrafine)

title

0 1
  C    1.985749423   0.000000000   0.166495686
  H    0.952555545   0.000000000   0.440031524
  C    3.139871445   0.000000000  -0.150791985
  H    4.164122207   0.000000000  -0.428111631
  H   -1.122018811   2.022108279   0.371406181
  H   -1.021257578   1.229461515  -1.217065593
  H   -2.556034476   1.225955717  -0.315575204
  H   -1.122018811  -2.022108279   0.371406181
  H   -1.021257578  -1.229461515  -1.217065593
  H   -2.556034476  -1.225955717  -0.315575204
  C   -1.466679357   1.176345037  -0.217833628
  O   -1.069527984   0.000000000   0.458090036
  C   -1.466679357  -1.176345037  -0.217833628

5.006_CH-O__ethyne--dimethylether_095.wfx

