%nprocs=4
%mem=2GB
#p hf aug-cc-pvdz output=wfx scf=(conver=6) int=(grid=ultrafine)

title

0 1
  C   -2.011548349   0.283130903  -0.000000131
  H   -1.057741761   0.762468607  -0.000000367
  C   -3.070459929  -0.274876730   0.000000058
  H   -4.013236394  -0.761855986   0.000000226
  H    1.504969928  -1.825694346   0.875108308
  H    1.504969889  -1.825694659  -0.875108272
  H   -0.008720892  -1.461176121   0.000000004
  H    2.549882917   0.305374939  -0.000000515
  C    1.070298270  -1.337315283  -0.000000063
  C    1.459442884   0.108891192  -0.000000226
  O    0.685663799   1.032742946   0.000000034

5.001_CH-O__ethyne--acetaldehyde_080.wfx

