%nprocs=4
%mem=2GB
#p hf aug-cc-pvdz output=wfx scf=(conver=6) int=(grid=ultrafine)

title

0 1
H       -2.8502208620        -1.0550090710         0.0000000000
O       -2.6162227960        -0.1163910860         0.0000000000
C       -1.2676566430        -0.0396007970         0.0000000000
O       -0.5720884080        -1.0240558750         0.0000000000
C       -0.7889468940         1.3814841490         0.0000000000
H       -1.1768612100         1.8974968050        -0.8771481640
H       -1.1768612100         1.8974968050         0.8771481640
H        0.2946751650         1.4097807190         0.0000000000

5.003_CH-O__ethyne--aceticacid_2.wfx

