%nprocs=4
%mem=2GB
#p hf aug-cc-pvdz output=wfx scf=(conver=6) int=(grid=ultrafine)

title

0 1
  C    3.265892556  -0.518486558   0.000000000
  H    2.261027512  -0.878499698   0.000000000
  C    4.385072272  -0.093943248   0.000000000
  H    5.380850367   0.272530187   0.000000000
  H   -3.805562348   0.590592146   0.888831472
  H   -3.805562348   0.590592146  -0.888831472
  H   -4.642058958  -0.706849486   0.000000000
  H    0.419921718   1.326529748  -0.885980644
  H    0.419921718   1.326529748   0.885980644
  H   -0.344513528   2.675170232   0.000000000
  O   -2.637817224  -0.893000858   0.000000000
  C   -1.414688834  -0.365421356   0.000000000
  O   -0.425099460  -1.047354156   0.000000000
  O   -1.432406226   0.974686828   0.000000000
  C   -0.141304540   1.610141156   0.000000000
  C   -3.790445554  -0.035302040   0.000000000

5.005_CH-O__ethyne--dimethylcarbonate_125.wfx

