%nprocs=4
%mem=2GB
#p hf aug-cc-pvdz output=wfx scf=(conver=6) int=(grid=ultrafine)

title

0 1
C        2.5635344310        -0.3478419650         0.0000000000
H        1.5997278130        -0.8071116300         0.0000000000
C        3.6331440650         0.1894198680         0.0000000000
H        4.5852789030         0.6578513640         0.0000000000

5.003_CH-O__ethyne--aceticacid_1.wfx

