%nprocs=4
%mem=2GB
#p hf aug-cc-pvdz output=wfx scf=(conver=6) int=(grid=ultrafine)

title

0 1
  C    1.985749423   0.000000000   0.166495686
  H    0.952555545   0.000000000   0.440031524
  C    3.139871445   0.000000000  -0.150791985
  H    4.164122207   0.000000000  -0.428111631
  H   -1.015593362   2.022108279   0.370455733
  H   -0.914832129   1.229461515  -1.218016041
  H   -2.449609027   1.225955717  -0.316525652
  H   -1.015593362  -2.022108279   0.370455733
  H   -0.914832129  -1.229461515  -1.218016041
  H   -2.449609027  -1.225955717  -0.316525652
  C   -1.360253908   1.176345037  -0.218784076
  O   -0.963102535   0.000000000   0.457139588
  C   -1.360253908  -1.176345037  -0.218784076

5.006_CH-O__ethyne--dimethylether_090.wfx

