%nprocs=4
%mem=2GB
#p hf aug-cc-pvdz output=wfx scf=(conver=6) int=(grid=ultrafine)

title

0 1
C       -2.0115483490         0.2831309030        -0.0000001310
C       -3.0704599290        -0.2748767300         0.0000000580
H       -1.0577417610         0.7624686070        -0.0000003670
H       -4.0132363940        -0.7618559860         0.0000002260

5.001_CH-O__ethyne--acetaldehyde_1.wfx

