%nprocs=4
%mem=2GB
#p hf aug-cc-pvdz output=wfx scf=(conver=6) int=(grid=ultrafine)

title

0 1
  C    2.563534431  -0.347841965   0.000000000
  H    1.599727813  -0.807111630   0.000000000
  C    3.633144065   0.189419868   0.000000000
  H    4.585278903   0.657851364   0.000000000
  H   -5.022037083  -1.271953316   0.000000000
  H   -3.348677431   1.680552560  -0.877148164
  H   -1.877141056   1.192836474   0.000000000
  H   -3.348677431   1.680552560   0.877148164
  O   -2.743904629  -1.241000120   0.000000000
  C   -3.439472864  -0.256545042   0.000000000
  O   -4.788039017  -0.333335331   0.000000000
  C   -2.960763115   1.164539904   0.000000000

5.003_CH-O__ethyne--aceticacid_200.wfx

