%nprocs=4
%mem=2GB
#p hf aug-cc-pvdz output=wfx scf=(conver=6) int=(grid=ultrafine)

title

0 1
  C    1.985749423   0.000000000   0.166495686
  H    0.952555545   0.000000000   0.440031524
  C    3.139871445   0.000000000  -0.150791985
  H    4.164122207   0.000000000  -0.428111631
  H   -1.334869709   2.022108279   0.373307077
  H   -1.234108476   1.229461515  -1.215164697
  H   -2.768885374   1.225955717  -0.313674308
  H   -1.334869709  -2.022108279   0.373307077
  H   -1.234108476  -1.229461515  -1.215164697
  H   -2.768885374  -1.225955717  -0.313674308
  C   -1.679530255   1.176345037  -0.215932732
  O   -1.282378882   0.000000000   0.459990932
  C   -1.679530255  -1.176345037  -0.215932732

5.006_CH-O__ethyne--dimethylether_105.wfx

