%nprocs=4
%mem=2GB
#p hf aug-cc-pvdz output=wfx scf=(conver=6) int=(grid=ultrafine)

title

0 1
C        1.9857494230         0.0000000000         0.1664956860
H        0.9525555450         0.0000000000         0.4400315240
C        3.1398714450         0.0000000000        -0.1507919850
H        4.1641222070         0.0000000000        -0.4281116310

5.006_CH-O__ethyne--dimethylether_1.wfx

