%nprocs=4
%mem=2GB
#p hf aug-cc-pvdz output=wfx scf=(conver=6) int=(grid=ultrafine)

title

0 1
H        0.4759228600         1.3757252540         0.8852859690
C       -0.0883163860         1.6579336240         0.0000000000
O       -1.3777455400         1.0212683350         0.0000000000
H       -0.2896962770         2.7232615780         0.0000000000
H        0.4759228600         1.3757252540        -0.8852859690
C       -1.3768488930        -0.3206748520         0.0000000000
C       -2.7756172610        -0.8691939020         0.0000000000
O       -0.3698455590        -0.9858327740         0.0000000000
H       -3.3130284720        -0.5127280480        -0.8774540380
H       -3.3130284720        -0.5127280480         0.8774540380
H       -2.7412027550        -1.9528922880         0.0000000000

5.009_CH-O__ethyne--methylacetate_2.wfx

