%nprocs=4
%mem=2GB
#p hf aug-cc-pvdz output=wfx scf=(conver=6) int=(grid=ultrafine)

title

0 1
C       -2.2291092620        -0.1499790900         0.0980143790
C       -3.3971762130         0.0268627730        -0.0924401310
H       -1.1882350680        -0.3051877360         0.2707789290
H       -4.4328410780         0.1832839330        -0.2623083770

5.007_CH-O__ethyne--dimethylperoxide_1.wfx

