%nprocs=4
%mem=2GB
#p hf aug-cc-pvdz output=wfx scf=(conver=6) int=(grid=ultrafine)

title

0 1
  C   -2.229109262  -0.149979090   0.098014379
  H   -1.188235068  -0.305187736   0.270778929
  C   -3.397176213   0.026862773  -0.092440131
  H   -4.432841078   0.183283933  -0.262308377
  H    1.797105950   1.817837542   0.857145484
  H    1.090704016   2.539187566  -0.616131444
  H    0.021763020   1.943827839   0.677180260
  H    1.005064595  -2.447816557   0.603762840
  H    2.240144241  -1.637594083  -0.400142196
  H    0.591668009  -1.897801020  -1.041059586
  C    0.964552345   1.779007468   0.152834032
  O    0.950757560   0.556830862  -0.555033500
  O    0.754688411  -0.476989829   0.459990946
  C    1.179866899  -1.680026276  -0.147934064

5.007_CH-O__ethyne--dimethylperoxide_090.wfx

