%nprocs=4
%mem=2GB
#p hf aug-cc-pvdz output=wfx scf=(conver=6) int=(grid=ultrafine)

title

0 1
  C   -2.942257651  -0.471523277  -0.001467712
  H   -1.902980775  -0.723094487  -0.069449718
  C   -4.098370664  -0.169020571   0.076821865
  H   -5.124749270   0.090823236   0.145323115
  C   -0.323791706   1.627767727  -0.021566136
  H   -0.885759415   1.729522690  -0.948076601
  H    0.351353861   2.475014025   0.081148266
  H   -1.043265088   1.641869470   0.794650682
  C    0.383053771   0.290380283  -0.026286919
  O   -0.234099354  -0.761718655  -0.112707705
  N    1.735843939   0.337532949   0.069008981
  H    2.174833591   1.237345283   0.135986888
  C    2.570913084  -0.847646722   0.076656880
  H    1.918955253  -1.712362374   0.006989663
  H    3.255518591  -0.849904516  -0.771592420
  H    3.149395215  -0.911841284   0.998184670

5.012_CH-O__ethyne--Nmethylacetamide_080.wfx

