%nprocs=4
%mem=2GB
#p hf aug-cc-pvdz output=wfx scf=(conver=6) int=(grid=ultrafine)

title

0 1
  C   -2.126067766  -0.318374589   0.000000000
  H   -1.191120246  -0.827130057   0.000000000
  C   -3.166039308   0.272997379   0.000000000
  H   -4.092344523   0.790878621   0.000000000
  H    2.478960870   1.659178516   0.877436980
  H    2.478960870   1.659178516  -0.877436980
  H    0.975120335   1.178655838   0.000000000
  C    2.063033722   1.161762808   0.000000000
  N    2.604932996  -0.210815846   0.000000000
  O    1.769613978  -1.072911650   0.000000000

5.011_CH-O__ethyne--nitrosomethane_125.wfx

