%nprocs=4
%mem=2GB
#p hf aug-cc-pvdz output=wfx scf=(conver=6) int=(grid=ultrafine)

title

0 1
  C   -2.126067766  -0.318374589   0.000000000
  H   -1.191120246  -0.827130057   0.000000000
  C   -3.166039308   0.272997379   0.000000000
  H   -4.092344523   0.790878621   0.000000000
  H    1.886814025   1.708334834   0.877436980
  H    1.886814025   1.708334834  -0.877436980
  H    0.382973490   1.227812157   0.000000000
  C    1.470886877   1.210919126   0.000000000
  N    2.012786151  -0.161659528   0.000000000
  O    1.177467133  -1.023755331   0.000000000

5.011_CH-O__ethyne--nitrosomethane_100.wfx

