%nprocs=4
%mem=2GB
#p hf aug-cc-pvdz output=wfx scf=(conver=6) int=(grid=ultrafine)

title

0 1
  C   -2.432906253   0.473582602   0.004130564
  H   -1.646241222   1.139001924  -0.261552120
  C   -3.297939682  -0.296063444   0.305259780
  H   -4.075023714  -0.967467081   0.573562013
  H   -0.255769364  -1.261297049  -0.141733565
  H    1.353030536  -2.068388315  -0.082908056
  H    0.781071041  -1.251638724  -1.580134936
  C    0.771373891  -1.254708748  -0.494954416
  N    1.382920509   0.034191781  -0.045136378
  O    0.859029119   1.060487591  -0.449327484
  O    2.350588833  -0.018231421   0.688073075

5.010_CH-O__ethyne--nitromethane_105.wfx

