%nprocs=4
%mem=2GB
#p hf aug-cc-pvdz output=wfx scf=(conver=6) int=(grid=ultrafine)

title

0 1
  C   -2.126067766  -0.318374589   0.000000000
  H   -1.191120246  -0.827130057   0.000000000
  C   -3.166039308   0.272997379   0.000000000
  H   -4.092344523   0.790878621   0.000000000
  H    1.531525918   1.737828625   0.877436980
  H    1.531525918   1.737828625  -0.877436980
  H    0.027685383   1.257305948   0.000000000
  C    1.115598770   1.240412917   0.000000000
  N    1.657498044  -0.132165737   0.000000000
  O    0.822179026  -0.994261540   0.000000000

5.011_CH-O__ethyne--nitrosomethane_085.wfx

