%nprocs=4
%mem=2GB
#p hf aug-cc-pvdz output=wfx scf=(conver=6) int=(grid=ultrafine)

title

0 1
  C    3.497263390   0.005071102  -0.164648372
  H    2.646866729  -0.618005884  -0.010424745
  C    4.447006683   0.712526927  -0.335172122
  H    5.290114219   1.338597158  -0.487362299
  H    0.240028266   0.783480458   0.913020819
  H   -3.826315330   1.566618457  -0.217101741
  H   -1.628636640   2.373076297   0.591469001
  H   -2.273782546  -2.424633943  -0.383281905
  H   -0.090260717  -2.649488577   0.263557911
  H   -4.138469440  -0.841917985  -0.701998934
  C   -3.010504118   0.873159983  -0.076518385
  C   -1.775722604   1.323975546   0.377698267
  C   -0.721967642   0.441007737   0.562033425
  C   -0.907631518  -0.909032047   0.286066927
  C   -2.136832310  -1.371966166  -0.169506842
  C   -3.184614524  -0.477323345  -0.348214755
  O    0.160438276  -1.747474415   0.479541664

5.013_CH-O__ethyne--phenol_125.wfx

