%nprocs=4
%mem=2GB
#p hf aug-cc-pvdz output=wfx scf=(conver=6) int=(grid=ultrafine)

title

0 1
H       -2.7392218410         0.4277211970         1.6128381010
C       -2.1690412800        -0.3732880770         1.1599517500
H       -2.7244130950        -1.3006726740         1.0886915820
H       -1.2209849380        -0.5273171620         1.6720155460
N       -1.7993388600         0.0459086010        -0.2233109950
O       -1.5365738100        -0.8356072300        -1.0241439440
O       -1.7449800800         1.2405033550        -0.4583718140

5.018_CH-O__nitromethane--Nmethylacetamide_1.wfx

