%nprocs=4
%mem=2GB
#p hf aug-cc-pvdz output=wfx scf=(conver=6) int=(grid=ultrafine)

title

0 1
  C   -2.126067766  -0.318374589   0.000000000
  H   -1.191120246  -0.827130057   0.000000000
  C   -3.166039308   0.272997379   0.000000000
  H   -4.092344523   0.790878621   0.000000000
  H    1.649955287   1.727997361   0.877436980
  H    1.649955287   1.727997361  -0.877436980
  H    0.146114752   1.247474684   0.000000000
  C    1.234028139   1.230581653   0.000000000
  N    1.775927413  -0.141997001   0.000000000
  O    0.940608395  -1.004092804   0.000000000

5.011_CH-O__ethyne--nitrosomethane_090.wfx

