%nprocs=4
%mem=2GB
#p hf aug-cc-pvdz output=wfx scf=(conver=6) int=(grid=ultrafine)

title

0 1
C       -3.2590111690        -0.1940060280         0.0000000000
C       -4.4067943170         0.1474056790         0.0000000000
H       -2.2282679700        -0.4887489980         0.0000000000
H       -5.4250959340         0.4455064020         0.0000000000

6.009_CH-N__ethyne--pyridine_1.wfx

