%nprocs=4
%mem=2GB
#p hf aug-cc-pvdz output=wfx scf=(conver=6) int=(grid=ultrafine)

title

0 1
  C    2.551418700  -0.510074825   0.000000000
  H    1.509617183  -0.734155788   0.000000000
  C    3.717005672  -0.240030014   0.000000000
  H    4.752501692  -0.007763900   0.000000000
  H   -0.583584220   1.869697102  -0.890504640
  H   -0.583584220   1.869697102   0.890504640
  H    0.922502768   1.589190121   0.000000000
  C   -0.147811774   1.414811647   0.000000000
  N   -0.335981432  -0.045797683   0.000000000
  N   -1.496649952  -0.438999140   0.000000000
  N   -2.522107424  -0.910060158   0.000000000

6.007_CH-N__ethyne--methylazide_085.wfx

