%nprocs=4
%mem=2GB
#p hf aug-cc-pvdz output=wfx scf=(conver=6) int=(grid=ultrafine)

title

0 1
  C    2.632381871  -0.000000257   0.000000000
  H    1.565358322  -0.000000754   0.000000000
  C    3.829307843   0.000000417   0.000000000
  H    4.890207532   0.000001030   0.000000000
  H   -4.282280354  -0.511142342  -0.885325248
  H   -4.282280354  -0.511142342   0.885325248
  H   -4.282280164   1.022286013   0.000000000
  C   -3.908631014   0.000000427   0.000000000
  C   -2.455491702   0.000000082   0.000000000
  N   -1.308070468  -0.000000599   0.000000000

6.001_CH-N__ethyne--acetonitrile_125.wfx

