%nprocs=4
%mem=2GB
#p hf aug-cc-pvdz output=wfx scf=(conver=6) int=(grid=ultrafine)

title

0 1
C        2.8032424170        -0.0029064700         0.0000000000
H        1.7382946520         0.1441418490         0.0000000000
C        3.9891177920        -0.1727495560         0.0000000000
H        5.0396141170        -0.3217484700         0.0000000000

6.008_CH-N__ethyne--Nmethyl2propanimine_1.wfx

