%nprocs=4
%mem=2GB
#p hf aug-cc-pvdz output=wfx scf=(conver=6) int=(grid=ultrafine)

title

0 1
  C   -1.597952042   0.186011894   0.000000000
  H   -0.571514692   0.500643864   0.000000000
  C   -2.740858305  -0.171969589   0.000000000
  H   -3.754198053  -0.486617119   0.000000000
  N    3.805000964   0.879543492   0.000000000
  H    4.186018965   1.345952731  -0.812477095
  H    4.186018965   1.345952731   0.812477095
  C    4.156783707  -0.543145548   0.000000000
  H    3.720182783  -1.019205611   0.876689260
  H    5.232199143  -0.747751237   0.000000000
  H    3.720182783  -1.019205611  -0.876689260

6.006_CH-N__ethyne--methylamine_200.wfx

