%nprocs=4
%mem=2GB
#p hf aug-cc-pvdz output=wfx scf=(conver=6) int=(grid=ultrafine)

title

0 1
  C    2.449319184   0.044371208   0.000000000
  H    1.384768316  -0.058136862   0.000000000
  C    3.640694696   0.161388052   0.000000000
  H    4.696775374   0.264808000   0.000000000
  H   -3.022323608  -2.656614554   0.877886344
  H   -4.558199200  -2.360866219   0.000000000
  H   -3.022323608  -2.656614554  -0.877886344
  H   -4.231744261   1.838851588  -0.877585149
  H   -2.695174111   1.554302822   0.000000000
  H   -4.231744261   1.838851588   0.877585149
  C   -3.480376385  -2.200699107   0.000000000
  N   -3.138554770  -0.781456848   0.000000000
  N   -4.115048780  -0.033916336   0.000000000
  C   -3.771867718   1.384464507   0.000000000

6.005_CH-N__ethyne--dimethyldiazene_200.wfx

