%nprocs=4
%mem=2GB
#p hf aug-cc-pvdz output=wfx scf=(conver=6) int=(grid=ultrafine)

title

0 1
  C    2.632381871  -0.000000257   0.000000000
  H    1.565358322  -0.000000754   0.000000000
  C    3.829307843   0.000000417   0.000000000
  H    4.890207532   0.000001030   0.000000000
  H   -3.707594596  -0.511142373  -0.885325248
  H   -3.707594596  -0.511142373   0.885325248
  H   -3.707594406   1.022285982   0.000000000
  C   -3.333945256   0.000000396   0.000000000
  C   -1.880805944   0.000000051   0.000000000
  N   -0.733384710  -0.000000630   0.000000000

6.001_CH-N__ethyne--acetonitrile_100.wfx

