%nprocs=4
%mem=2GB
#p hf aug-cc-pvdz output=wfx scf=(conver=6) int=(grid=ultrafine)

title

0 1
  C    2.632381871  -0.000000257   0.000000000
  H    1.565358322  -0.000000754   0.000000000
  C    3.829307843   0.000000417   0.000000000
  H    4.890207532   0.000001030   0.000000000
  H   -3.592657444  -0.511142379  -0.885325248
  H   -3.592657444  -0.511142379   0.885325248
  H   -3.592657254   1.022285976   0.000000000
  C   -3.219008104   0.000000390   0.000000000
  C   -1.765868792   0.000000045   0.000000000
  N   -0.618447558  -0.000000636   0.000000000

6.001_CH-N__ethyne--acetonitrile_095.wfx

