%nprocs=4
%mem=2GB
#p hf aug-cc-pvdz output=wfx scf=(conver=6) int=(grid=ultrafine)

title

0 1
H       -2.0360713470         1.7159148800        -0.8861073630
C       -1.6017992890         1.2573982130         0.0000000000
N       -1.8821240420        -0.1354128260         0.0000000000
H       -2.0360713470         1.7159148800         0.8861073630
H       -0.5199330770         1.3968716260         0.0000000000
C       -2.0761219610        -1.2817821260         0.0000000000

6.015_CH-N__methylisocyanide--dimethylamine_1.wfx

