%nprocs=4
%mem=2GB
#p hf aug-cc-pvdz output=wfx scf=(conver=6) int=(grid=ultrafine)

title

0 1
  H   -1.762133070   2.224272550   0.385520184
  H   -3.626079629   0.220287765   0.314214456
  H    0.620629276   0.958941406  -0.138482378
  H   -2.179210861  -2.031725158  -0.243630158
  C   -2.565988935   0.132147016   0.157208312
  C   -1.589543084   1.180283099   0.194523396
  C   -0.391913915   0.599793502  -0.060282527
  O   -0.557637273  -0.741277284  -0.254044427
  C   -1.886183339  -1.006390911  -0.117837798
  N    3.559704756   0.498563692  -0.398756098
  H    3.686695386   0.264826590  -1.374573972
  H    4.319735628   1.114653119  -0.143346956
  C    3.564588390  -0.710431922   0.429719951
  H    3.416651521  -0.429768119   1.471679363
  H    4.481839989  -1.305651952   0.365251159
  H    2.726146478  -1.343001974   0.143899158

6.011_CH-N__furan--methylamine_125.wfx

