%nprocs=4
%mem=2GB
#p hf aug-cc-pvdz output=wfx scf=(conver=6) int=(grid=ultrafine)

title

0 1
H        0.7250882240        -0.8850360980         1.2665570440
C        1.6511788800        -0.3136072070         1.2141069460
H        2.4861751040        -1.0262771360         1.2656713130
H        1.6978515880         0.3345652690         2.0880078740
N        1.6513743250         0.4939851990         0.0000000000
C        1.6511788800        -0.3136072070        -1.2141069460
H        2.4556838430         1.1064303890         0.0000000000
H        2.4861751040        -1.0262771360        -1.2656713130
H        0.7250882240        -0.8850360980        -1.2665570440
H        1.6978515880         0.3345652690        -2.0880078740

6.015_CH-N__methylisocyanide--dimethylamine_2.wfx

