%nprocs=4
%mem=2GB
#p hf aug-cc-pvdz output=wfx scf=(conver=6) int=(grid=ultrafine)

title

0 1
  H   -1.762133070   2.224272550   0.385520184
  H   -3.626079629   0.220287765   0.314214456
  H    0.620629276   0.958941406  -0.138482378
  H   -2.179210861  -2.031725158  -0.243630158
  C   -2.565988935   0.132147016   0.157208312
  C   -1.589543084   1.180283099   0.194523396
  C   -0.391913915   0.599793502  -0.060282527
  O   -0.557637273  -0.741277284  -0.254044427
  C   -1.886183339  -1.006390911  -0.117837798
  N    4.147519852   0.406488150  -0.450810842
  H    4.274510482   0.172751048  -1.426628716
  H    4.907550724   1.022577576  -0.195401700
  C    4.152403486  -0.802507464   0.377665207
  H    4.004466617  -0.521843662   1.419624619
  H    5.069655085  -1.397727494   0.313196415
  H    3.313961574  -1.435077516   0.091844414

6.011_CH-N__furan--methylamine_150.wfx

