%nprocs=4
%mem=2GB
#p hf aug-cc-pvdz output=wfx scf=(conver=6) int=(grid=ultrafine)

title

0 1
H        1.8433960770        -1.7284716130         1.2183509440
C        1.4182176320        -1.6327815680         0.2224039410
H        1.7310754150        -2.4548323930        -0.4097360680
O        1.9788580680        -0.4369657430        -0.4151982760
H        0.3356893360        -1.5283643250         0.2568919530
C        1.6127180570         0.6822567900         0.0857493090
N        1.3020922150         1.7134474780         0.5050315080

6.013_CH-N__methylcyanate--dimethylamine_1.wfx

