%nprocs=4
%mem=2GB
#p hf aug-cc-pvdz output=wfx scf=(conver=6) int=(grid=ultrafine)

title

0 1
  C    2.283412483   0.000007137   0.000000046
  H    1.207338154   0.000010875   0.000000069
  C    3.481267117   0.000001134   0.000000067
  H    4.542388365  -0.000004462   0.000000095
  H   -2.130962226   0.746369490   1.292991231
  H   -0.644603049   0.182821310   2.081882027
  H   -0.644604093   1.711357398   1.199543846
  H   -0.644603728   1.711556192  -1.199260295
  H   -2.130961842   0.746583670  -1.292867931
  H   -0.644602455   0.183166313  -2.081851612
  H   -2.130943236  -1.492968692  -0.000123800
  H   -0.644579698  -1.894370292  -0.882616902
  C   -1.034291790   0.694365973   1.202903591
  N   -0.606834029   0.000001380   0.000000065
  C   -1.034291439   0.694565374  -1.202788564
  C   -1.034274697  -1.388933419  -0.000115183
  H   -0.644580020  -1.894516544   0.882302950

6.010_CH-N__ethyne--trimethylamine_085.wfx

