%nprocs=4
%mem=2GB
#p hf aug-cc-pvdz output=wfx scf=(conver=6) int=(grid=ultrafine)

title

0 1
  H    1.811725800  -0.959621864  -1.824816914
  H    1.620174648  -2.103856651  -0.441177293
  H    0.216213655  -1.155077192  -1.011486025
  C    1.299838981  -1.173571096  -0.895509035
  N    1.593030603  -0.070001464   0.065466226
  O    1.390238388  -0.294584154   1.247298307
  O    1.970597181   0.994082981  -0.390545373
  H   -3.775014896  -0.428337455  -0.739169389
  H   -4.170963650  -0.022416734   0.934238546
  H   -3.309204194  -1.527040059   0.557673568
  H   -1.706614640   0.028466372   1.283665565
  H   -1.201079412   2.061905998   0.249559103
  H   -2.465888854   1.768580252  -0.942071067
  H   -2.907678770   2.137937737   0.729215325
  C   -3.407506064  -0.476833760   0.286801157
  N   -2.110760158   0.178865083   0.368755096
  C   -2.179084968   1.609813831   0.098300828

6.017_CH-N__nitromethane--dimethylamine_125.wfx

