%nprocs=4
%mem=2GB
#p hf aug-cc-pvdz output=wfx scf=(conver=6) int=(grid=ultrafine)

title

0 1
H        2.0049438880         1.7270335270         0.8755570060
C        1.6355425620         1.1895040880         0.0000000000
N        2.3208766720        -0.1177994100         0.0000000000
H        2.0049438880         1.7270335270        -0.8755570060
H        0.5486321300         1.0991588060         0.0000000000
O        1.5798529100        -1.0631459240         0.0000000000

6.019_CH-N__nitrosomethane--dimethylamine_1.wfx

