%nprocs=4
%mem=2GB
#p hf aug-cc-pvdz output=wfx scf=(conver=6) int=(grid=ultrafine)

title

0 1
  H   -2.036071347   1.715914880  -0.886107363
  H   -0.519933077   1.396871626   0.000000000
  H   -2.036071347   1.715914880   0.886107363
  C   -2.076121961  -1.281782126   0.000000000
  N   -1.882124042  -0.135412826   0.000000000
  C   -1.601799289   1.257398213   0.000000000
  H    0.399392114  -0.749603134   1.266557044
  H    2.160478994  -0.890844172   1.265671313
  H    1.372155478   0.469998233   2.088007874
  H    2.129987733   1.241863353   0.000000000
  H    1.372155478   0.469998233  -2.088007874
  H    0.399392114  -0.749603134  -1.266557044
  H    2.160478994  -0.890844172  -1.265671313
  C    1.325482770  -0.178174243   1.214106946
  N    1.325678215   0.629418163   0.000000000
  C    1.325482770  -0.178174243  -1.214106946

6.015_CH-N__methylisocyanide--dimethylamine_085.wfx

