%nprocs=4
%mem=2GB
#p hf aug-cc-pvdz output=wfx scf=(conver=6) int=(grid=ultrafine)

title

0 1
  H    1.811725800  -0.959621864  -1.824816914
  H    1.620174648  -2.103856651  -0.441177293
  H    0.216213655  -1.155077192  -1.011486025
  C    1.299838981  -1.173571096  -0.895509035
  N    1.593030603  -0.070001464   0.065466226
  O    1.390238388  -0.294584154   1.247298307
  O    1.970597181   0.994082981  -0.390545373
  H   -3.123462229  -0.801841292  -1.125636903
  H   -3.519410982  -0.395920571   0.547771032
  H   -2.657651526  -1.900543896   0.171206054
  H   -1.055061972  -0.345037465   0.897198051
  H   -0.549526745   1.688402161  -0.136908411
  H   -1.814336187   1.395076415  -1.328538581
  H   -2.256126103   1.764433900   0.342747811
  C   -2.755953397  -0.850337597  -0.099666357
  N   -1.459207490  -0.194638754  -0.017712418
  C   -1.527532300   1.236309994  -0.288166686

6.017_CH-N__nitromethane--dimethylamine_090.wfx

