%nprocs=4
%mem=2GB
#p hf aug-cc-pvdz output=wfx scf=(conver=6) int=(grid=ultrafine)

title

0 1
N       -2.3503388630         0.6099751350         0.0000000000
C       -2.1476710270        -0.8454488810         0.0000000000
H       -2.8850647060         0.8931703170        -0.8109220960
H       -2.8850647060         0.8931703170         0.8109220960
H       -1.5669925800        -1.1262400240        -0.8764846060
H       -1.5669925800        -1.1262400240         0.8764846060
H       -3.0725359350        -1.4306024510         0.0000000000

6.018_CH-N__nitromethane--methylamine_2.wfx

