%nprocs=4
%mem=2GB
#p hf aug-cc-pvdz output=wfx scf=(conver=6) int=(grid=ultrafine)

title

0 1
H       -1.4847396760        -2.4047870690         0.2454265470
C       -1.2190267470        -1.5341654780        -0.3416734490
H       -0.1665516390        -1.5294044950        -0.6162880040
H       -1.8610170110        -1.4471564790        -1.2146462500
O       -1.4743914210        -0.3942466300         0.5453797750
C       -1.1048584400         0.7480831590         0.1023361870
N       -0.7795078480         1.7967861320        -0.2580563340

6.014_CH-N__methylcyanate--methylamine_1.wfx

