%nprocs=4
%mem=2GB
#p hf aug-cc-pvdz output=wfx scf=(conver=6) int=(grid=ultrafine)

title

0 1
  H   -2.036071347   1.715914880  -0.886107363
  H   -0.519933077   1.396871626   0.000000000
  H   -2.036071347   1.715914880   0.886107363
  C   -2.076121961  -1.281782126   0.000000000
  N   -1.882124042  -0.135412826   0.000000000
  C   -1.601799289   1.257398213   0.000000000
  H    1.810741925  -1.336479312   1.266557044
  H    3.571828805  -1.477720350   1.265671313
  H    2.783505289  -0.116877944   2.088007874
  H    3.541337544   0.654987176   0.000000000
  H    2.783505289  -0.116877944  -2.088007874
  H    1.810741925  -1.336479312  -1.266557044
  H    3.571828805  -1.477720350  -1.265671313
  C    2.736832581  -0.765050420   1.214106946
  N    2.737028026   0.042541985   0.000000000
  C    2.736832581  -0.765050420  -1.214106946

6.015_CH-N__methylisocyanide--dimethylamine_150.wfx

