%nprocs=4
%mem=2GB
#p hf aug-cc-pvdz output=wfx scf=(conver=6) int=(grid=ultrafine)

title

0 1
N       -2.3831310870         0.4091733450         0.0819055340
H       -2.0014954200        -0.5208880380        -0.0544190670
H       -2.8509989830         0.4102920320         0.9797978240
H       -3.0973448180         0.5472172870        -0.6222704530

6.012_CH-N__methylcyanate--ammonia_2.wfx

