%nprocs=4
%mem=2GB
#p hf aug-cc-pvdz output=wfx scf=(conver=6) int=(grid=ultrafine)

title

0 1
H        1.4608746120        -1.7064574570        -0.9216434410
C        1.3743196700        -1.1799003800         0.0304901620
H        0.3529807870        -1.1759693160         0.4090241020
H        2.0695624820        -1.6619564450         0.7202478020
N        1.8997605560         0.1800960780        -0.1998902360
O        1.1317305780         1.0619308180         0.0757318700

6.020_CH-N__nitrosomethane--methylamine_1.wfx

