%nprocs=4
%mem=2GB
#p hf aug-cc-pvdz output=wfx scf=(conver=6) int=(grid=ultrafine)

title

0 1
  H    1.460874612  -1.706457457  -0.921643441
  H    2.069562482  -1.661956445   0.720247802
  H    0.352980787  -1.175969316   0.409024102
  C    1.374319670  -1.179900380   0.030490162
  N    1.899760556   0.180096078  -0.199890236
  O    1.131730578   1.061930818   0.075731870
  N   -4.041447163   0.986513952   1.005509510
  H   -4.791428638   1.130020699   1.668193512
  H   -3.344700550   1.701083514   1.173160302
  C   -4.536138298   1.073839545  -0.368287089
  H   -3.706052232   0.920425170  -1.057499286
  H   -5.010682143   2.026698030  -0.627990498
  H   -5.258315680   0.277633056  -0.546004570

6.020_CH-N__nitrosomethane--methylamine_200.wfx

