%nprocs=4
%mem=2GB
#p hf aug-cc-pvdz output=wfx scf=(conver=6) int=(grid=ultrafine)

title

0 1
  N   -2.383382910  -0.016366239   0.000000000
  H   -2.207547256   0.561597525  -0.812976437
  H   -2.207547256   0.561597525   0.812976437
  H   -3.369455142  -0.243247669   0.000000000
  H    2.097147142  -1.682595778   0.000000000
  H    3.638669339  -1.812110619   0.903177805
  H    3.638669339  -1.812110619  -0.903177805
  C    3.160750106  -1.453469758   0.000000000
  N    3.227607457   0.037570979   0.000000000
  O    3.229783911   0.598578677  -1.081655739
  O    3.229783911   0.598578677   1.081655739

7.009_noHB__ammonia--nitromethane_200.wfx

