%nprocs=4
%mem=2GB
#p hf aug-cc-pvdz output=wfx scf=(conver=6) int=(grid=ultrafine)

title

0 1
  N    2.314242557  -0.073479079   0.000000000
  H    2.909570082  -0.162864261   0.813768998
  H    2.909570082  -0.162864261  -0.813768998
  H    1.687909075  -0.869930873   0.000000000
  H    0.167417548   1.425167292   0.000000000
  H   -1.353879212   1.706707587   0.886529949
  H   -1.353879212   1.706707587  -0.886529949
  C   -1.296933228  -1.292874403   0.000000000
  N   -1.147947564  -0.139913641   0.000000000
  C   -0.908651191   1.259971132   0.000000000

7.008_noHB__ammonia--methylisocyanide_105.wfx

