%nprocs=4
%mem=2GB
#p hf aug-cc-pvdz output=wfx scf=(conver=6) int=(grid=ultrafine)

title

0 1
N        2.3142425570        -0.0734790790         0.0000000000
H        2.9095700820        -0.1628642610        -0.8137689980
H        1.6879090750        -0.8699308730         0.0000000000
H        2.9095700820        -0.1628642610         0.8137689980

7.008_noHB__ammonia--methylisocyanide_1.wfx

