%nprocs=4
%mem=2GB
#p hf aug-cc-pvdz output=wfx scf=(conver=6) int=(grid=ultrafine)

title

0 1
  N    2.314242557  -0.073479079   0.000000000
  H    2.909570082  -0.162864261   0.813768998
  H    2.909570082  -0.162864261  -0.813768998
  H    1.687909075  -0.869930873   0.000000000
  H   -0.334237234   1.453202029   0.000000000
  H   -1.855533994   1.734742324   0.886529949
  H   -1.855533994   1.734742324  -0.886529949
  C   -1.798588010  -1.264839666   0.000000000
  N   -1.649602346  -0.111878904   0.000000000
  C   -1.410305973   1.288005869   0.000000000

7.008_noHB__ammonia--methylisocyanide_125.wfx

