%nprocs=4
%mem=2GB
#p hf aug-cc-pvdz output=wfx scf=(conver=6) int=(grid=ultrafine)

title

0 1
  N    2.314242557  -0.073479079   0.000000000
  H    2.909570082  -0.162864261   0.813768998
  H    2.909570082  -0.162864261  -0.813768998
  H    1.687909075  -0.869930873   0.000000000
  H   -0.961305713   1.488245451   0.000000000
  H   -2.482602473   1.769785746   0.886529949
  H   -2.482602473   1.769785746  -0.886529949
  C   -2.425656489  -1.229796244   0.000000000
  N   -2.276670825  -0.076835482   0.000000000
  C   -2.037374452   1.323049291   0.000000000

7.008_noHB__ammonia--methylisocyanide_150.wfx

