%nprocs=4
%mem=2GB
#p hf aug-cc-pvdz output=wfx scf=(conver=6) int=(grid=ultrafine)

title

0 1
  H    0.498457064   1.920509149   0.990928586
  H    2.128755690   0.076048425   2.124836189
  H    2.773860894  -1.668604461   0.150497178
  H    1.501088191  -0.785360581  -2.074087685
  N    0.817087210   0.762205484  -0.773099298
  C    0.979968970   1.066106494   0.552373023
  C    1.801702143   0.111191290   1.100905218
  C    2.139063683  -0.804533567   0.065704958
  C    1.511092929  -0.377643876  -1.080154761
  H    0.203271328   1.246046624  -1.402011580
  H   -0.020950467  -1.264250404   0.397490290
  H   -1.475464505  -2.136936772  -0.070653309
  H   -1.497133430  -1.118767067   1.424591409
  C   -1.112114353  -1.229192951   0.412568615
  N   -1.511181174  -0.100727065  -0.444552709
  O   -2.120408707   0.763885252   0.126047084

7.004_noHB__1Hpyrrole--nitrosomethane_080.wfx

