%nprocs=4
%mem=2GB
#p hf aug-cc-pvdz output=wfx scf=(conver=6) int=(grid=ultrafine)

title

0 1
  N   -2.280467385   0.030994158   0.000000000
  H   -1.660112384   0.832542244   0.000000000
  H   -2.876848019   0.115781008   0.813542773
  H   -2.876848019   0.115781008  -0.813542773
  H    2.607295942  -1.792912257   0.885483571
  H    1.075040153  -1.600562509   0.000000000
  H    2.607295942  -1.792912257  -0.885483571
  C    2.139259569  -1.366551538   0.000000000
  C    2.286763699   0.078621514   0.000000000
  N    2.367702933   1.224719584   0.000000000

7.006_noHB__ammonia--acetonitrile_150.wfx

