%nprocs=4
%mem=2GB
#p hf aug-cc-pvdz output=wfx scf=(conver=6) int=(grid=ultrafine)

title

0 1
  C   -1.486188782  -0.134625060   0.000000000
  O   -0.610591207  -0.966872797   0.000000000
  O   -1.259872147   1.186977609   0.000000000
  H   -0.296310261   1.362943231   0.000000000
  C   -2.958602243  -0.441889403   0.000000000
  H   -3.110174536  -1.515490566   0.000000000
  H   -3.427434334   0.002483070  -0.876906797
  H   -3.427434334   0.002483070   0.876906797
  H    2.344540808  -1.667335220   0.000000000
  H    3.821649571  -1.209962451   0.887198334
  H    3.821649571  -1.209962451  -0.887198334
  C    2.241711923   1.352382300   0.000000000
  N    2.770135188   0.321188296   0.000000000
  C    3.221286950  -1.022484782   0.000000000

7.005_noHB__aceticacid--methylisocyanide_125.wfx

