%nprocs=4
%mem=2GB
#p hf aug-cc-pvdz output=wfx scf=(conver=6) int=(grid=ultrafine)

title

0 1
  C   -1.486188782  -0.134625060   0.000000000
  O   -0.610591207  -0.966872797   0.000000000
  O   -1.259872147   1.186977609   0.000000000
  H   -0.296310261   1.362943231   0.000000000
  C   -2.958602243  -0.441889403   0.000000000
  H   -3.110174536  -1.515490566   0.000000000
  H   -3.427434334   0.002483070  -0.876906797
  H   -3.427434334   0.002483070   0.876906797
  H    1.431299240  -1.701967136   0.000000000
  H    2.908408003  -1.244594367   0.887198334
  H    2.908408003  -1.244594367  -0.887198334
  C    1.328470355   1.317750384   0.000000000
  N    1.856893620   0.286556380   0.000000000
  C    2.308045382  -1.057116698   0.000000000

7.005_noHB__aceticacid--methylisocyanide_080.wfx

