%nprocs=4
%mem=2GB
#p hf aug-cc-pvdz output=wfx scf=(conver=6) int=(grid=ultrafine)

title

0 1
  N   -2.383382910  -0.016366239   0.000000000
  H   -2.207547256   0.561597525  -0.812976437
  H   -2.207547256   0.561597525   0.812976437
  H   -3.369455142  -0.243247669   0.000000000
  H    0.195861846  -1.652266521   0.000000000
  H    1.737384043  -1.781781362   0.903177805
  H    1.737384043  -1.781781362  -0.903177805
  C    1.259464810  -1.423140501   0.000000000
  N    1.326322161   0.067900236   0.000000000
  O    1.328498615   0.628907934  -1.081655739
  O    1.328498615   0.628907934   1.081655739

7.009_noHB__ammonia--nitromethane_125.wfx

