%nprocs=4
%mem=2GB
#p hf aug-cc-pvdz output=wfx scf=(conver=6) int=(grid=ultrafine)

title

0 1
  N   -2.387622510   0.386855807   0.053029924
  H   -2.170349904  -0.586662948  -0.125135486
  H   -2.600934499   0.466185686   1.039693239
  H   -3.237621247   0.602395994  -0.452609222
  H   -0.315541887   1.722212705  -0.353391626
  H    1.178999444   1.499450085  -1.303394266
  H    1.238046445   2.364800166   0.239977665
  C    0.759367464   1.553557313  -0.297181408
  N    1.048180445   0.320879334   0.458222815
  N    0.514144661  -0.698764544   0.054492435
  N    0.075761531  -1.703373954  -0.226963901

7.007_noHB__ammonia--methylazide_095.wfx

