%nprocs=4
%mem=2GB
#p hf aug-cc-pvdz output=wfx scf=(conver=6) int=(grid=ultrafine)

title

0 1
  H   -0.863373502  -0.769629189   2.104040408
  H   -2.526882845   1.237301901   1.356054933
  H   -2.526882845   1.237301901  -1.356054933
  H   -0.863373502  -0.769629189  -2.104040408
  N   -0.649450828  -1.049948233  -0.000000000
  C   -1.140562166  -0.436653610   1.120801913
  C   -1.974175437   0.577752539   0.710811092
  C   -1.974175437   0.577752539  -0.710811092
  C   -1.140562166  -0.436653610  -1.120801913
  H    0.050197596  -1.770106031   0.000000000
  H    0.534707699   1.337757865   0.000000000
  H    1.952533441   1.937754126  -0.886803823
  H    1.952533441   1.937754126   0.886803823
  C    2.563059545  -0.999504005   0.000000000
  N    2.169936709   0.093788845   0.000000000
  C    1.620623791   1.402611795   0.000000000

7.003_noHB__1Hpyrrole--methylisocyanide_095.wfx

