%nprocs=4
%mem=2GB
#p hf aug-cc-pvdz output=wfx scf=(conver=6) int=(grid=ultrafine)

title

0 1
  H    0.498457064   1.920509149   0.990928586
  H    2.128755690   0.076048425   2.124836189
  H    2.773860894  -1.668604461   0.150497178
  H    1.501088191  -0.785360581  -2.074087685
  N    0.817087210   0.762205484  -0.773099298
  C    0.979968970   1.066106494   0.552373023
  C    1.801702143   0.111191290   1.100905218
  C    2.139063683  -0.804533567   0.065704958
  C    1.511092929  -0.377643876  -1.080154761
  H    0.203271328   1.246046624  -1.402011580
  H   -0.291714192  -1.296486214   0.407001823
  H   -1.746228230  -2.169172582  -0.061141776
  H   -1.767897155  -1.151002877   1.434102942
  C   -1.382878078  -1.261428761   0.422080148
  N   -1.781944899  -0.132962875  -0.435041176
  O   -2.391172432   0.731649442   0.135558617

7.004_noHB__1Hpyrrole--nitrosomethane_090.wfx

