%nprocs=4
%mem=2GB
#p hf aug-cc-pvdz output=wfx scf=(conver=6) int=(grid=ultrafine)

title

0 1
H        2.1067390150        -2.2706830490        -0.0499434640
C        2.2133004660        -1.2014612600        -0.0306599880
N        1.1366427440        -0.3769089970        -0.2189114340
C        3.3194858380        -0.4086496430         0.1627318110
H        0.1920588520        -0.6817058640        -0.3755935050
C        1.5344592520         0.9311165870        -0.1470981280
C        2.8886597290         0.9438926300         0.0888172500
H        4.3217898110        -0.7582210750         0.3364471850
H        0.8273266820         1.7312191250        -0.2647250370
H        3.5002486130         1.8222236540         0.1963050220

7.001_noHB__1Hpyrrole--furan_1.wfx

