%nprocs=4
%mem=2GB
#p hf aug-cc-pvdz output=wfx scf=(conver=6) int=(grid=ultrafine)

title

0 1
H       -0.4317295930         1.3315447940        -0.5266578750
C        0.5581721340         1.2214245880        -0.0808455350
N        0.6730346630        -0.1927874200         0.3158510920
H        1.3629033400         1.5176254720        -0.7512764290
H        0.5606038350         1.8047977930         0.8416726750
O        1.6183336560        -0.7670292180        -0.1489399870

7.010_noHB__ammonia--nitrosomethane_2.wfx

