%nprocs=4
%mem=2GB
#p hf aug-cc-pvdz output=wfx scf=(conver=6) int=(grid=ultrafine)

title

0 1
  N   -2.535701752  -0.201957374  -0.066761933
  H   -2.899054292  -0.872559294  -0.732356396
  H   -3.272024441  -0.021772274   0.604022398
  H   -1.775956035  -0.653369578   0.430693626
  H    0.809134453   1.456658890  -0.508687740
  H    1.801467881   1.929911889   0.859642810
  H    2.603767386   1.642739568  -0.733306294
  C    1.799036180   1.346538684  -0.062875400
  N    1.913898709  -0.067673324   0.333821227
  O    2.859197702  -0.641915122  -0.130969852

7.010_noHB__ammonia--nitrosomethane_150.wfx

