%nprocs=4
%mem=2GB
#p hf aug-cc-pvdz output=wfx scf=(conver=6) int=(grid=ultrafine)

title

0 1
H        2.0268345960        -2.6629151530        -0.5237515140
C        1.5547734000        -1.6887418120        -0.6612268520
H        1.7142823890        -1.2975469150        -1.6643793830
H        0.4939064120        -1.8010615220        -0.4353977200
N        2.1233449550        -0.7995741380         0.3667863750
O        2.6566337290         0.1865838920        -0.0720927200

7.016_noHB__aniline--nitrosomethane_2.wfx

