%nprocs=4
%mem=2GB
#p hf aug-cc-pvdz output=wfx scf=(conver=6) int=(grid=ultrafine)

title

0 1
  N   -2.535701752  -0.201957374  -0.066761933
  H   -2.899054292  -0.872559294  -0.732356396
  H   -3.272024441  -0.021772274   0.604022398
  H   -1.775956035  -0.653369578   0.430693626
  H   -0.307643188   1.344056204  -0.524860862
  H    0.684690240   1.817309203   0.843469688
  H    1.486989745   1.530136882  -0.749479416
  C    0.682258539   1.233935998  -0.079048522
  N    0.797121068  -0.180276010   0.317648105
  O    1.742420061  -0.754517808  -0.147142974

7.010_noHB__ammonia--nitrosomethane_105.wfx

