%nprocs=4
%mem=2GB
#p hf aug-cc-pvdz output=wfx scf=(conver=6) int=(grid=ultrafine)

title

0 1
H        1.3714714250        -1.1831804820         1.4921872090
C        2.1319406960        -0.4060749730         1.4890205170
H        1.6492678820         0.5590827640         1.6213468620
H        2.8407571600        -0.5830271610         2.2947296660
N        2.8102322270        -0.4120057850         0.2430395370
C        3.3238860350        -0.3846821670        -0.7989368570

7.014_noHB__aniline--methylisocyanide_2.wfx

