%nprocs=4
%mem=2GB
#p hf aug-cc-pvdz output=wfx scf=(conver=6) int=(grid=ultrafine)

title

0 1
  N   -2.535701752  -0.201957374  -0.066761933
  H   -2.899054292  -0.872559294  -0.732356396
  H   -3.272024441  -0.021772274   0.604022398
  H   -1.775956035  -0.653369578   0.430693626
  H   -0.183556784   1.356567613  -0.523063848
  H    0.808776644   1.829820612   0.845266702
  H    1.611076149   1.542648291  -0.747682402
  C    0.806344943   1.246447407  -0.077251508
  N    0.921207472  -0.167764601   0.319445119
  O    1.866506465  -0.742006399  -0.145345960

7.010_noHB__ammonia--nitrosomethane_110.wfx

