%nprocs=4
%mem=2GB
#p hf aug-cc-pvdz output=wfx scf=(conver=6) int=(grid=ultrafine)

title

0 1
C        2.0040144690        -0.4278356810         0.9238660720
C        2.0318820480        -0.8969435490        -0.3844702630
H        2.5764671180        -0.9303577560         1.6908479520
C        1.2409695520         0.6904829700         1.2452104560
C        1.2966813170        -0.2476720940        -1.3706772420
H        2.6260282640        -1.7644316940        -0.6352963880
H        1.2185290010         1.0549654180         2.2625707440
C        0.5050759870         1.3375300270         0.2595630480
H        1.3187113470        -0.6116691390        -2.3883435100
C        0.5330596560         0.8680015020        -1.0486035520
H       -0.1020406540         2.1950299140         0.5098153350
H       -0.0499063080         1.3654473770        -1.8100018380

7.022_noHB__benzene--acetonitrile_1.wfx

