%nprocs=4
%mem=2GB
#p hf aug-cc-pvdz output=wfx scf=(conver=6) int=(grid=ultrafine)

title

0 1
H       -1.5388483430         1.9306278950        -0.3546731650
C       -2.4454100000         1.3694355970        -0.1293343830
H       -3.1882806390         1.6426547920        -0.8814458800
C       -2.1762971320        -0.1168616580        -0.2035591030
H       -2.8162317130         1.6354969660         0.8559667530
C       -1.4961551070        -0.6070833670        -1.4586478620
O       -2.4907603260        -0.8655639200         0.6923373910
H       -2.0333910020        -0.2629676230        -2.3437378980
H       -0.4896289310        -0.1898739110        -1.5090471450
H       -1.4367529830        -1.6908824360        -1.4554988360

7.021_noHB__benzene--acetone_2.wfx

