%nprocs=4
%mem=2GB
#p hf aug-cc-pvdz output=wfx scf=(conver=6) int=(grid=ultrafine)

title

0 1
  C    0.417359343  -0.000000000  -0.610410277
  H   -0.590634950  -0.000000000  -1.002511855
  C    1.065306032  -1.202179129  -0.348273342
  H    0.563729505  -2.138471542  -0.550394773
  C    2.354439939  -1.203550279   0.172239958
  H    2.855731466  -2.139856269   0.374519481
  C    2.999534664  -0.000000000   0.432939285
  H    4.001830681  -0.000000000   0.837989824
  C    2.354439939   1.203550279   0.172239958
  H    2.855731466   2.139856269   0.374519481
  C    1.065306032   1.202179129  -0.348273342
  H    0.563729505   2.138471542  -0.550394773
  H   -4.419497897   1.272463147   1.004397150
  H   -6.157701879   1.261835056   1.327071134
  H   -5.516357911   2.085479228  -0.109362868
  H   -6.317969514  -0.000000000  -0.822859547
  H   -5.516357911  -2.085479228  -0.109362868
  H   -4.419497897  -1.272463147   1.004397150
  H   -6.157701879  -1.261835056   1.327071134
  C   -5.400179315   1.212508706   0.531184755
  N   -5.472677857  -0.000000000  -0.269508988
  C   -5.400179315  -1.212508706   0.531184755

7.025_noHB__benzene--dimethylamine_200.wfx

