%nprocs=4
%mem=2GB
#p hf aug-cc-pvdz output=wfx scf=(conver=6) int=(grid=ultrafine)

title

0 1
C        0.7955486460         0.4924034950         1.2457787950
C        1.0017137860        -0.8710089870         1.0726908980
C        1.3919896300         1.4017881410         0.3802208570
H        0.1610900740         0.8418652510         2.0475535820
C        1.8089569740        -1.3243883680         0.0366442800
H        0.5186709960        -1.5757564750         1.7332758840
C        2.1951273990         0.9480155250        -0.6605189040
H        1.2320024810         2.4624304890         0.5158409930
C        2.4049482690        -0.4157427430        -0.8308455210
H        1.9670845430        -2.3848492170        -0.0996954550
H        2.6581403500         1.6549408520        -1.3345576380
H        3.0298797720        -0.7694105420        -1.6388030350

7.021_noHB__benzene--acetone_1.wfx

