%nprocs=4
%mem=2GB
#p hf aug-cc-pvdz output=wfx scf=(conver=6) int=(grid=ultrafine)

title

0 1
N       -4.1179308030         0.0000000070        -0.0011194750
H       -4.4924368490        -0.8146409940        -0.4709427160
H       -4.4884496030        -0.0000000620         0.9408699760
H       -4.4924372500         0.8146408180        -0.4709427420

7.023_noHB__benzene--ammonia_2.wfx

