%nprocs=4
%mem=2GB
#p hf aug-cc-pvdz output=wfx scf=(conver=6) int=(grid=ultrafine)

title

0 1
C        1.8916044940        -0.1181372850         1.3907960240
H        1.8888009480        -0.1160621250         2.4715402770
C        1.1472753310        -1.0658855340         0.6961486440
C        2.6329135800         0.8301413720         0.6950957300
C        1.1472753310        -1.0658855340        -0.6961486440
H        0.5555846650        -1.7946150090         1.2304480470
C        2.6329135800         0.8301413720        -0.6950957300
H        3.2068856780         1.5696683910         1.2352148130
C        1.8916044940        -0.1181372850        -1.3907960240
H        0.5555846650        -1.7946150090        -1.2304480470
H        3.2068856780         1.5696683910        -1.2352148130
H        1.8888009480        -0.1160621250        -2.4715402770

7.020_noHB__benzene--aceticacid_1.wfx

