%nprocs=4
%mem=2GB
#p hf aug-cc-pvdz output=wfx scf=(conver=6) int=(grid=ultrafine)

title

0 1
C        0.4173593430         0.0000000000        -0.6104102770
H       -0.5906349500         0.0000000000        -1.0025118550
C        1.0653060320        -1.2021791290        -0.3482733420
C        1.0653060320         1.2021791290        -0.3482733420
H        0.5637295050        -2.1384715420        -0.5503947730
C        2.3544399390        -1.2035502790         0.1722399580
H        0.5637295050         2.1384715420        -0.5503947730
C        2.3544399390         1.2035502790         0.1722399580
H        2.8557314660        -2.1398562690         0.3745194810
C        2.9995346640         0.0000000000         0.4329392850
H        2.8557314660         2.1398562690         0.3745194810
H        4.0018306810         0.0000000000         0.8379898240

7.025_noHB__benzene--dimethylamine_1.wfx

