%nprocs=4
%mem=2GB
#p hf aug-cc-pvdz output=wfx scf=(conver=6) int=(grid=ultrafine)

title

0 1
C        1.0340539070        -0.8526085830         1.0702629720
C        1.5099956280        -1.5582774000        -0.0283274890
H        0.2927297700        -1.2917167050         1.7221218280
C        1.4989826480         0.4319762400         1.3257363790
C        2.4551220370        -0.9823839930        -0.8698182670
H        1.1448281030        -2.5555904610        -0.2302126720
H        1.1114370520         0.9853100240         2.1684937260
C        2.4468684670         1.0066984110         0.4875735510
H        2.8251903260        -1.5315838710        -1.7241391300
C        2.9257400200         0.2997554270        -0.6098460090
H        2.8085976920         2.0056363750         0.6867246590
H        3.6627285410         0.7473145060        -1.2618886820

7.026_noHB__benzene--dimethylcarbonate_1.wfx

