%nprocs=4
%mem=2GB
#p hf aug-cc-pvdz output=wfx scf=(conver=6) int=(grid=ultrafine)

title

0 1
  C    1.891604494  -0.118137285   1.390796024
  H    1.888800948  -0.116062125   2.471540277
  C    1.147275331  -1.065885534   0.696148644
  H    0.555584665  -1.794615009   1.230448047
  C    1.147275331  -1.065885534  -0.696148644
  H    0.555584665  -1.794615009  -1.230448047
  C    1.891604494  -0.118137285  -1.390796024
  H    1.888800948  -0.116062125  -2.471540277
  C    2.632913580   0.830141372  -0.695095730
  H    3.206885678   1.569668391  -1.235214813
  C    2.632913580   0.830141372   0.695095730
  H    3.206885678   1.569668391   1.235214813
  H   -0.723579060   0.433089156   0.000000000
  H   -3.989288313   1.389643697  -0.877095109
  H   -3.989288313   1.389643697   0.877095109
  H   -4.704184916   0.013685667   0.000000000
  O   -2.411057487  -1.139528223   0.000000000
  C   -2.574967301   0.053885373   0.000000000
  O   -1.555721038   0.935805765   0.000000000
  C   -3.907544942   0.749074977   0.000000000

7.020_noHB__benzene--aceticacid_105.wfx

