%nprocs=4
%mem=2GB
#p hf aug-cc-pvdz output=wfx scf=(conver=6) int=(grid=ultrafine)

title

0 1
H       -2.3046970620        -2.0263121410         1.0750016620
C       -1.7767457540        -1.4026303630         0.3567047720
H       -1.6281195860        -1.9620685340        -0.5638223920
N       -2.5346213940        -0.2346993390         0.0889497610
H       -0.8068062550        -1.1219815240         0.7592450070
C       -3.1271738340         0.7404198240        -0.1338859140

7.036_noHB__benzene--methylisocyanide_2.wfx

