%nprocs=4
%mem=2GB
#p hf aug-cc-pvdz output=wfx scf=(conver=6) int=(grid=ultrafine)

title

0 1
C       -0.0579462700        -0.3942879880        -0.3602327380
C       -1.0129773700        -1.3525558790        -0.0384362860
C       -0.4130781310         0.9502982730        -0.3797030930
H        0.9577548930        -0.6883757090        -0.5880000880
H       -0.7411794910        -2.3990056220        -0.0229612960
C       -2.3153824520        -0.9698841200         0.2620834150
C       -1.7147268950         1.3356219410        -0.0799475470
H        0.3269085620         1.6977476070        -0.6297695870
H       -3.0554440700        -1.7176020730         0.5114000890
C       -2.6667888150         0.3749543620         0.2415917390
H       -1.9873698650         2.3817300890        -0.0968411420
H       -3.6793070690         0.6733623700         0.4750125940

7.033_noHB__benzene--methylamine_1.wfx

