%nprocs=4
%mem=2GB
#p hf aug-cc-pvdz output=wfx scf=(conver=6) int=(grid=ultrafine)

title

0 1
C        2.0474314040        -0.8912195320        -0.5143821040
H        2.5915269140        -1.7418244510        -0.9001963160
C        1.9915624700        -0.6651237360         0.8566301700
C        1.4024472580        -0.0232517610        -1.3885854230
H        2.4920372680        -1.3400054610         1.5366659210
C        1.2920642960         0.4298211910         1.3521586610
H        1.4412964730        -0.2010336310        -2.4538935500
C        0.7023269490         1.0702696240        -0.8924054850
C        0.6480046940         1.2970421350         0.4777729880
H        1.2462509430         0.6045655200         2.4178010920
H        0.1906065080         1.7374481900        -1.5706595210
H        0.0944709800         2.1412875560         0.8629385150

7.038_noHB__benzene--nitrosomethane_1.wfx

