%nprocs=4
%mem=2GB
#p hf aug-cc-pvdz output=wfx scf=(conver=6) int=(grid=ultrafine)

title

0 1
  C    1.775085395   1.389089170  -0.228484677
  H    1.773889109   2.470241741  -0.227955780
  C    2.464222595   0.695184308   0.758093333
  H    2.999593212   1.235534203   1.526142737
  C    2.464222595  -0.695184308   0.758093333
  H    2.999593212  -1.235534203   1.526142737
  C    1.775085395  -1.389089170  -0.228484677
  H    1.773889109  -2.470241741  -0.227955780
  C    1.081500824  -0.694454396  -1.212618610
  H    0.534589594  -1.233620559  -1.972312575
  C    1.081500824   0.694454396  -1.212618610
  H    0.534589594   1.233620559  -1.972312575
  H   -2.656367646   1.369197411  -1.253064737
  H   -2.656367646  -1.369197411  -1.253064737
  H   -1.017835908   2.044821232   0.831325449
  H   -1.017835908  -2.044821232   0.831325449
  C   -2.131863641  -0.716199948  -0.578919672
  C   -2.131863641   0.716199948  -0.578919672
  C   -1.330027574   1.092927093   0.446264246
  O   -0.835772088   0.000000000   1.085532898
  C   -1.330027574  -1.092927093   0.446264246

7.030_noHB__benzene--furan_085.wfx

