%nprocs=4
%mem=2GB
#p hf aug-cc-pvdz output=wfx scf=(conver=6) int=(grid=ultrafine)

title

0 1
O       -2.3007140380         0.7597426730         0.0000000000
C       -2.6418816020        -0.6160380920         0.0000000000
H       -1.3427151590         0.8383765780         0.0000000000
H       -3.7281509230        -0.6767783760         0.0000000000
H       -2.2635240360        -1.1315810460        -0.8872068370
H       -2.2635240360        -1.1315810460         0.8872068370

7.031_noHB__benzene--methanol_2.wfx

