%nprocs=4
%mem=2GB
#p hf aug-cc-pvdz output=wfx scf=(conver=6) int=(grid=ultrafine)

title

0 1
C       -0.9974673090        -0.3104523270         1.2957830810
C       -1.0651998520        -1.3611387720         0.3892858310
H       -0.3209154820        -0.3603957510         2.1362371270
C       -1.7848246060         0.8197259320         1.1089781630
C       -1.9196966440        -1.2829297440        -0.7046870970
H       -0.4473174490        -2.2367363330         0.5285522090
C       -2.6423989430         0.8972052090         0.0182304200
H       -1.7220145990         1.6406844540         1.8086827220
H       -1.9678316260        -2.0985865490        -1.4122036770
C       -2.7096775410        -0.1541782270        -0.8896269030
H       -3.2540625560         1.7764860650        -0.1271575840
H       -3.3745330340        -0.0930114750        -1.7397280520

7.032_noHB__benzene--methylacetate_1.wfx

