%nprocs=4
%mem=2GB
#p hf aug-cc-pvdz output=wfx scf=(conver=6) int=(grid=ultrafine)

title

0 1
  C    2.047431404  -0.891219532  -0.514382104
  H    2.591526914  -1.741824451  -0.900196316
  C    1.991562470  -0.665123736   0.856630170
  H    2.492037268  -1.340005461   1.536665921
  C    1.292064296   0.429821191   1.352158661
  H    1.246250943   0.604565520   2.417801092
  C    0.648004694   1.297042135   0.477772988
  H    0.094470980   2.141287556   0.862938515
  C    0.702326949   1.070269624  -0.892405485
  H    0.190606508   1.737448190  -1.570659521
  C    1.402447258  -0.023251761  -1.388585423
  H    1.441296473  -0.201033631  -2.453893550
  H   -3.508545555  -1.810911703   0.065408373
  H   -5.015880082  -2.710849318  -0.058768362
  H   -4.719616687  -1.677391324   1.394678849
  C   -4.567441930  -1.792548896   0.323095391
  N   -5.170159766  -0.681466527  -0.436416675
  O   -5.698385424   0.152531950   0.246092852

7.038_noHB__benzene--nitrosomethane_200.wfx

