%nprocs=4
%mem=2GB
#p hf aug-cc-pvdz output=wfx scf=(conver=6) int=(grid=ultrafine)

title

0 1
  C    0.940780821  -1.235982804   0.695185784
  H    0.889524985  -2.170679943   1.235249829
  C    1.000587489  -0.034444661   1.390694540
  H    0.994289335  -0.033574284   2.471266132
  C    1.063658225   1.169034547   0.695609618
  H    1.107469241   2.103787908   1.235984764
  C    1.063658225   1.169034547  -0.695609618
  H    1.107469241   2.103787908  -1.235984764
  C    1.000587489  -0.034444661  -1.390694540
  H    0.994289335  -0.033574284  -2.471266132
  C    0.940780821  -1.235982804  -0.695185784
  H    0.889524985  -2.170679943  -1.235249829
  O   -1.795675983   0.742708156  -0.000000000
  H   -0.837677104   0.821342061  -0.000000000
  C   -2.136843547  -0.633072609  -0.000000000
  H   -3.223112868  -0.693812893  -0.000000000
  H   -1.758485981  -1.148615563   0.887206837
  H   -1.758485981  -1.148615563  -0.887206837

7.031_noHB__benzene--methanol_080.wfx

