%nprocs=4
%mem=2GB
#p hf aug-cc-pvdz output=wfx scf=(conver=6) int=(grid=ultrafine)

title

0 1
C        0.7044118160         0.8190351600         1.0412822120
H        0.0360627160         1.2690414940         1.7612453110
C        1.4079296800        -0.3337450570         1.3692069930
C        0.8495380920         1.3878376260        -0.2186032470
C        2.2583035830        -0.9179358990         0.4373728970
H        1.2890821930        -0.7787079920         2.3468165940
H        0.2934092200         2.2781542530        -0.4739940970
C        1.7005014570         0.8041865220        -1.1506268190
C        2.4051975580        -0.3486970150        -0.8227791040
H        2.8045796330        -1.8152185490         0.6920095660
H        1.8135338050         1.2466151250        -2.1303469520
H        3.0669851020        -0.8023372460        -1.5471194140

7.034_noHB__benzene--methylazide_1.wfx

