%nprocs=4
%mem=2GB
#p hf aug-cc-pvdz output=wfx scf=(conver=6) int=(grid=ultrafine)

title

0 1
  H   -0.852726913   2.138323577  -1.185626004
  H   -3.119751519  -0.000000000   1.750585778
  H   -2.364888254   2.140586367   0.771127526
  H   -0.852726913  -2.138323577  -1.185626004
  H   -2.364888254  -2.140586367   0.771127526
  C   -2.461391939  -0.000000000   0.893228815
  C   -2.037779802   1.204312873   0.341318333
  C   -1.191906718   1.203940352  -0.762466336
  C   -0.770738320   0.000000000  -1.315333955
  C   -1.191906718  -1.203940352  -0.762466336
  C   -2.037779802  -1.204312873   0.341318333
  H   -0.101272588   0.000000000  -2.163135800
  H    3.144216726   0.903016601   2.231317446
  H    1.789289538  -0.000000000   1.504641702
  H    3.144216726  -0.903016601   2.231317446
  C    2.856480483  -0.000000000   1.707728916
  N    3.536206832  -0.000000000   0.377660723
  O    3.775213669  -1.082132343  -0.127685013
  O    3.775213669   1.082132343  -0.127685013

7.037_noHB__benzene--nitromethane_150.wfx

