%nprocs=4
%mem=2GB
#p hf aug-cc-pvdz output=wfx scf=(conver=6) int=(grid=ultrafine)

title

0 1
H        1.7246807150         0.9030166010         2.0463248830
C        1.4369444720         0.0000000000         1.5227363530
H        1.7246807150        -0.9030166010         2.0463248830
N        2.1166708210         0.0000000000         0.1926681600
H        0.3697535270         0.0000000000         1.3196491390
O        2.3556776580        -1.0821323430        -0.3126775760
O        2.3556776580         1.0821323430        -0.3126775760

7.037_noHB__benzene--nitromethane_2.wfx

