%nprocs=4
%mem=2GB
#p hf aug-cc-pvdz output=wfx scf=(conver=6) int=(grid=ultrafine)

title

0 1
  C    0.940780821  -1.235982804   0.695185784
  H    0.889524985  -2.170679943   1.235249829
  C    1.000587489  -0.034444661   1.390694540
  H    0.994289335  -0.033574284   2.471266132
  C    1.063658225   1.169034547   0.695609618
  H    1.107469241   2.103787908   1.235984764
  C    1.063658225   1.169034547  -0.695609618
  H    1.107469241   2.103787908  -1.235984764
  C    1.000587489  -0.034444661  -1.390694540
  H    0.994289335  -0.033574284  -2.471266132
  C    0.940780821  -1.235982804  -0.695185784
  H    0.889524985  -2.170679943  -1.235249829
  O   -2.048195010   0.751225414  -0.000000000
  H   -1.090196131   0.829859319  -0.000000000
  C   -2.389362574  -0.624555351  -0.000000000
  H   -3.475631895  -0.685295635  -0.000000000
  H   -2.011005008  -1.140098305   0.887206837
  H   -2.011005008  -1.140098305  -0.887206837

7.031_noHB__benzene--methanol_090.wfx

