%nprocs=4
%mem=2GB
#p hf aug-cc-pvdz output=wfx scf=(conver=6) int=(grid=ultrafine)

title

0 1
H        1.8781846930        -0.5560230590         1.2158600130
C        2.6453024840        -0.0307841640         0.6629133240
C        2.6453024840        -0.0307841640        -0.6629133240
H        3.4098605050         0.4796462210         1.2337576760
H        1.8781846930        -0.5560230590        -1.2158600130
H        3.4098605050         0.4796462210        -1.2337576760

7.049_noHB__ethene--acetamide_1.wfx

