%nprocs=4
%mem=2GB
#p hf aug-cc-pvdz output=wfx scf=(conver=6) int=(grid=ultrafine)

title

0 1
H       -1.9814710100        -1.6110524750        -1.0774379460
C       -1.3910145560        -1.2391834150        -0.2368237500
H       -0.3341987900        -1.2452439550        -0.4866022570
H       -1.5841926920        -1.9146708070         0.5997604610
C       -1.8578006340         0.1391998440         0.1221047300
H       -2.9288575360         0.2167642470         0.4003737830
O       -1.1637516880         1.1225792040         0.1240042000

7.048_noHB__ethene--acetaldehyde_2.wfx

