%nprocs=4
%mem=2GB
#p hf aug-cc-pvdz output=wfx scf=(conver=6) int=(grid=ultrafine)

title

0 1
C       -0.8153656820         0.0000000000         0.5582441040
C       -1.4792072230        -1.2022826470         0.3405541970
C       -1.4792072230         1.2022826470         0.3405541970
H        0.2173970370         0.0000000000         0.8790703420
C       -2.8006238040        -1.2035929640        -0.0914467710
H       -0.9648414420        -2.1385132060         0.5076926450
C       -2.8006238040         1.2035929640        -0.0914467710
H       -0.9648414420         2.1385132060         0.5076926450
H       -3.3144464920        -2.1398366720        -0.2595335630
C       -3.4618412530         0.0000000000        -0.3077910080
H       -3.3144464920         2.1398366720        -0.2595335630
H       -4.4892164950         0.0000000000        -0.6441296590

7.043_noHB__benzene--trimethylamine_1.wfx

