%nprocs=4
%mem=2GB
#p hf aug-cc-pvdz output=wfx scf=(conver=6) int=(grid=ultrafine)

title

0 1
C       -1.9762567590         1.0081097410        -0.8987592760
C       -1.6614279000        -0.2208196050        -1.4663740510
H       -2.0226572060         1.8927732900        -1.5175170980
C       -2.2240516610         1.1011131570         0.4657570180
C       -1.5980642130        -1.3584744680        -0.6706931180
H       -1.4611440940        -0.2910428110        -2.5258339310
C       -2.1574974320        -0.0362853590         1.2637589960
H       -2.4671642350         2.0570730060         0.9073822890
H       -1.3504000760        -2.3133230190        -1.1117053670
C       -1.8463598440        -1.2670994930         0.6943771620
H       -2.3507167510         0.0351566720         2.3247358680
H       -1.7979253310        -2.1517333570         1.3135011450

7.040_noHB__benzene--Nmethylacetamide_1.wfx

