%nprocs=4
%mem=2GB
#p hf aug-cc-pvdz output=wfx scf=(conver=6) int=(grid=ultrafine)

title

0 1
H        2.5338048130         2.1529254780         0.7387439010
C        2.2285438520         1.2242015140         0.2787925930
C        2.5774592590         0.0103255050         0.8561871670
C        1.4790176120         1.2110645140        -0.8889092360
N        2.2318326240        -1.1720863580         0.3470100160
H        3.1600982740        -0.0139050030         1.7693288210
C        1.1141746630        -0.0117355970        -1.4288805300
H        1.1769677610         2.1344950400        -1.3618805760
C        1.5132087480        -1.1700224200        -0.7747693430
H        0.5161662630        -0.0725994100        -2.3255636820
H        1.2351611070        -2.1405499140        -1.1666539150

7.042_noHB__benzene--pyridine_2.wfx

