%nprocs=4
%mem=2GB
#p hf aug-cc-pvdz output=wfx scf=(conver=6) int=(grid=ultrafine)

title

0 1
O        2.7325854980         0.0000000000        -0.2087079760
H        2.3894422560         0.0000000000        -1.1052702280
H        1.9427411390         0.0000000000         0.3411635480

7.044_noHB__benzene--water_2.wfx

