%nprocs=4
%mem=2GB
#p hf aug-cc-pvdz output=wfx scf=(conver=6) int=(grid=ultrafine)

title

0 1
  H    1.878184693  -0.556023059   1.215860013
  H    3.409860505   0.479646221   1.233757676
  H    3.409860505   0.479646221  -1.233757676
  H    1.878184693  -0.556023059  -1.215860013
  C    2.645302484  -0.030784164   0.662913324
  C    2.645302484  -0.030784164  -0.662913324
  H   -0.566549949   2.011282227   0.000000000
  H    0.950092102   1.169246607   0.000000000
  H   -2.559186448  -0.551511570  -0.877635186
  H   -2.610472234   0.989395774   0.000000000
  H   -2.559186448  -0.551511570   0.877635186
  O   -0.070605834  -1.109070267   0.000000000
  C   -0.684571417  -0.057468612   0.000000000
  N   -0.057393256   1.148735183   0.000000000
  C   -2.199196182  -0.018078473   0.000000000

7.049_noHB__ethene--acetamide_080.wfx

