%nprocs=4
%mem=2GB
#p hf aug-cc-pvdz output=wfx scf=(conver=6) int=(grid=ultrafine)

title

0 1
H       -1.8975946210         0.8460816970        -1.1767068370
C       -2.6128039070         0.6796611320        -0.3718540200
H       -3.5461987880         0.3073825090        -0.8186465320
N       -2.0283024140        -0.2335055820         0.6011783250
H       -2.8192006610         1.6392760780         0.1006432000
C       -1.7959570780        -1.5623863790         0.0535092970
H       -2.6270862730        -0.2995102910         1.4129206060
H       -2.7035050520        -2.0393576200        -0.3449556210
H       -1.0760144940        -1.4884712220        -0.7606523260
H       -1.3766418590        -2.2103547770         0.8223265500

7.046_noHB__dimethylamine--methylacetate_1.wfx

