%nprocs=4
%mem=2GB
#p hf aug-cc-pvdz output=wfx scf=(conver=6) int=(grid=ultrafine)

title

0 1
H        2.1475576480         1.2118881790        -1.5723751660
C        1.6333262360         1.4326968330        -0.6349863260
H        2.0278371240         2.3577052290        -0.2288706930
H        0.5616380170         1.5249122440        -0.8115419320
N        1.8972532010         0.3855132880         0.3671282540
N        1.4140245220        -0.7124900740         0.1383825340
N        1.0216832980        -1.7682917130         0.0369797770

7.047_noHB__dimethylamine--methylazide_2.wfx

