%nprocs=4
%mem=2GB
#p hf aug-cc-pvdz output=wfx scf=(conver=6) int=(grid=ultrafine)

title

0 1
H        3.1582476970        -1.2857711650        -1.5263814560
C        2.4067512340        -1.1993217850        -0.7239247380
H        2.4872522790        -2.0812032100        -0.0893072900
H        1.4190082500        -1.1966852020        -1.1823077350
N        2.5800481590         0.0000000000         0.0755885810
C        2.4067512340         1.1993217850        -0.7239247380
C        3.8512464310         0.0000000000         0.7752933210
H        3.1582476970         1.2857711650        -1.5263814560
H        2.4872522790         2.0812032100        -0.0893072900
H        1.4190082500         1.1966852020        -1.1823077350
H        3.9244066390        -0.8827051000         1.4093969500
H        3.9244066390         0.8827051000         1.4093969500
H        4.7145206870         0.0000000000         0.0885761650

7.043_noHB__benzene--trimethylamine_2.wfx

