%nprocs=4
%mem=2GB
#p hf aug-cc-pvdz output=wfx scf=(conver=6) int=(grid=ultrafine)

title

0 1
H       -3.1939229310         1.4657770830        -0.2318361980
C       -2.1276771220         1.2546915860        -0.1332449660
H       -1.6952196770         1.2469483540        -1.1458751150
N       -1.9416855170         0.0074072520         0.5862167500
H       -1.6738621390         2.0731851790         0.4225904280
C       -2.4154325090        -1.1488208680        -0.1526479490
H       -0.9656954950        -0.1147438280         0.8159017360
H       -3.4995573460        -1.0932425300        -0.2652198890
H       -1.9792883070        -1.2360780890        -1.1599060110
H       -2.1843928730        -2.0592954040         0.3984585590

7.045_noHB__dimethylamine--furan_1.wfx

