%nprocs=4
%mem=2GB
#p hf aug-cc-pvdz output=wfx scf=(conver=6) int=(grid=ultrafine)

title

0 1
  H    1.878184693  -0.556023059   1.215860013
  H    3.409860505   0.479646221   1.233757676
  H    3.409860505   0.479646221  -1.233757676
  H    1.878184693  -0.556023059  -1.215860013
  C    2.645302484  -0.030784164   0.662913324
  C    2.645302484  -0.030784164  -0.662913324
  H   -0.950401024   2.015903948   0.000000000
  H    0.566241027   1.173868328   0.000000000
  H   -2.943037523  -0.546889849  -0.877635186
  H   -2.994323309   0.994017495   0.000000000
  H   -2.943037523  -0.546889849   0.877635186
  O   -0.454456909  -1.104448546   0.000000000
  C   -1.068422492  -0.052846891   0.000000000
  N   -0.441244331   1.153356904   0.000000000
  C   -2.583047257  -0.013456752   0.000000000

7.049_noHB__ethene--acetamide_095.wfx

