%nprocs=4
%mem=2GB
#p hf aug-cc-pvdz output=wfx scf=(conver=6) int=(grid=ultrafine)

title

0 1
  H    1.294018207   0.960871885  -0.637186517
  H    2.916429020   0.424116962  -1.340935199
  H    3.302207939  -0.976804619   0.648103092
  H    1.685569311  -0.428395564   1.338983622
  C    2.194953448   0.371451589  -0.536112520
  C    2.405240965  -0.382965144   0.532216837
  H   -4.559483997  -1.604713298  -1.075929495
  H   -4.162205679  -1.908331630   0.601268912
  H   -2.912211777  -1.238904778  -0.485093806
  H   -5.506870523   0.223103424   0.401882234
  C   -3.969027543  -1.232844238  -0.235315299
  C   -4.435813621   0.145539021   0.123613181
  O   -3.741764675   1.128918381   0.125512651

7.048_noHB__ethene--acetaldehyde_200.wfx

