%nprocs=4
%mem=2GB
#p hf aug-cc-pvdz output=wfx scf=(conver=6) int=(grid=ultrafine)

title

0 1
  H    1.035275086   0.000000000   0.938798971
  H    2.795714630   0.000000000   1.494071783
  H    3.545688909   0.000000000  -0.845065539
  H    1.795970557   0.000000000  -1.408660989
  C    2.086029542   0.000000000   0.676729768
  C    2.495827608   0.000000000  -0.583198709
  H   -2.948223992  -1.287497063  -0.869978373
  H   -4.705013338  -1.258970303  -1.073359961
  H   -3.971303844  -2.084637890   0.317517196
  H   -4.699021270   0.000000000   1.089314720
  H   -3.971303844   2.084637890   0.317517196
  H   -2.948223992   1.287497063  -0.869978373
  H   -4.705013338   1.258970303  -1.073359961
  C   -3.893815340  -1.214141101  -0.331769584
  N   -3.901563798   0.000000000   0.469167660
  C   -3.893815340   1.214141101  -0.331769584

7.055_noHB__ethene--dimethylamine_200.wfx

