%nprocs=4
%mem=2GB
#p hf aug-cc-pvdz output=wfx scf=(conver=6) int=(grid=ultrafine)

title

0 1
  H    0.066469162  -0.578116438   0.000000000
  H    1.614167175  -1.587751515   0.000000000
  H    2.960999820   0.468654487   0.000000000
  H    1.420955906   1.475642171   0.000000000
  C    1.148673234  -0.610257933   0.000000000
  C    1.879183000   0.495125633   0.000000000
  N   -1.917338749   0.048720966   0.000000000
  H   -2.074260948   0.627932260   0.815136448
  H   -2.630889036  -0.669104741   0.000000000
  H   -2.074260948   0.627932260  -0.815136448

7.053_noHB__ethene--ammonia_080.wfx

