%nprocs=4
%mem=2GB
#p hf aug-cc-pvdz output=wfx scf=(conver=6) int=(grid=ultrafine)

title

0 1
H       -1.3699563770        -0.0407929880        -1.2280596700
C       -2.2919356700        -0.0216022270        -0.6617293970
H       -3.2125938960        -0.0403204960        -1.2295700580
C       -2.2919356700         0.0216022270         0.6617293970
H       -3.2125938960         0.0403204960         1.2295700580
H       -1.3699563770         0.0407929880         1.2280596700

7.057_noHB__ethene--dimethyldiazene_1.wfx

