%nprocs=4
%mem=2GB
#p hf aug-cc-pvdz output=wfx scf=(conver=6) int=(grid=ultrafine)

title

0 1
  H    1.358096013  -0.597745525  -1.224027174
  H    2.795201164   0.558221776  -1.231654198
  H    2.795201164   0.558221776   1.231654198
  H    1.358096013  -0.597745525   1.224027174
  C    2.075185666  -0.014555720  -0.662325678
  C    2.075185666  -0.014555720   0.662325678
  H   -2.235100186   1.675159305   0.885146583
  H   -0.698282992   1.656409890   0.000000000
  H   -2.235100186   1.675159305  -0.885146583
  C   -1.726032281   1.298045169   0.000000000
  C   -1.729229449  -0.154919153   0.000000000
  N   -1.716395320  -1.303266186   0.000000000

7.052_noHB__ethene--acetonitrile_110.wfx

