%nprocs=4
%mem=2GB
#p hf aug-cc-pvdz output=wfx scf=(conver=6) int=(grid=ultrafine)

title

0 1
  H    1.698527829   1.223267441  -0.626344380
  H    2.934049025   1.231773576   0.742904465
  H    2.934049025  -1.231773576   0.742904465
  H    1.698527829  -1.223267441  -0.626344380
  C    2.315317383   0.662201732   0.062127049
  C    2.315317383  -0.662201732   0.062127049
  H   -1.909624096   1.311048281   1.179245017
  H   -0.859899042   2.139918081   0.002152865
  H   -0.171901437   1.326929111   1.427591706
  H   -0.859899042  -2.139918081   0.002152865
  H   -1.909624096  -1.311048281   1.179245017
  C   -0.948915043   1.283068800   0.662965304
  C   -0.810440732  -0.000000000  -0.122858940
  O   -0.589407703  -0.000000000  -1.311462368
  C   -0.948915043  -1.283068800   0.662965304
  H   -0.171901437  -1.326929111   1.427591706

7.051_noHB__ethene--acetone_090.wfx

