%nprocs=4
%mem=2GB
#p hf aug-cc-pvdz output=wfx scf=(conver=6) int=(grid=ultrafine)

title

0 1
H        1.9515581090         2.3297215380         0.3240068540
C        1.1017063430         1.7938434880        -0.0981801020
H        1.1371829470         1.8080895940        -1.1877766870
H        0.1949796440         2.2821139040         0.2596139430
N        1.1140800550         0.4353755210         0.4345243150
N        1.1140800550        -0.4353755210        -0.4345243150
C        1.1017063430        -1.7938434880         0.0981801020
H        0.1949796440        -2.2821139040        -0.2596139430
H        1.9515581090        -2.3297215380        -0.3240068540
H        1.1371829470        -1.8080895940         1.1877766870

7.057_noHB__ethene--dimethyldiazene_2.wfx

