%nprocs=4
%mem=2GB
#p hf aug-cc-pvdz output=wfx scf=(conver=6) int=(grid=ultrafine)

title

0 1
H       -0.6856649060        -0.9279853820         0.0000000000
C       -1.7429600930        -0.6946795420         0.0000000000
H       -2.4298133360        -1.5314864220         0.0000000000
C       -2.1877803310         0.5534763740         0.0000000000
H       -3.2447714080         0.7852790660         0.0000000000
H       -1.5101511310         1.3969315780         0.0000000000

7.063_noHB__ethene--methylamine_1.wfx

