%nprocs=4
%mem=2GB
#p hf aug-cc-pvdz output=wfx scf=(conver=6) int=(grid=ultrafine)

title

0 1
H        0.9258241570        -2.6479797100        -0.7713903680
C        0.9294863140        -1.8867903360         0.0010880700
O        0.9422983190        -0.6301296410        -0.6943610750
H        0.0383625670        -1.9675603090         0.6193348410
H        1.8109007990        -1.9822124850         0.6303275820
C        0.9875075120         0.4706302510         0.0835431080
C        0.9228060570         1.7248109420        -0.7401785130
O        1.0409289730         0.4262213060         1.2855542100
H        1.4969132520         1.6230617290        -1.6575071360
H       -0.1180545230         1.9034356350        -1.0120729890
H        1.2807369650         2.5633186390        -0.1521623910

7.062_noHB__ethene--methylacetate_2.wfx

