%nprocs=4
%mem=2GB
#p hf aug-cc-pvdz output=wfx scf=(conver=6) int=(grid=ultrafine)

title

0 1
  H   -1.585714913  -0.353942990  -1.332060745
  H   -2.783795769   1.037394143  -1.172189595
  H   -2.990948082   0.569249664   1.237614193
  H   -1.784727644  -0.817352164   1.063216547
  C   -2.228680958   0.239743678  -0.696445596
  C   -2.338573167  -0.012623970   0.599661302
  H    0.804840989   1.554053222   0.627391819
  H    2.250848831   2.382923953  -0.023944687
  H    2.406854968   1.307125709   1.394004915
  C    1.876396134   1.490936080   0.463261004
  O    2.153127328   0.404920829  -0.471461001
  C    1.795934486  -0.764700759  -0.083963906
  N    1.488700911  -1.832825354   0.229408202

7.065_noHB__ethene--methylcyanate_125.wfx

