%nprocs=4
%mem=2GB
#p hf aug-cc-pvdz output=wfx scf=(conver=6) int=(grid=ultrafine)

title

0 1
H       -1.0138841070         0.3710729590        -1.2178790160
C       -1.8520060810        -0.0266099220        -0.6622325630
H       -2.6839971900        -0.4183084900        -1.2325745980
C       -1.8520060810        -0.0266099220         0.6622325630
H       -2.6839971900        -0.4183084900         1.2325745980
H       -1.0138841070         0.3710729590         1.2178790160

7.061_noHB__ethene--methanol_1.wfx

