%nprocs=4
%mem=2GB
#p hf aug-cc-pvdz output=wfx scf=(conver=6) int=(grid=ultrafine)

title

0 1
  H    2.757157500   1.146870685   1.052411585
  H    1.548141909   1.349701530  -0.320452111
  H    1.907429458  -0.989461339  -0.985314805
  H    3.120712256  -1.194962920   0.387416776
  C    2.234342754   0.706844371   0.213633986
  C    2.428732846  -0.554364791  -0.143479933
  H   -1.536704982  -0.576938374   1.838534080
  H    0.107697006  -1.060051321   1.333793448
  H   -1.299971950  -1.908652932   0.641274201
  C   -0.931835430  -0.967148209   1.029810973
  N   -0.940763053   0.029561040  -0.082985324
  O   -1.112364106   1.197762883   0.214177598
  O   -0.736366012  -0.390495112  -1.207822801

7.067_noHB__ethene--nitromethane_095.wfx

