%nprocs=4
%mem=2GB
#p hf aug-cc-pvdz output=wfx scf=(conver=6) int=(grid=ultrafine)

title

0 1
  H    1.340673174   1.099396203   0.000000000
  H    3.065870794   1.743163357   0.000000000
  H    3.925971160  -0.561768215   0.000000000
  H    2.196860173  -1.201544889   0.000000000
  C    2.401241323   0.889256579   0.000000000
  C    2.864708134  -0.351189573   0.000000000
  H   -2.021294139   1.469714452  -1.368908370
  H   -2.021294139   1.469714452   1.368908370
  H   -0.663480692  -0.806107311  -2.046990520
  H   -0.663480692  -0.806107311   2.046990520
  C   -1.586987251   0.733961625   0.716371208
  C   -1.586987251   0.733961625  -0.716371208
  C   -0.922512609  -0.384077774  -1.094583231
  O   -0.510446258  -1.080842367   0.000000000
  C   -0.922512609  -0.384077774   1.094583231

7.060_noHB__ethene--furan_100.wfx

