%nprocs=4
%mem=2GB
#p hf aug-cc-pvdz output=wfx scf=(conver=6) int=(grid=ultrafine)

title

0 1
  C    2.807306399   0.063457924   0.148689798
  H    2.120411074   0.309414503  -0.656811096
  H    2.310370728   0.209592917   1.105573044
  H    3.123106778  -0.973738121   0.058384956
  H    3.680657993   0.709359655   0.096114375
  H   -1.320155746   0.465012337   1.859157117
  H   -1.163969270   1.824470669   0.801103042
  H   -1.295831414  -1.996299777  -0.658182325
  H   -1.330853779  -1.731607328   1.099460651
  H    0.207062942  -1.756575838   0.224334510
  O   -0.687870937   0.475515044  -1.237602680
  C   -0.894850945   0.025723465  -0.127799955
  N   -1.166310992   0.829152881   0.938619409
  C   -0.839359306  -1.458007004   0.167654384

7.079_noHB__methane--acetamide_105.wfx

