%nprocs=4
%mem=2GB
#p hf aug-cc-pvdz output=wfx scf=(conver=6) int=(grid=ultrafine)

title

0 1
  C   -1.856770909   0.599672070   0.000000000
  H   -1.128506429   1.373951790   0.000000000
  C   -2.663395914  -0.283498622   0.000000000
  H   -3.390961655  -1.056242052   0.000000000
  H    1.923606523  -1.770274173  -0.886967497
  H    0.414559800  -1.463932621   0.000000000
  H    1.923606523  -1.770274173   0.886967497
  C    1.947434222   1.228363229   0.000000000
  N    1.763734477   0.080269626   0.000000000
  C    1.492036301  -1.311623886   0.000000000

7.077_noHB__ethyne--methylisocyanide_110.wfx

