%nprocs=4
%mem=2GB
#p hf aug-cc-pvdz output=wfx scf=(conver=6) int=(grid=ultrafine)

title

0 1
H        1.6003399120         0.8841795080         2.1466070490
C        1.3396057240         0.4489715850         1.1929966030
C        0.6167504640        -0.7364405430         1.1395440750
C        1.7092625780         1.0535399130         0.0000000000
H        0.3073535090        -1.2303681140         2.0522969410
N        0.2582341250        -1.3268397120         0.0000000000
C        1.3396057240         0.4489715850        -1.1929966030
H        2.2703980090         1.9773491280         0.0000000000
C        0.6167504640        -0.7364405430        -1.1395440750
H        1.6003399120         0.8841795080        -2.1466070490
H        0.3073535090        -1.2303681140        -2.0522969410

7.072_noHB__ethene--pyridine_2.wfx

