%nprocs=4
%mem=2GB
#p hf aug-cc-pvdz output=wfx scf=(conver=6) int=(grid=ultrafine)

title

0 1
C       -0.5447445950         1.8426354200        -0.7261866470
H       -1.0061472760         1.8214261890        -1.7119832790
C       -0.8210719620         0.6036826290         0.0955041470
H       -0.8989822000         2.7128432900        -0.1792674580
H        0.5339889360         1.9372973290        -0.8447757780
N       -1.3646205590        -0.4469238250        -0.5721906700
O       -0.5512818930         0.5375429560         1.2833392570
H       -1.5549546590        -0.3584582100        -1.5525024000
C       -1.6166366730        -1.7135173950         0.0886990270
H       -2.1200571660        -2.3796094560        -0.6065895220
H       -0.6867566060        -2.1769361580         0.4192007600
H       -2.2453869920        -1.5674047860         0.9649441780

7.070_noHB__ethene--Nmethylacetamide_2.wfx

