%nprocs=4
%mem=2GB
#p hf aug-cc-pvdz output=wfx scf=(conver=6) int=(grid=ultrafine)

title

0 1
  H    3.248284671  -1.180119597  -1.232706471
  H    4.063172067   0.469218733  -1.231786806
  H    4.063172067   0.469218733   1.231786806
  H    3.248284671  -1.180119597   1.232706471
  C    3.653323237  -0.354446731  -0.663106483
  C    3.653323237  -0.354446731   0.663106483
  H   -2.127529075   2.389121653   0.000000000
  H   -4.218114035  -1.362353744   0.000000000
  H   -4.252125634   1.115110925   0.000000000
  H    0.067168622  -1.276182762   0.000000000
  H    1.009442257   0.823475605   0.000000000
  H   -2.043930766  -2.548772783   0.000000000
  C   -3.293158748  -0.804832104   0.000000000
  C   -3.309277400   0.586271592   0.000000000
  C   -2.125923016   1.308952807   0.000000000
  C   -0.905413350   0.637882097   0.000000000
  C   -0.880531757  -0.755491803   0.000000000
  C   -2.073124538  -1.468075627   0.000000000
  O    0.228285440   1.391588043   0.000000000

7.071_noHB__ethene--phenol_125.wfx

