%nprocs=4
%mem=2GB
#p hf aug-cc-pvdz output=wfx scf=(conver=6) int=(grid=ultrafine)

title

0 1
H        3.2482846710        -1.1801195970        -1.2327064710
C        3.6533232370        -0.3544467310        -0.6631064830
C        3.6533232370        -0.3544467310         0.6631064830
H        4.0631720670         0.4692187330        -1.2317868060
H        3.2482846710        -1.1801195970         1.2327064710
H        4.0631720670         0.4692187330         1.2317868060

7.071_noHB__ethene--phenol_1.wfx

