%nprocs=4
%mem=2GB
#p hf aug-cc-pvdz output=wfx scf=(conver=6) int=(grid=ultrafine)

title

0 1
  C   -2.205477915   0.506140854   0.012343440
  H   -1.497307390   1.296619202   0.100808759
  C   -2.984113541  -0.396778057  -0.089862365
  H   -3.687969051  -1.185846829  -0.181470218
  H    0.726611337  -1.547788067   1.370450051
  H   -0.534096187  -1.500720623   0.100370385
  H    0.924518306  -2.517589853  -0.117734030
  C    0.527994503  -1.602024745   0.303357413
  O    1.255466071  -0.529417404  -0.373823186
  C    0.889367694   0.660166520  -0.070477688
  N    0.575175572   1.743192986   0.179468701

7.076_noHB__ethyne--methylcyanate_085.wfx

