%nprocs=4
%mem=2GB
#p hf aug-cc-pvdz output=wfx scf=(conver=6) int=(grid=ultrafine)

title

0 1
  H   -2.393608658  -1.079283453  -0.000000000
  H   -4.089394920  -0.348731589  -0.000000000
  H   -3.108512908   1.907742281   0.000000000
  H   -1.421114751   1.171193523   0.000000000
  C   -3.018073539  -0.196392641  -0.000000000
  C   -2.491589285   1.018755217   0.000000000
  H    1.336924317   0.923521177   2.146607049
  H    0.043937914  -1.191026445   2.052296941
  C    1.445846983   1.092881582  -0.000000000
  C    1.076190129   0.488313254   1.192996603
  C    0.353334869  -0.697098874   1.139544075
  N   -0.005181470  -1.287498043  -0.000000000
  C    0.353334869  -0.697098874  -1.139544075
  C    1.076190129   0.488313254  -1.192996603
  H    0.043937914  -1.191026445  -2.052296941
  H    1.336924317   0.923521177  -2.146607049
  H    2.006982414   2.016690797  -0.000000000

7.072_noHB__ethene--pyridine_090.wfx

