%nprocs=4
%mem=2GB
#p hf aug-cc-pvdz output=wfx scf=(conver=6) int=(grid=ultrafine)

title

0 1
  C   -2.205477915   0.506140854   0.012343440
  H   -1.497307390   1.296619202   0.100808759
  C   -2.984113541  -0.396778057  -0.089862365
  H   -3.687969051  -1.185846829  -0.181470218
  H    0.602368781  -1.545167062   1.368588248
  H   -0.658338743  -1.498099618   0.098508582
  H    0.800275750  -2.514968848  -0.119595833
  C    0.403751947  -1.599403740   0.301495610
  O    1.131223515  -0.526796399  -0.375684989
  C    0.765125138   0.662787525  -0.072339491
  N    0.450933016   1.745813991   0.177606898

7.076_noHB__ethyne--methylcyanate_080.wfx

