%nprocs=4
%mem=2GB
#p hf aug-cc-pvdz output=wfx scf=(conver=6) int=(grid=ultrafine)

title

0 1
  C   -1.856770909   0.599672070   0.000000000
  H   -1.128506429   1.373951790   0.000000000
  C   -2.663395914  -0.283498622   0.000000000
  H   -3.390961655  -1.056242052   0.000000000
  H    3.040679602  -1.848440745  -0.886967497
  H    1.531632879  -1.542099193   0.000000000
  H    3.040679602  -1.848440745   0.886967497
  C    3.064507301   1.150196657   0.000000000
  N    2.880807556   0.002103054   0.000000000
  C    2.609109380  -1.389790458   0.000000000

7.077_noHB__ethyne--methylisocyanide_150.wfx

