%nprocs=4
%mem=2GB
#p hf aug-cc-pvdz output=wfx scf=(conver=6) int=(grid=ultrafine)

title

0 1
H        1.3221444560         0.0000000000         0.9183325230
C        2.4018591600         0.0000000000         0.8336959810
C        3.0106698500         0.0000000000        -0.3429535930
H        2.9689922050         0.0000000000         1.7556748100
H        2.4534684220         0.0000000000        -1.2707482210
H        4.0890177480         0.0000000000        -0.4317817440

7.073_noHB__ethene--trimethylamine_1.wfx

