%nprocs=4
%mem=2GB
#p hf aug-cc-pvdz output=wfx scf=(conver=6) int=(grid=ultrafine)

title

0 1
  C   -1.856770909   0.599672070   0.000000000
  H   -1.128506429   1.373951790   0.000000000
  C   -2.663395914  -0.283498622   0.000000000
  H   -3.390961655  -1.056242052   0.000000000
  H    2.342508927  -1.799586637  -0.886967497
  H    0.833462204  -1.493245085   0.000000000
  H    2.342508927  -1.799586637   0.886967497
  C    2.366336626   1.199050765   0.000000000
  N    2.182636881   0.050957162   0.000000000
  C    1.910938705  -1.340936350   0.000000000

7.077_noHB__ethyne--methylisocyanide_125.wfx

