%nprocs=4
%mem=2GB
#p hf aug-cc-pvdz output=wfx scf=(conver=6) int=(grid=ultrafine)

title

0 1
  C   -1.856770909   0.599672070   0.000000000
  H   -1.128506429   1.373951790   0.000000000
  C   -2.663395914  -0.283498622   0.000000000
  H   -3.390961655  -1.056242052   0.000000000
  H    1.504704118  -1.740961709  -0.886967497
  H   -0.004342605  -1.434620157   0.000000000
  H    1.504704118  -1.740961709   0.886967497
  C    1.528531817   1.257675693   0.000000000
  N    1.344832072   0.109582090   0.000000000
  C    1.073133896  -1.282311422   0.000000000

7.077_noHB__ethyne--methylisocyanide_095.wfx

