%nprocs=4
%mem=2GB
#p hf aug-cc-pvdz output=wfx scf=(conver=6) int=(grid=ultrafine)

title

0 1
  C   -2.205477915   0.506140854   0.012343440
  H   -1.497307390   1.296619202   0.100808759
  C   -2.984113541  -0.396778057  -0.089862365
  H   -3.687969051  -1.185846829  -0.181470218
  H    1.223581558  -1.558272090   1.377897266
  H   -0.037125966  -1.511204646   0.107817600
  H    1.421488527  -2.528073876  -0.110286815
  C    1.024964724  -1.612508768   0.310804628
  O    1.752436292  -0.539901427  -0.366375971
  C    1.386337915   0.649682497  -0.063030473
  N    1.072145793   1.732708963   0.186915916

7.076_noHB__ethyne--methylcyanate_105.wfx

