%nprocs=4
%mem=2GB
#p hf aug-cc-pvdz output=wfx scf=(conver=6) int=(grid=ultrafine)

title

0 1
  H   -1.131281380   1.231617804   0.908822792
  H   -1.467846623   1.231614920  -0.900408833
  H   -1.467846623  -1.231614920  -0.900408833
  H   -1.131281380  -1.231617804   0.908822792
  C   -1.297310021   0.662969801   0.003855190
  C   -1.297310021  -0.662969801   0.003855190
  O    4.539241476   0.000000000   0.042013895
  H    4.880750476   0.000000000  -0.854895954
  H    3.580113925   0.000000000  -0.054344748

7.074_noHB__ethene--water_200.wfx

