%nprocs=4
%mem=2GB
#p hf aug-cc-pvdz output=wfx scf=(conver=6) int=(grid=ultrafine)

title

0 1
  C   -2.603371942   0.065605317  -0.035860983
  H   -1.826877800   0.705772037   0.374219037
  H   -2.376881939  -0.159376136  -1.076087797
  H   -3.563198772   0.573524391   0.019339925
  H   -2.653046117  -0.860354137   0.532806634
  H    1.816305207  -1.899883723   0.169942221
  H    0.201773690  -1.753818120  -0.496776388
  H    0.509717607  -1.204898092   1.172446220
  H    1.701265697   0.090541235  -1.385632348
  C    0.921428618  -1.273744128   0.169661929
  C    1.262834963   0.084095312  -0.366518880
  O    1.091768759   1.118117359   0.223543835

7.078_noHB__methane--acetaldehyde_105.wfx

