%nprocs=4
%mem=2GB
#p hf aug-cc-pvdz output=wfx scf=(conver=6) int=(grid=ultrafine)

title

0 1
  C   -2.005496180  -0.000000036   0.000000078
  H   -2.372892730  -0.523276936  -0.880612388
  H   -0.917696855  -0.000000175   0.000000683
  H   -2.372892965   1.024271103  -0.012865137
  H   -2.372893602  -0.500994273   0.893477144
  N    1.686748932  -0.000000149   0.000000252
  H    2.059396965   0.460253926  -0.820807742
  H    2.059404695   0.480713406   0.808992295
  H    2.059404956  -0.940964600   0.011810795

7.083_noHB__methane--ammonia_095.wfx

