%nprocs=4
%mem=2GB
#p hf aug-cc-pvdz output=wfx scf=(conver=6) int=(grid=ultrafine)

title

0 1
H       -0.1754967660        -1.2970278400         0.9323488460
C       -1.0224462910        -1.2019389700         0.2515668750
H       -1.0235389860        -2.0740802450        -0.4003097120
H       -1.9402439490        -1.2193973070         0.8581604800
N       -0.8683590470         0.0064894940        -0.5416709920
H       -1.5608327370         0.0300313390        -1.2767807970
C       -0.9398428170         1.2227212970         0.2514106690
H       -0.8820132850         2.0927657060        -0.4007001110
H       -0.0881009070         1.2604339350         0.9318215360
H       -1.8541567640         1.3024223700         0.8582497730

7.085_noHB__methane--dimethylamine_2.wfx

