%nprocs=4
%mem=2GB
#p hf aug-cc-pvdz output=wfx scf=(conver=6) int=(grid=ultrafine)

title

0 1
  C    2.638128595   0.118839823   0.000000000
  H    3.582006850   0.658435734   0.000000000
  H    1.814793635   0.828343491   0.000000000
  H    2.584315645  -0.505660149  -0.889483776
  H    2.584315645  -0.505660149   0.889483776
  H    0.758896207  -1.517222550   0.000000000
  H   -0.758981095  -1.738230125   0.885033299
  H   -0.758981095  -1.738230125  -0.885033299
  C   -0.306322484  -1.294835397   0.000000000
  C   -0.510400928   0.144189684   0.000000000
  N   -0.664611857   1.282091794   0.000000000

7.082_noHB__methane--acetonitrile_080.wfx

