%nprocs=4
%mem=2GB
#p hf aug-cc-pvdz output=wfx scf=(conver=6) int=(grid=ultrafine)

title

0 1
  C   -2.005496180  -0.000000036   0.000000078
  H   -2.372892730  -0.523276936  -0.880612388
  H   -0.917696855  -0.000000175   0.000000683
  H   -2.372892965   1.024271103  -0.012865137
  H   -2.372893602  -0.500994273   0.893477144
  N    4.565346907  -0.000000085   0.000000141
  H    4.937994940   0.460253990  -0.820807853
  H    4.938002670   0.480713470   0.808992184
  H    4.938002931  -0.940964536   0.011810684

7.083_noHB__methane--ammonia_200.wfx

