%nprocs=4
%mem=2GB
#p hf aug-cc-pvdz output=wfx scf=(conver=6) int=(grid=ultrafine)

title

0 1
  C    2.676729044   0.042678606  -0.016916926
  H    3.005638071  -0.991090022  -0.097484004
  H    2.552608741   0.458866960  -1.014546491
  H    1.730694378   0.083921701   0.516905151
  H    3.426984942   0.617935734   0.520771564
  H   -0.621306414  -2.025208689   0.437041588
  H    0.002820135  -1.197291515  -1.006799990
  H   -1.751418327  -1.294077883  -0.725393852
  H   -0.849565031   2.008297941   0.432762460
  H   -0.134747338   1.252818137  -1.008968330
  H   -1.888791966   1.152032324  -0.728943898
  C   -0.776443140  -1.186049852  -0.236443693
  O   -0.718100222  -0.007374199   0.535658950
  C   -0.908367357   1.155510784  -0.238933711

7.088_noHB__methane--dimethylether_095.wfx

