%nprocs=4
%mem=2GB
#p hf aug-cc-pvdz output=wfx scf=(conver=6) int=(grid=ultrafine)

title

0 1
H       -0.4711657240        -0.7146599590         2.1490637850
C        0.0328853800        -0.5262792400         1.2102287300
C       -0.6045974910        -0.8522247800         0.0099614320
C        1.2936911390         0.0498382420         1.2024310090
N       -1.9025376850        -1.3589428840         0.0106141950
C        0.0574016570        -0.5920920360        -1.1930984610
C        1.9474239690         0.3128864880         0.0041357190
H        1.7672224310         0.2977801270         2.1421459150
H       -2.1694589490        -1.8705541410        -0.8134504490
H       -2.1866057890        -1.8243753180         0.8560437270
H       -0.4273963530        -0.8320150210        -2.1303201300
C        1.3181518090        -0.0156804990        -1.1910884570
H        2.9286130050         0.7637921260         0.0018174520
H        1.8109966540         0.1805574030        -2.1330957460

7.084_noHB__methane--aniline_2.wfx

