%nprocs=4
%mem=2GB
#p hf aug-cc-pvdz output=wfx scf=(conver=6) int=(grid=ultrafine)

title

0 1
  C    2.699263677  -0.027250057   0.001494473
  H    1.720449539  -0.045618581  -0.472853032
  H    3.347849607  -0.765838756  -0.464742925
  H    3.142059055   0.960330834  -0.109778771
  H    2.599239536  -0.257132056   1.060530783
  H   -1.470554350  -1.283979925   0.931415716
  H   -3.235301533  -1.206349392   0.857227350
  H   -2.318596570  -2.061032330  -0.401242842
  H   -2.855890321   0.043079254  -1.277713927
  H   -2.177070869   2.105813621  -0.401633241
  H   -1.383158491   1.273481850   0.930888406
  H   -3.149214348   1.315470285   0.857316643
  C   -2.317503875  -1.188891055   0.250633745
  N   -2.163416631   0.019537409  -0.542604122
  C   -2.234900401   1.235769212   0.250477539

7.085_noHB__methane--dimethylamine_150.wfx

