%nprocs=4
%mem=2GB
#p hf aug-cc-pvdz output=wfx scf=(conver=6) int=(grid=ultrafine)

title

0 1
H        0.2119909170        -1.5418527220         0.0000000000
C       -0.8532277740        -1.3194655690         0.0000000000
H       -1.3058863850        -1.7628602970        -0.8850332990
H       -1.3058863850        -1.7628602970         0.8850332990
C       -1.0573062180         0.1195595120         0.0000000000
N       -1.2115171470         1.2574616220         0.0000000000

7.082_noHB__methane--acetonitrile_2.wfx

