%nprocs=4
%mem=2GB
#p hf aug-cc-pvdz output=wfx scf=(conver=6) int=(grid=ultrafine)

title

0 1
C       -2.0054961800        -0.0000000360         0.0000000780
H       -2.3728927300        -0.5232769360        -0.8806123880
H       -0.9176968550        -0.0000001750         0.0000006830
H       -2.3728936020        -0.5009942730         0.8934771440
H       -2.3728929650         1.0242711030        -0.0128651370

7.083_noHB__methane--ammonia_1.wfx

