%nprocs=4
%mem=2GB
#p hf aug-cc-pvdz output=wfx scf=(conver=6) int=(grid=ultrafine)

title

0 1
  C   -2.005496180  -0.000000036   0.000000078
  H   -2.372892730  -0.523276936  -0.880612388
  H   -0.917696855  -0.000000175   0.000000683
  H   -2.372892965   1.024271103  -0.012865137
  H   -2.372893602  -0.500994273   0.893477144
  N    3.194585967  -0.000000115   0.000000194
  H    3.567234000   0.460253960  -0.820807800
  H    3.567241730   0.480713440   0.808992237
  H    3.567241991  -0.940964566   0.011810737

7.083_noHB__methane--ammonia_150.wfx

