%nprocs=4
%mem=2GB
#p hf aug-cc-pvdz output=wfx scf=(conver=6) int=(grid=ultrafine)

title

0 1
C        2.7336141650         0.0000000000         0.0000000000
H        3.3633564120        -0.8339109420        -0.3020456090
H        2.1015535520        -0.3004824830         0.8317738440
H        2.1015535520         0.3004824830        -0.8317738440
H        3.3633564120         0.8339109420         0.3020456090

7.089_noHB__methane--dimethylperoxide_1.wfx

