%nprocs=4
%mem=2GB
#p hf aug-cc-pvdz output=wfx scf=(conver=6) int=(grid=ultrafine)

title

0 1
N        1.8238250260        -0.0000001460         0.0000002470
H        2.1964810500        -0.9409645970         0.0118107900
H        2.1964730590         0.4602539290        -0.8208077470
H        2.1964807890         0.4807134090         0.8089922900

7.083_noHB__methane--ammonia_2.wfx

