%nprocs=4
%mem=2GB
#p hf aug-cc-pvdz output=wfx scf=(conver=6) int=(grid=ultrafine)

title

0 1
C        2.6381285950         0.1188398230         0.0000000000
H        2.5843156450        -0.5056601490        -0.8894837760
H        2.5843156450        -0.5056601490         0.8894837760
H        1.8147936350         0.8283434910         0.0000000000
H        3.5820068500         0.6584357340         0.0000000000

7.082_noHB__methane--acetonitrile_1.wfx

