%nprocs=4
%mem=2GB
#p hf aug-cc-pvdz output=wfx scf=(conver=6) int=(grid=ultrafine)

title

0 1
  C    2.676729044   0.042678606  -0.016916926
  H    3.005638071  -0.991090022  -0.097484004
  H    2.552608741   0.458866960  -1.014546491
  H    1.730694378   0.083921701   0.516905151
  H    3.426984942   0.617935734   0.520771564
  H   -0.234436213  -2.019051419   0.434536383
  H    0.389690336  -1.191134245  -1.009305195
  H   -1.364548126  -1.287920613  -0.727899057
  H   -0.462694830   2.014455211   0.430257255
  H    0.252122863   1.258975407  -1.011473535
  H   -1.501921765   1.158189594  -0.731449103
  C   -0.389572939  -1.179892582  -0.238948898
  O   -0.331230021  -0.001216929   0.533153745
  C   -0.521497156   1.161668054  -0.241438916

7.088_noHB__methane--dimethylether_080.wfx

