%nprocs=4
%mem=2GB
#p hf aug-cc-pvdz output=wfx scf=(conver=6) int=(grid=ultrafine)

title

0 1
C        2.8043393860         0.1355339400         0.0113803870
H        2.8598404650        -0.9020272940         0.3325722940
H        2.0924539710         0.2253495790        -0.8047466240
H        2.4870162970         0.7576366310         0.8456663890
H        3.7858847000         0.4617075010        -0.3236979150

7.081_noHB__methane--acetone_1.wfx

