%nprocs=4
%mem=2GB
#p hf aug-cc-pvdz output=wfx scf=(conver=6) int=(grid=ultrafine)

title

0 1
H        0.8819290730         1.5950565360         0.9101406610
O        0.8221998480         0.6469970610         1.0911467720
C        0.7426445900         0.0194414290        -0.1074929630
C        0.6334689960        -1.4680518200         0.0543977780
O        0.7569656720         0.6189356010        -1.1491250310
H        0.5951130090        -1.9384436700        -0.9214601790
H       -0.2662674520        -1.7075566720         0.6188867930
H        1.4845242750        -1.8436847210         0.6203876600

7.080_noHB__methane--aceticacid_2.wfx

