%nprocs=4
%mem=2GB
#p hf aug-cc-pvdz output=wfx scf=(conver=6) int=(grid=ultrafine)

title

0 1
  C   -2.899895967   0.000000000  -0.275001914
  H   -2.589059880   0.000000000   0.766649290
  H   -3.495177086   0.887574888  -0.477221942
  H   -3.495177086  -0.887574888  -0.477221942
  H   -2.017007216   0.000000000  -0.908616253
  H    0.658713178  -1.368812499  -1.739798798
  H    0.658713178   1.368812499  -1.739798798
  H   -0.157160180  -2.046570800   0.781391537
  H   -0.157160180   2.046570800   0.781391537
  C    0.397686778   0.716146928  -0.926347670
  C    0.397686778  -0.716146928  -0.926347670
  C   -0.002228874  -1.093786153   0.311574330
  O   -0.249246718   0.000000000   1.082405912
  C   -0.002228874   1.093786153   0.311574330

7.090_noHB__methane--furan_080.wfx

