%nprocs=4
%mem=2GB
#p hf aug-cc-pvdz output=wfx scf=(conver=6) int=(grid=ultrafine)

title

0 1
  C   -2.652467755  -0.114408337   0.000000000
  H   -3.578150085  -0.684638837   0.000000000
  H   -2.618545260   0.511555195  -0.889332091
  H   -2.618545260   0.511555195   0.889332091
  H   -1.806967473  -0.797276539   0.000000000
  H    1.155006563   1.508010410   0.000000000
  H    2.673157458   1.743575944  -0.886456565
  H    2.673157458   1.743575944   0.886456565
  C    2.600208992  -1.251043428   0.000000000
  N    2.436669709  -0.099297462   0.000000000
  C    2.222890706   1.301905933   0.000000000

7.096_noHB__methane--methylisocyanide_150.wfx

