%nprocs=4
%mem=2GB
#p hf aug-cc-pvdz output=wfx scf=(conver=6) int=(grid=ultrafine)

title

0 1
C       -2.7075009140         0.1527005020         0.0212214190
H       -2.9104808960        -0.5507993340        -0.7838938460
H       -2.0330359590         0.9299444290        -0.3291125650
H       -3.6427171440         0.6041749450         0.3430031910
H       -2.2554782360        -0.3703338480         0.8611523170

7.095_noHB__methane--methylcyanate_1.wfx

