%nprocs=4
%mem=2GB
#p hf aug-cc-pvdz output=wfx scf=(conver=6) int=(grid=ultrafine)

title

0 1
C        2.4169288510        -0.0142877920         0.0000000000
H        1.4517813170        -0.5156873280         0.0000000000
H        2.5053641790         0.6099500860        -0.8869765550
H        2.5053641790         0.6099500860         0.8869765550
H        3.2164709380        -0.7520692600         0.0000000000

7.093_noHB__methane--methylamine_1.wfx

