%nprocs=4
%mem=2GB
#p hf aug-cc-pvdz output=wfx scf=(conver=6) int=(grid=ultrafine)

title

0 1
  C   -2.751375999   0.024385361   0.000000000
  H   -2.174433721   0.269064997  -0.888769303
  H   -2.174433721   0.269064997   0.888769303
  H   -3.670464723   0.605006968   0.000000000
  H   -3.000148848  -1.035028735   0.000000000
  H    3.865463086  -1.788318073   0.902999256
  H    3.865463086  -1.788318073  -0.902999256
  H    2.331201715  -1.699012815   0.000000000
  C    3.384719402  -1.433424908   0.000000000
  N    3.440016654   0.061514618   0.000000000
  O    3.444640990   0.617783332   1.082901936
  O    3.444640990   0.617783332  -1.082901936

7.097_noHB__methane--nitromethane_200.wfx

