%nprocs=4
%mem=2GB
#p hf aug-cc-pvdz output=wfx scf=(conver=6) int=(grid=ultrafine)

title

0 1
  C   -2.751375999   0.024385361   0.000000000
  H   -2.174433721   0.269064997  -0.888769303
  H   -2.174433721   0.269064997   0.888769303
  H   -3.670464723   0.605006968   0.000000000
  H   -3.000148848  -1.035028735   0.000000000
  H    1.296703274  -1.764938855   0.902999256
  H    1.296703274  -1.764938855  -0.902999256
  H   -0.237558097  -1.675633597   0.000000000
  C    0.815959590  -1.410045690   0.000000000
  N    0.871256842   0.084893836   0.000000000
  O    0.875881178   0.641162550   1.082901936
  O    0.875881178   0.641162550  -1.082901936

7.097_noHB__methane--nitromethane_105.wfx

