%nprocs=4
%mem=2GB
#p hf aug-cc-pvdz output=wfx scf=(conver=6) int=(grid=ultrafine)

title

0 1
C        2.6904055920        -0.1194440510         0.0202806360
H        2.7584041450        -0.9153729220        -0.7183837400
H        2.2849104410         0.7758115910        -0.4447443540
H        2.0410161120        -0.4310281040         0.8347757790
H        3.6830994550         0.0936991610         0.4091161020

7.094_noHB__methane--methylazide_1.wfx

