%nprocs=4
%mem=2GB
#p hf aug-cc-pvdz output=wfx scf=(conver=6) int=(grid=ultrafine)

title

0 1
  C   -2.899895967   0.000000000  -0.275001914
  H   -2.589059880   0.000000000   0.766649290
  H   -3.495177086   0.887574888  -0.477221942
  H   -3.495177086  -0.887574888  -0.477221942
  H   -2.017007216   0.000000000  -0.908616253
  H    1.540009465  -1.368812499  -1.656286975
  H    1.540009465   1.368812499  -1.656286975
  H    0.724136107  -2.046570800   0.864903360
  H    0.724136107   2.046570800   0.864903360
  C    1.278983065   0.716146928  -0.842835847
  C    1.278983065  -0.716146928  -0.842835847
  C    0.879067413  -1.093786153   0.395086153
  O    0.632049569   0.000000000   1.165917735
  C    0.879067413   1.093786153   0.395086153

7.090_noHB__methane--furan_110.wfx

