%nprocs=4
%mem=2GB
#p hf aug-cc-pvdz output=wfx scf=(conver=6) int=(grid=ultrafine)

title

0 1
  C    2.416928851  -0.014287792   0.000000000
  H    1.451781317  -0.515687328   0.000000000
  H    3.216470938  -0.752069260   0.000000000
  H    2.505364179   0.609950086  -0.886976555
  H    2.505364179   0.609950086   0.886976555
  N   -0.810364923  -0.717730409   0.000000000
  H   -1.286202180  -1.085929264  -0.812522114
  H   -1.286202180  -1.085929264   0.812522114
  C   -0.829581451   0.745072547   0.000000000
  H   -0.295233397   1.110350434   0.875968396
  H   -1.829045689   1.194839214   0.000000000
  H   -0.295233397   1.110350434  -0.875968396

7.093_noHB__methane--methylamine_085.wfx

