%nprocs=4
%mem=2GB
#p hf aug-cc-pvdz output=wfx scf=(conver=6) int=(grid=ultrafine)

title

0 1
  C   -2.899895967   0.000000000  -0.275001914
  H   -2.589059880   0.000000000   0.766649290
  H   -3.495177086   0.887574888  -0.477221942
  H   -3.495177086  -0.887574888  -0.477221942
  H   -2.017007216   0.000000000  -0.908616253
  H    1.246244036  -1.368812499  -1.684124249
  H    1.246244036   1.368812499  -1.684124249
  H    0.430370678  -2.046570800   0.837066086
  H    0.430370678   2.046570800   0.837066086
  C    0.985217636   0.716146928  -0.870673121
  C    0.985217636  -0.716146928  -0.870673121
  C    0.585301984  -1.093786153   0.367248879
  O    0.338284140   0.000000000   1.138080461
  C    0.585301984   1.093786153   0.367248879

7.090_noHB__methane--furan_100.wfx

