%nprocs=4
%mem=2GB
#p hf aug-cc-pvdz output=wfx scf=(conver=6) int=(grid=ultrafine)

title

0 1
C       -2.3426056020        -0.0813721130         0.0000000000
H       -3.4171862930        -0.2455713870         0.0000000000
H       -1.8311881300        -1.0409006970         0.0000000000
H       -2.0702759950         0.4797228470        -0.8918762960
H       -2.0702759950         0.4797228470         0.8918762960

7.091_noHB__methane--methanol_1.wfx

