%nprocs=4
%mem=2GB
#p hf aug-cc-pvdz output=wfx scf=(conver=6) int=(grid=ultrafine)

title

0 1
  C   -2.342605602  -0.081372113   0.000000000
  H   -2.070275995   0.479722847   0.891876296
  H   -3.417186293  -0.245571387   0.000000000
  H   -2.070275995   0.479722847  -0.891876296
  H   -1.831188130  -1.040900697   0.000000000
  O    1.151087962   0.723539104   0.000000000
  H    0.195044973   0.803750763   0.000000000
  C    1.490239521  -0.655238274   0.000000000
  H    2.576047946  -0.714332098   0.000000000
  H    1.116214896  -1.170124081  -0.889476966
  H    1.116214896  -1.170124081   0.889476966

7.091_noHB__methane--methanol_105.wfx

