%nprocs=4
%mem=2GB
#p hf aug-cc-pvdz output=wfx scf=(conver=6) int=(grid=ultrafine)

title

0 1
  C   -2.751375999   0.024385361   0.000000000
  H   -2.174433721   0.269064997  -0.888769303
  H   -2.174433721   0.269064997   0.888769303
  H   -3.670464723   0.605006968   0.000000000
  H   -3.000148848  -1.035028735   0.000000000
  H    2.513484238  -1.776013222   0.902999256
  H    2.513484238  -1.776013222  -0.902999256
  H    0.979222867  -1.686707964   0.000000000
  C    2.032740554  -1.421120057   0.000000000
  N    2.088037806   0.073819469   0.000000000
  O    2.092662142   0.630088183   1.082901936
  O    2.092662142   0.630088183  -1.082901936

7.097_noHB__methane--nitromethane_150.wfx

