%nprocs=4
%mem=2GB
#p hf aug-cc-pvdz output=wfx scf=(conver=6) int=(grid=ultrafine)

title

0 1
  C    2.597862197  -0.041207383  -0.019106708
  H    2.707053998   0.995989708   0.290143529
  H    2.154407162  -0.083133795  -1.011335865
  H    3.576738273  -0.513723253  -0.042457175
  H    1.957571422  -0.567907711   0.683927823
  H   -2.878690354   1.732848218  -0.338648705
  H   -4.589997228   1.833694522   0.051562525
  H   -3.450718888   1.120988182   1.260094755
  C   -3.686679835   1.241579482   0.204302802
  N   -3.914523605  -0.058586068  -0.459402903
  O   -3.801394071  -1.005598868   0.266939031

7.098_noHB__methane--nitrosomethane_200.wfx

