%nprocs=4
%mem=2GB
#p hf aug-cc-pvdz output=wfx scf=(conver=6) int=(grid=ultrafine)

title

0 1
  C   -2.652467755  -0.114408337   0.000000000
  H   -3.578150085  -0.684638837   0.000000000
  H   -2.618545260   0.511555195  -0.889332091
  H   -2.618545260   0.511555195   0.889332091
  H   -1.806967473  -0.797276539   0.000000000
  H   -0.756371174   1.425538409   0.000000000
  H    0.761779721   1.661103943  -0.886456565
  H    0.761779721   1.661103943   0.886456565
  C    0.688831255  -1.333515429   0.000000000
  N    0.525291972  -0.181769463   0.000000000
  C    0.311512969   1.219433932   0.000000000

7.096_noHB__methane--methylisocyanide_080.wfx

