%nprocs=4
%mem=2GB
#p hf aug-cc-pvdz output=wfx scf=(conver=6) int=(grid=ultrafine)

title

0 1
  C   -2.899895967   0.000000000  -0.275001914
  H   -2.589059880   0.000000000   0.766649290
  H   -3.495177086   0.887574888  -0.477221942
  H   -3.495177086  -0.887574888  -0.477221942
  H   -2.017007216   0.000000000  -0.908616253
  H    0.805595892  -1.368812499  -1.725880161
  H    0.805595892   1.368812499  -1.725880161
  H   -0.010277466  -2.046570800   0.795310174
  H   -0.010277466   2.046570800   0.795310174
  C    0.544569492   0.716146928  -0.912429033
  C    0.544569492  -0.716146928  -0.912429033
  C    0.144653840  -1.093786153   0.325492967
  O   -0.102364004   0.000000000   1.096324549
  C    0.144653840   1.093786153   0.325492967

7.090_noHB__methane--furan_085.wfx

