%nprocs=4
%mem=2GB
#p hf aug-cc-pvdz output=wfx scf=(conver=6) int=(grid=ultrafine)

title

0 1
  C   -2.707500914   0.152700502   0.021221419
  H   -2.255478236  -0.370333848   0.861152317
  H   -3.642717144   0.604174945   0.343003191
  H   -2.033035959   0.929944429  -0.329112565
  H   -2.910480896  -0.550799334  -0.783893846
  H   -0.660191525  -1.427004926  -0.906125259
  H    0.280844651  -2.522226360   0.145375146
  H    1.107452228  -1.593770018  -1.138229341
  C    0.294570770  -1.596460086  -0.416757988
  O    0.522491918  -0.552319246   0.573556292
  C    0.572933089   0.644359363   0.110665631
  N    0.621682506   1.732492867  -0.272108214

7.095_noHB__methane--methylcyanate_090.wfx

