%nprocs=4
%mem=2GB
#p hf aug-cc-pvdz output=wfx scf=(conver=6) int=(grid=ultrafine)

title

0 1
  C   -2.652467755  -0.114408337   0.000000000
  H   -3.578150085  -0.684638837   0.000000000
  H   -2.618545260   0.511555195  -0.889332091
  H   -2.618545260   0.511555195   0.889332091
  H   -1.806967473  -0.797276539   0.000000000
  H    2.520276375   1.566918983   0.000000000
  H    4.038427270   1.802484517  -0.886456565
  H    4.038427270   1.802484517   0.886456565
  C    3.965478804  -1.192134855   0.000000000
  N    3.801939521  -0.040388889   0.000000000
  C    3.588160518   1.360814506   0.000000000

7.096_noHB__methane--methylisocyanide_200.wfx

