%nprocs=4
%mem=2GB
#p hf aug-cc-pvdz output=wfx scf=(conver=6) int=(grid=ultrafine)

title

0 1
  C   -2.652467755  -0.114408337   0.000000000
  H   -3.578150085  -0.684638837   0.000000000
  H   -2.618545260   0.511555195  -0.889332091
  H   -2.618545260   0.511555195   0.889332091
  H   -1.806967473  -0.797276539   0.000000000
  H   -0.073736268   1.454992695   0.000000000
  H    1.444414627   1.690558229  -0.886456565
  H    1.444414627   1.690558229   0.886456565
  C    1.371466161  -1.304061143   0.000000000
  N    1.207926878  -0.152315177   0.000000000
  C    0.994147875   1.248888218   0.000000000

7.096_noHB__methane--methylisocyanide_105.wfx

