%nprocs=4
%mem=2GB
#p hf aug-cc-pvdz output=wfx scf=(conver=6) int=(grid=ultrafine)

title

0 1
  C    2.597862197  -0.041207383  -0.019106708
  H    2.707053998   0.995989708   0.290143529
  H    2.154407162  -0.083133795  -1.011335865
  H    3.576738273  -0.513723253  -0.042457175
  H    1.957571422  -0.567907711   0.683927823
  H    0.564997921   1.677901449  -0.364248018
  H   -1.146308953   1.778747753   0.025963212
  H   -0.007030613   1.066041413   1.234495442
  C   -0.242991560   1.186632713   0.178703489
  N   -0.470835330  -0.113532837  -0.485002216
  O   -0.357705796  -1.060545637   0.241339718

7.098_noHB__methane--nitrosomethane_080.wfx

