%nprocs=4
%mem=2GB
#p hf aug-cc-pvdz output=wfx scf=(conver=6) int=(grid=ultrafine)

title

0 1
C       -1.0378757430        -1.8485370830        -0.8076031090
H       -1.1197674380        -2.7597977340        -0.2218217580
H       -1.8276476050        -1.8226712930        -1.5562032900
H       -0.0755557780        -1.8583520120        -1.3203124450
C       -1.0600374570        -0.6582130850         0.1242388510
O       -0.4951000230        -0.6790524550         1.2091077640
N       -1.7210050590         0.4322308060        -0.3341129440
H       -2.0306115270         0.4218729210        -1.2890806330
C       -1.6660624020         1.7106640510         0.3485784660
H       -1.6150405330         1.5305096370         1.4178818830
H       -0.7883020860         2.2840265470         0.0463843440
H       -2.5638092020         2.2820702360         0.1240037660

7.108_noHB__Nmethylacetamide--acetaldehyde_1.wfx

