%nprocs=4
%mem=2GB
#p hf aug-cc-pvdz output=wfx scf=(conver=6) int=(grid=ultrafine)

title

0 1
  O    1.575104712  -0.196099628   0.675572509
  H    1.025324259   0.548163264   0.934505936
  C    2.167596818   0.104276079  -0.581740758
  H    2.751431393  -0.765485194  -0.873796123
  H    2.835908572   0.966563815  -0.521148887
  H    1.414733901   0.297665666  -1.350495813
  H   -1.769685870  -1.551865959   0.104321230
  H   -3.014546814  -1.482669145  -1.167539568
  H   -3.495924046  -1.561468274   0.537454935
  C   -2.651183790   1.402574452  -0.011707242
  N   -2.728128151   0.244941054  -0.084777294
  C   -2.755181614  -1.172681703  -0.157668815

7.105_noHB__methanol--methylisocyanide_150.wfx

