%nprocs=4
%mem=2GB
#p hf aug-cc-pvdz output=wfx scf=(conver=6) int=(grid=ultrafine)

title

0 1
C       -1.8461013580         0.0052215570         0.0000000000
H       -1.3986572590        -0.4289511610        -0.8919987890
H       -2.9119558470        -0.2086820230         0.0000000000
H       -1.3986572590        -0.4289511610         0.8919987890
H       -1.6962490320         1.0825148940         0.0000000000

7.104_noHB__methane--water_1.wfx

