%nprocs=4
%mem=2GB
#p hf aug-cc-pvdz output=wfx scf=(conver=6) int=(grid=ultrafine)

title

0 1
  O    1.575104712  -0.196099628   0.675572509
  H    1.025324259   0.548163264   0.934505936
  C    2.167596818   0.104276079  -0.581740758
  H    2.751431393  -0.765485194  -0.873796123
  H    2.835908572   0.966563815  -0.521148887
  H    1.414733901   0.297665666  -1.350495813
  H    0.009340823  -1.576750160   0.164185479
  H   -1.235520121  -1.507553346  -1.107675319
  H   -1.716897353  -1.586352475   0.597319184
  C   -0.872157097   1.377690251   0.048157007
  N   -0.949101458   0.220056853  -0.024913045
  C   -0.976154921  -1.197565904  -0.097804566

7.105_noHB__methanol--methylisocyanide_080.wfx

