%nprocs=4
%mem=2GB
#p hf aug-cc-pvdz output=wfx scf=(conver=6) int=(grid=ultrafine)

title

0 1
  O    1.575104712  -0.196099628   0.675572509
  H    1.025324259   0.548163264   0.934505936
  C    2.167596818   0.104276079  -0.581740758
  H    2.751431393  -0.765485194  -0.873796123
  H    2.835908572   0.966563815  -0.521148887
  H    1.414733901   0.297665666  -1.350495813
  H   -0.244805848  -1.573195274   0.155633444
  H   -1.489666792  -1.503998460  -1.116227354
  H   -1.971044024  -1.582797589   0.588767149
  C   -1.126303768   1.381245137   0.039604972
  N   -1.203248129   0.223611739  -0.033465080
  C   -1.230301592  -1.194011018  -0.106356601

7.105_noHB__methanol--methylisocyanide_090.wfx

