%nprocs=4
%mem=2GB
#p hf aug-cc-pvdz output=wfx scf=(conver=6) int=(grid=ultrafine)

title

0 1
  N    2.367521019   1.233081297  -0.088323340
  H    1.366402963   1.300110414   0.037987637
  H    2.573111548   1.635977678  -0.992647029
  C    2.796450148  -0.162989137  -0.038646905
  H    3.875830993  -0.216128338  -0.179305345
  H    2.322500875  -0.819528406  -0.777021376
  H    2.579303882  -0.567490456   0.949853908
  H   -0.455127916  -0.894287101  -2.107258044
  H   -1.267550940   2.740440485   0.032005643
  H   -1.146704385   1.485397829  -2.100753711
  H   -0.002659543  -0.769670880   2.140344596
  H    0.401431264  -2.603300184   0.823350262
  H   -0.690242717   1.597408172   2.152122935
  C   -0.969991377   1.702526332   0.027124391
  C   -0.900965525   0.995297796  -1.169353712
  C   -0.515987060  -0.336798555  -1.184356347
  C   -0.195615442  -0.972842756   0.011076676
  C   -0.259982674  -0.274199822   1.212815563
  C   -0.647922369   1.059932880   1.215747950
  O    0.184840489  -2.281526565  -0.055666853

7.107_noHB__methylamine--phenol_085.wfx

