%nprocs=4
%mem=2GB
#p hf aug-cc-pvdz output=wfx scf=(conver=6) int=(grid=ultrafine)

title

0 1
  C    2.977538070  -0.194682012  -0.335719972
  H    2.111665543  -0.540764680  -0.894158234
  H    3.510199312  -1.049273532   0.075333251
  H    3.639946144   0.359689824  -0.996696197
  H    2.643688371   0.450093288   0.472642158
  H   -0.252567504  -2.417600302   0.389897791
  H    0.405234849  -0.872000411   2.214719348
  C   -0.388402308  -0.833209054  -1.065688440
  C   -0.154676816  -1.359301815   0.196654538
  C    0.213516373  -0.492660622   1.218396813
  N    0.355147925   0.821634549   1.051740233
  C    0.129629559   1.315305755  -0.165052791
  C   -0.242557055   0.533898222  -1.252079795
  H    0.253901559   2.385429907  -0.277827524
  H   -0.411013073   0.989304874  -2.217052208
  H   -0.675533714  -1.474873634  -1.886777733

7.102_noHB__methane--pyridine_080.wfx

