%nprocs=4
%mem=2GB
#p hf aug-cc-pvdz output=wfx scf=(conver=6) int=(grid=ultrafine)

title

0 1
  C    2.674731028  -1.035567764   0.197438963
  H    1.948388952  -1.009719239  -0.610419779
  H    3.432607513  -0.272808704   0.032214139
  H    3.151092667  -2.012551270   0.234407798
  H    2.171052766  -0.844216616   1.142772553
  C   -2.267184856  -0.945604201   0.608530982
  H   -3.178618301  -1.158042814   0.054448926
  H   -2.525528081  -0.608113802   1.610781266
  H   -1.703150199  -1.874328481   0.682672968
  C   -1.443092046   0.053171203  -0.176394620
  O   -1.174208432  -0.122745561  -1.351987234
  N   -1.020660152   1.141190474   0.523108026
  H   -1.255446850   1.201497635   1.496611932
  C   -0.176578746   2.167387626  -0.054513437
  H   -0.142717397   2.003564024  -1.126939754
  H   -0.585084452   3.157365748   0.144509235
  H    0.839747231   2.116352013   0.338161561

7.100_noHB__methane--Nmethylacetamide_125.wfx

