%nprocs=4
%mem=2GB
#p hf aug-cc-pvdz output=wfx scf=(conver=6) int=(grid=ultrafine)

title

0 1
  O    2.117646266  -0.063971009   0.000000000
  H    1.566706960   0.725029523   0.000000000
  H    3.022595991   0.254923981   0.000000000
  H   -3.957827806  -1.581005514  -0.887150416
  H   -3.957827806  -1.581005514   0.887150416
  H   -2.416049485  -1.548657916   0.000000000
  C   -3.430031556   1.371722631   0.000000000
  N   -3.465218185   0.209914627   0.000000000
  C   -3.449363210  -1.210254769   0.000000000

7.113_noHB__water--methylisocyanide_200.wfx

