%nprocs=4
%mem=2GB
#p hf aug-cc-pvdz output=wfx scf=(conver=6) int=(grid=ultrafine)

title

0 1
C        1.7710913540        -1.7754970270        -0.4141002340
H        2.6683812900        -2.1736329860        -0.8838561370
H        0.9227774990        -1.9150427160        -1.0803026240
C        2.0201839960        -0.3257363450        -0.0506096570
H        1.6011498840        -2.3393420570         0.5013513840
N        1.1495338110         0.5706802270        -0.5822543490
O        2.9550339840         0.0060795220         0.6591521600
C        1.2141297050         1.9802810630        -0.2547020880
H        0.3188396420         0.2244667220        -1.0296647490
H        0.7098500310         2.5519404820        -1.0303406510
H        2.2550885220         2.2854490680        -0.2009288580
H        0.7426306280         2.1981226940         0.7053357190

7.111_noHB__Nmethylacetamide--furan_1.wfx

