%nprocs=4
%mem=2GB
#p hf aug-cc-pvdz output=wfx scf=(conver=6) int=(grid=ultrafine)

title

0 1
H       -1.3415545860        -1.4204639040        -1.8527846040
C       -1.3453944230        -0.7713826000        -0.9893904970
C       -2.2097776960         0.3106508110        -0.9043240710
C       -0.4547494860        -1.0305553190         0.0497927460
H       -2.8972873860         0.5047417870        -1.7156307310
C       -2.1933141500         1.1460660950         0.2077740840
C       -0.4449879410        -0.2086149300         1.1755618140
O        0.3781880820        -2.0979965830        -0.0842097530
C       -1.3082976890         0.8768694410         1.2455627930
H       -2.8655936480         1.9892054430         0.2682181910
H        0.2418316120        -0.4163460770         1.9839163730
H        1.1449630640        -1.9952477470         0.4929762540
H       -1.2905186680         1.5113097290         2.1207014910

7.112_noHB__phenol--methylisocyanide_1.wfx

