%nprocs=4
%mem=2GB
#p hf aug-cc-pvdz output=wfx scf=(conver=6) int=(grid=ultrafine)

title

0 1
  O    2.117646266  -0.063971009   0.000000000
  H    1.566706960   0.725029523   0.000000000
  H    3.022595991   0.254923981   0.000000000
  H   -0.944972370  -1.583803721  -0.887150416
  H   -0.944972370  -1.583803721   0.887150416
  H    0.596805951  -1.551456123   0.000000000
  C   -0.417176120   1.368924424   0.000000000
  N   -0.452362749   0.207116420   0.000000000
  C   -0.436507774  -1.213052976   0.000000000

7.113_noHB__water--methylisocyanide_080.wfx

