&control
 title='crystal',
 prefix='crystal',
 pseudo_dir='.',
 calculation='vc-relax',
/
&system
 ibrav=0,
 celldm(1)=1.0,
 nat=    52,
 ntyp=  4,
 ecutwfc=60.0,
 ecutrho=600.0,
 xdm=.true.,
 xdm_a1=0.4073,
 xdm_a2=2.4150,
/
&electrons
 conv_thr = 1d-8,
/
&ions
/
&cell
/
ATOMIC_SPECIES
h      1.007940 h.UPF
c     12.010700 c.UPF
n     14.006700 n.UPF
o     15.999400 o.UPF

ATOMIC_POSITIONS crystal
n     0.06249822     0.28148501     0.76923678
n     0.93750279     0.78149310     0.23076341
c     0.13790383     0.24497486     0.96621123
c     0.86209874     0.74498146     0.03378885
n     0.21429334     0.34391676     0.10333781
n     0.78570528     0.84391458     0.89665708
c     0.20981743     0.49752920     0.02037549
c     0.79017732     0.99752481     0.97962387
c     0.13571008     0.55299088     0.81771341
c     0.86428615     0.05298912     0.18228565
c     0.05714840     0.43777024     0.68771238
c     0.94285276     0.93777906     0.31228769
n     0.15729833     0.71677284     0.78430833
n     0.84270162     0.21677115     0.21569005
c     0.24161504     0.75752422     0.96369544
c     0.75838659     0.25752616     0.03630320
n     0.27580063     0.63006294     0.11369497
n     0.72419882     0.13006374     0.88630499
n     0.97898327     0.47327222     0.49464096
n     0.02101769     0.97327648     0.50536018
c     0.37145447     0.62969325     0.31773306
c     0.62854581     0.12970281     0.68226744
c     0.51410760     0.64771834     0.23117564
c     0.48589216     0.14772778     0.76882403
c     0.61153049     0.61550387     0.44385243
c     0.38846993     0.11550260     0.55614843
o     0.53951972     0.53484745     0.04133474
o     0.46048196     0.03485242     0.95866111
o     0.57881464     0.71334798     0.64931843
o     0.42118423     0.21334624     0.35068069
h     0.13802581     0.11823327     0.02163027
h     0.86197600     0.61823924     0.97837416
h     0.28670152     0.87597702     0.98838166
h     0.71329882     0.37597780     0.01161818
h     0.93033669     0.37976570     0.40374310
h     0.06966259     0.87976678     0.59625449
h     0.97798416     0.58788076     0.41923972
h     0.02201707     0.08788397     0.58076518
h     0.36059253     0.51407677     0.41278254
h     0.63940521     0.01408456     0.58722108
h     0.34700920     0.72640099     0.44516369
h     0.65299340     0.22640669     0.55483258
h     0.52763551     0.77199419     0.16354566
h     0.47236215     0.27200254     0.83645713
h     0.71277508     0.64089087     0.38746041
h     0.28722517     0.14088912     0.61253939
h     0.60552012     0.48601216     0.49098190
h     0.39448147     0.98601006     0.50902008
h     0.54581889     0.59882044     0.88701242
h     0.45418140     0.09882081     0.11298721
h     0.66173909     0.76490251     0.72358626
h     0.33826092     0.26490208     0.27641403

K_POINTS automatic
2 2 2 1 1 1

CELL_PARAMETERS cubic
   19.079208000000    -0.000025000000     0.054312000000
   -0.000021000000    15.618692000000    -0.000009000000
   -0.323924000000    -0.000005000000    10.347463000000
