&control
 title='crystal',
 prefix='crystal',
 pseudo_dir='../..',
 forc_conv_thr=1.0D-4,
 etot_conv_thr=1.0D-5,
/
&system
 ibrav=0,
 nat=    44,
 ntyp=  5,
 ecutwfc=80.0,
 ecutrho=800.0,
 vdw_corr='xdm',
 nosym=.true.,
/
&electrons
 conv_thr = 1d-10,
/
&ions
/
&cell
 press_conv_thr=0.01,
/
ATOMIC_SPECIES
C    12.010700 c.UPF
N    14.006700 n.UPF
O    15.999400 o.UPF
S    32.065000 s.UPF
H     1.007940 h.UPF

ATOMIC_POSITIONS crystal
C             0.2332925677        0.2565329505        0.1276063505
C             0.7667054312        0.7565332664        0.3723921833
C             0.7667056873        0.7434664538        0.8723931587
C             0.2332940965        0.2434665816        0.6276078021
C             0.3172988496        0.4526960646        0.1486870876
C             0.6827008091        0.9526956959        0.3513116493
C             0.6827008920        0.5473037607        0.8513127521
C             0.3172983249        0.0473038448        0.6486882040
C             0.5217158693        0.3878612760        0.2640180784
C             0.4782840976        0.8878618078        0.2359800182
C             0.4782832478        0.6121386739        0.7359816884
C             0.5217155181        0.1121377458        0.7640199935
N             0.4496281338        0.2668104030        0.2322444964
N             0.5503726456        0.7668106262        0.2677534887
N             0.5503726007        0.7331904847        0.7677559568
N             0.4496270986        0.2331891003        0.7322464350
N             0.1570655909        0.3698160680        0.0758155944
N             0.8429337844        0.8698152514        0.4241836336
N             0.8429338842        0.6301845074        0.9241843070
N             0.1570660606        0.1301842669        0.5758164215
O             0.2951682522        0.5596831955        0.1228096459
O             0.7048320537        0.0596833979        0.3771896998
O             0.7048309770        0.4403170977        0.8771900560
O             0.2951673127        0.9403162942        0.6228102709
S             0.0763528263        0.1362115107        0.0668035235
S             0.9236450995        0.6362108140        0.4331958460
S             0.9236473057        0.8637889367        0.9331966952
S             0.0763546048        0.3637889856        0.5668040055
H             0.5449819134        0.1948717994        0.2858927430
H             0.4550175302        0.6948722784        0.2141054197
H             0.4550179336        0.8051281064        0.7141072807
H             0.5449822121        0.3051273621        0.7858945962
H             0.9955768654        0.3873440982        0.9926370573
H             0.0044220881        0.8873433340        0.5073628997
H             0.0044228688        0.6126559408        0.0073630107
H             0.9955774352        0.1126564614        0.4926370992
H             0.5333414830        0.4128036597        0.4095669376
H             0.4666595581        0.9128040377        0.0904311626
H             0.4666580395        0.5871965381        0.5904329535
H             0.5333398224        0.0871956015        0.9095687983
H             0.6948689371        0.4083300331        0.2217843541
H             0.3051308594        0.9083309918        0.2782135893
H             0.3051305056        0.5916701758        0.7782155416
H             0.6948685366        0.0916685498        0.7217865042

K_POINTS automatic
5 2 4  1 1 1

CELL_PARAMETERS bohr
  10.660927720   0.000011672  -0.001559405
   0.000023583  21.565287486  -0.000014830
  -2.161578872  -0.000011769  13.730501272
