&control
 title='crystal',
 prefix='crystal',
 pseudo_dir='.',
 calculation='vc-relax',
/
&system
 ibrav=0,
 celldm(1)=1.0,
 nat=    80,
 ntyp=  4,
 ecutwfc=60.0,
 ecutrho=600.0,
 xdm=.true.,
 xdm_a1=0.4073,
 xdm_a2=2.4150,
/
&electrons
 conv_thr = 1d-8,
/
&ions
/
&cell
/
ATOMIC_SPECIES
h      1.007940 h.UPF
c     12.010700 c.UPF
o     15.999400 o.UPF
s     32.065000 s.UPF

ATOMIC_POSITIONS crystal
c     0.20029163     0.96074914     0.10290278
c     0.79970847     0.46074913     0.39709721
c     0.70028923     0.53925025     0.89709753
c     0.29971086     0.03925024     0.60290246
c     0.11062777     0.07925055     0.12558866
c     0.88937232     0.57925054     0.37441133
c     0.61062766     0.42074920     0.87441107
c     0.38937243     0.92074919     0.62558892
c     0.91253381     0.14173445     0.07572982
c     0.08746628     0.64173444     0.42427016
c     0.41253302     0.35826696     0.92427033
c     0.58746707     0.85826695     0.57572965
c     0.80421877     0.08772548     0.00215646
c     0.19578132     0.58772547     0.49784353
c     0.30421869     0.41227707     0.99784325
c     0.69578140     0.91227706     0.50215674
c     0.89411826     0.97112916     0.97846282
c     0.10588183     0.47112915     0.52153717
c     0.39412046     0.52886963     0.02153332
c     0.60587963     0.02886962     0.47846667
c     0.08803284     0.90823524     0.02890664
c     0.91196725     0.40823523     0.47109335
c     0.58802890     0.59176307     0.97109348
c     0.41197119     0.09176306     0.52890651
c     0.40762561     0.88521380     0.15184107
c     0.59237448     0.38521379     0.34815892
c     0.90762690     0.61478591     0.84815698
c     0.09237319     0.11478590     0.65184300
c     0.04098627     0.10173138     0.29867697
c     0.95901382     0.60173137     0.20132302
c     0.54098683     0.39826855     0.70132311
c     0.45901326     0.89826854     0.79867688
h     0.64362746     0.87957618     0.25391251
h     0.35637263     0.37957617     0.24608748
h     0.14362622     0.62042307     0.74608650
h     0.85637387     0.12042306     0.75391349
h     0.84577426     0.23291182     0.09500858
h     0.15422584     0.73291181     0.40499140
h     0.34577288     0.26708747     0.90499134
h     0.65422721     0.76708746     0.59500865
h     0.65236774     0.13730592     0.96288111
h     0.34763235     0.63730591     0.53711888
h     0.15236347     0.36269487     0.03711852
h     0.84763662     0.86269486     0.46288146
h     0.81406042     0.92802565     0.92106965
h     0.18593967     0.42802564     0.57893034
h     0.31405577     0.57197674     0.07893100
h     0.68594432     0.07197673     0.42106898
h     0.15685245     0.81670943     0.01137560
h     0.84314764     0.31670942     0.48862438
h     0.65685300     0.68329154     0.98862376
h     0.34314709     0.18329153     0.51137622
h     0.07809819     0.00340035     0.30364290
h     0.92190190     0.50340034     0.19635709
h     0.57809963     0.49659909     0.69635695
h     0.42190046     0.99659908     0.80364304
h     0.11107020     0.14977785     0.35591725
h     0.88892989     0.64977784     0.14408273
h     0.61106940     0.35022143     0.64408287
h     0.38893069     0.85022142     0.85591711
h     0.81901857     0.12287533     0.28301632
h     0.18098152     0.62287532     0.21698366
h     0.31901879     0.37712482     0.71698402
h     0.68098130     0.87712481     0.78301597
o     0.14801936     0.29482388     0.20198042
o     0.85198073     0.79482388     0.29801957
o     0.64801904     0.20517594     0.79801979
o     0.35198105     0.70517593     0.70198019
o     0.49942601     0.93739625     0.22337790
o     0.50057408     0.43739624     0.27662209
o     0.99942317     0.56260268     0.77662185
o     0.00057692     0.06260267     0.72337814
o     0.48494938     0.78322692     0.12797103
o     0.51505071     0.28322691     0.37202896
o     0.98495142     0.71677213     0.87202819
o     0.01504867     0.21677212     0.62797180
s     0.26108457     0.16337525     0.21452734
s     0.73891552     0.66337524     0.28547265
s     0.76108452     0.33662397     0.78547276
s     0.23891557     0.83662396     0.71452722

K_POINTS automatic
2 2 2 1 1 1

CELL_PARAMETERS cubic
    8.852357000000     0.000000000000     0.000003000000
    0.000000000000    20.674327000000     0.000000000000
    0.000010000000     0.000000000000    29.724442000000
