&control
 title='crystal',
 prefix='crystal',
 pseudo_dir='.',
 calculation='vc-relax',
/
&system
 ibrav=0,
 celldm(1)=1.0,
 nat=    60,
 ntyp=  5,
 ecutwfc=60.0,
 ecutrho=600.0,
 xdm=.true.,
 xdm_a1=0.4073,
 xdm_a2=2.4150,
/
&electrons
 conv_thr = 1d-8,
/
&ions
/
&cell
/
ATOMIC_SPECIES
h      1.007940 h.UPF
c     12.010700 c.UPF
n     14.006700 n.UPF
o     15.999400 o.UPF
p     30.973761 p.UPF

ATOMIC_POSITIONS crystal
p     0.12189219     0.08321607     0.11135978
p     0.62189218     0.41678392     0.88864020
p     0.87810778     0.58321606     0.38864021
p     0.37810779     0.91678391     0.61135977
o     0.14754615     0.12884509     0.97385819
o     0.64754614     0.37115490     0.02614179
o     0.85245382     0.62884508     0.52614180
o     0.35245383     0.87115489     0.47385818
o     0.33208941     0.96971250     0.14490511
o     0.83208940     0.53028749     0.85509487
o     0.66791056     0.46971250     0.35509488
o     0.16791057     0.03028748     0.64490510
h     0.53479268     0.99681384     0.13719359
h     0.03479267     0.50318615     0.86280639
h     0.46520729     0.49681384     0.36280640
h     0.96520730     0.00318614     0.63719358
o     0.83670782     0.03573116     0.15208452
o     0.33670781     0.46426883     0.84791546
o     0.16329215     0.53573115     0.34791547
o     0.66329216     0.96426882     0.65208451
n     0.15502832     0.34505446     0.15910577
n     0.65502831     0.15494553     0.84089421
n     0.84497164     0.84505445     0.34089422
n     0.34497165     0.65494552     0.65910576
h     0.31624881     0.36730960     0.09520091
h     0.81624880     0.13269039     0.90479907
h     0.68375116     0.86730959     0.40479908
h     0.18375117     0.63269038     0.59520090
h     0.14984912     0.41765836     0.22938466
h     0.64984910     0.08234163     0.77061532
h     0.85015085     0.91765835     0.27061533
h     0.35015086     0.58234162     0.72938465
h     0.96401257     0.34626385     0.11076463
h     0.46401256     0.15373614     0.88923535
h     0.03598740     0.84626384     0.38923536
h     0.53598741     0.65373613     0.61076462
c     0.22720247     0.21690349     0.21845936
c     0.72720246     0.28309650     0.78154062
c     0.77279750     0.71690348     0.28154063
c     0.27279751     0.78309649     0.71845935
h     0.45504993     0.21426941     0.22176341
h     0.95504992     0.28573058     0.77823657
h     0.54495003     0.71426941     0.27823658
h     0.04495004     0.78573057     0.72176340
c     0.11001830     0.20303116     0.35295021
c     0.61001829     0.29696883     0.64704977
c     0.88998166     0.70303116     0.14704978
c     0.38998167     0.79696882     0.85295020
h     0.18911961     0.27991532     0.41524729
h     0.68911960     0.22008467     0.58475269
h     0.81088036     0.77991532     0.08475270
h     0.31088037     0.72008466     0.91524728
h     0.17361646     0.10998549     0.39368978
h     0.67361645     0.39001450     0.60631020
h     0.82638351     0.60998549     0.10631021
h     0.32638352     0.89001449     0.89368977
h     0.88284492     0.20802863     0.35283797
h     0.38284491     0.29197136     0.64716201
h     0.11715505     0.70802862     0.14716202
h     0.61715506     0.79197135     0.85283796

K_POINTS automatic
2 2 2 1 1 1

CELL_PARAMETERS cubic
    9.102009000000     0.000000000000     0.000000000000
    0.000000000000    19.527492000000     0.000000000000
    0.000000000000     0.000000000000    19.765449000000
