&control
 title='crystal',
 prefix='crystal',
 pseudo_dir='..',
 calculation='vc-relax',
 etot_conv_thr=1.0D-5,
/
&system
 ibrav=0,
 celldm(1)=1.0,
 nat=    52,
 ntyp=  4,
 ecutwfc=80.0,
 ecutrho=800.0,
 xdm=.true.,
 xdm_a1=0.6512,
 xdm_a2=1.4633,
/
&electrons
 conv_thr = 1d-8,
/
&ions
/
&cell
/
ATOMIC_SPECIES
h      1.007940 h.UPF
c     12.010700 c.UPF
n     14.006700 n.UPF
o     15.999400 o.UPF

ATOMIC_POSITIONS crystal
c        0.565547946   0.141009431   0.603248682
c        0.065538572   0.358989657   0.396751100
c        0.434452054   0.641009431   0.896751318
c        0.934461428   0.858989657   0.103248900
c        0.476183156   0.161486746   0.359116123
c        0.976178678   0.338512529   0.640884134
c        0.523816844   0.661486746   0.140883877
c        0.023821322   0.838512529   0.859115866
c        0.272796568   0.089637771   0.308280843
c        0.772797508   0.410364364   0.691720620
c        0.727203432   0.589637771   0.191719157
c        0.227202492   0.910364364   0.808279380
h        0.711543454   0.058870838   0.194471655
h        0.211543489   0.441126994   0.805528411
h        0.288456546   0.558870838   0.305528345
h        0.788456511   0.941126994   0.694471589
h        0.784395159   0.196296229   0.211661850
h        0.284395325   0.303701768   0.788337105
h        0.215604841   0.696296229   0.288338150
h        0.715604675   0.803701768   0.711662895
h        0.588187016   0.153113751   0.018308878
h        0.088189082   0.346884587   0.981689868
h        0.411812984   0.653113751   0.481691122
h        0.911810918   0.846884587   0.518310132
h        0.432647420   0.249343032   0.344130741
h        0.932639769   0.250656712   0.655870691
h        0.567352580   0.749343032   0.155869259
h        0.067360231   0.750656712   0.844129309
h        0.206377286   0.109384855   0.137611643
h        0.706380974   0.390618348   0.862390313
h        0.793622714   0.609384855   0.362388357
h        0.293619026   0.890618348   0.637609687
h        0.142061856   0.104248416   0.435841164
h        0.642059321   0.395755506   0.564160652
h        0.857938144   0.604248416   0.064158836
h        0.357940679   0.895755506   0.935839348
h        0.316449638   0.001571312   0.311895227
h        0.816456638   0.498430096   0.688105807
h        0.683550362   0.501571312   0.188104773
h        0.183543362   0.998430096   0.811894193
n        0.654096957   0.140174800   0.185377492
n        0.154097262   0.359822966   0.814622259
n        0.345903043   0.640174800   0.314622508
n        0.845902738   0.859822966   0.685377741
o        0.740306449   0.084554533   0.627179674
o        0.240296793   0.415444446   0.372820976
o        0.259693551   0.584554533   0.872820326
o        0.759703207   0.915444446   0.127179024
o        0.452566185   0.183739410   0.767264790
o        0.952553481   0.316260902   0.232733922
o        0.547433815   0.683739410   0.732735210
o        0.047446519   0.816260902   0.267266078

K_POINTS automatic
4 4 4 1 1 1

CELL_PARAMETERS cubic
  11.348407472   0.000000000  -0.000049501
   0.000000000  22.831633354   0.000000000
  -0.000049123   0.000000000  10.983694361
