&control
 title='crystal',
 prefix='crystal',
 pseudo_dir='.',
 calculation='vc-relax',
/
&system
 ibrav=0,
 celldm(1)=1.0,
 nat=   132,
 ntyp=  4,
 ecutwfc=60.0,
 ecutrho=600.0,
 xdm=.true.,
 xdm_a1=0.4073,
 xdm_a2=2.4150,
/
&electrons
 conv_thr = 1d-8,
/
&ions
/
&cell
/
ATOMIC_SPECIES
h      1.007940 h.UPF
c     12.010700 c.UPF
n     14.006700 n.UPF
o     15.999400 o.UPF

ATOMIC_POSITIONS crystal
o     0.79949866     0.45010956     0.48885898
o     0.45010960     0.65061093     0.32219231
o     0.34938908     0.79949861     0.65552565
o     0.65061096     0.20050137     0.15552565
o     0.54989046     0.34938906     0.82219231
o     0.20050140     0.54989043     0.98885898
h     0.76195948     0.42441040     0.45531004
h     0.42441043     0.66245094     0.28864337
h     0.33754907     0.76195944     0.62197671
h     0.66245097     0.23804054     0.12197671
h     0.57558963     0.33754905     0.78864336
h     0.23804057     0.57558959     0.95531003
n     0.30396866     0.68353818     0.56467962
n     0.68353821     0.37956954     0.39801296
n     0.62043047     0.30396862     0.73134629
n     0.37956957     0.69603136     0.23134630
n     0.31646184     0.62043045     0.89801295
n     0.69603139     0.31646181     0.06467962
c     0.51258636     0.80230944     0.48882783
c     0.80230948     0.28972312     0.32216116
c     0.71027689     0.51258631     0.65549450
c     0.28972315     0.48741367     0.15549450
c     0.19769058     0.71027687     0.82216116
c     0.48741370     0.19769055     0.98882783
h     0.54244277     0.96983593     0.47031652
h     0.96983596     0.42739319     0.30364985
h     0.57260682     0.54244272     0.63698319
h     0.42739322     0.45755726     0.13698320
h     0.03016409     0.57260680     0.80364985
h     0.45755728     0.03016406     0.97031652
h     0.65418266     0.75562742     0.47741415
h     0.75562745     0.10144478     0.31074748
h     0.89855523     0.65418261     0.64408082
h     0.10144481     0.34581737     0.14408082
h     0.24437261     0.89855521     0.81074748
h     0.34581739     0.24437257     0.97741414
c     0.05226321     0.64858877     0.49502545
c     0.64858880     0.59632559     0.32835878
c     0.40367442     0.05226316     0.66169212
c     0.59632562     0.94773682     0.16169212
c     0.35141125     0.40367440     0.82835878
c     0.94773685     0.35141122     0.99502545
h     0.08343911     0.81715481     0.47610043
h     0.81715484     0.73371573     0.30943376
h     0.26628428     0.08343906     0.64276710
h     0.73371576     0.91656092     0.14276710
h     0.18284521     0.26628426     0.80943376
h     0.91656095     0.18284518     0.97610043
c     0.53873566     0.85727077     0.54022233
c     0.85727080     0.31853513     0.37355566
c     0.68146488     0.53873561     0.70688900
c     0.31853516     0.46126437     0.20688900
c     0.14272925     0.68146486     0.87355566
c     0.46126439     0.14272922     0.04022233
h     0.69098685     0.83599054     0.55506194
h     0.83599057     0.14500372     0.38839527
h     0.85499630     0.69098681     0.72172861
h     0.14500375     0.30901317     0.22172861
h     0.16400948     0.85499627     0.88839526
h     0.30901320     0.16400945     0.05506193
h     0.58096498     0.05077315     0.54649141
h     0.05077318     0.46980819     0.37982474
h     0.53019182     0.58096493     0.71315808
h     0.46980822     0.41903505     0.21315808
h     0.94922688     0.53019180     0.87982474
h     0.41903507     0.94922684     0.04649141
c     0.21211903     0.34908019     0.50666682
c     0.34908022     0.13696119     0.34000015
c     0.86303882     0.21211898     0.67333349
c     0.13696122     0.78788100     0.17333350
c     0.65091984     0.86303880     0.84000015
c     0.78788103     0.65091980     0.00666682
h     0.35079105     0.29692802     0.49589883
h     0.29692805     0.94613700     0.32923216
h     0.05386301     0.35079100     0.66256550
h     0.94613703     0.64920898     0.16256550
h     0.70307200     0.05386299     0.82923216
h     0.64920900     0.70307197     0.99589883
h     0.02333814     0.18994213     0.50028584
h     0.18994216     0.16660402     0.33361917
h     0.83339599     0.02333809     0.66695251
h     0.16660405     0.97666189     0.16695252
h     0.81005790     0.83339597     0.83361917
h     0.97666192     0.81005786     0.00028584
c     0.09499285     0.71088439     0.54615181
c     0.71088443     0.61589157     0.37948515
c     0.38410844     0.09499280     0.71281848
c     0.61589160     0.90500718     0.21281849
c     0.28911563     0.38410842     0.87948514
c     0.90500720     0.28911560     0.04615181
h     0.13680342     0.90374064     0.55300702
h     0.90374067     0.76693725     0.38634035
h     0.23306276     0.13680337     0.71967369
h     0.76693728     0.86319661     0.21967370
h     0.09625938     0.23306274     0.88634035
h     0.86319664     0.09625935     0.05300702
h     0.92191239     0.58134314     0.56429812
h     0.58134317     0.65943077     0.39763145
h     0.34056924     0.92191235     0.73096479
h     0.65943080     0.07808763     0.23096479
h     0.41865689     0.34056922     0.89763145
h     0.07808766     0.41865685     0.06429812
c     0.24887816     0.57833545     0.47959240
c     0.57833549     0.32945732     0.31292573
c     0.67054269     0.24887811     0.64625907
c     0.32945735     0.75112187     0.14625907
c     0.42166457     0.67054267     0.81292572
c     0.75112190     0.42166454     0.97959239
h     0.22469543     0.53460559     0.44332255
h     0.53460562     0.30991018     0.27665589
h     0.69008983     0.22469538     0.60998922
h     0.30991021     0.77530460     0.10998923
h     0.46539444     0.69008981     0.77665588
h     0.77530463     0.46539440     0.94332255
c     0.24829270     0.42113199     0.55746570
c     0.42113202     0.17283932     0.39079903
c     0.82716069     0.24829265     0.72413237
c     0.17283935     0.75170733     0.22413238
c     0.57886804     0.82716067     0.89079903
c     0.75170736     0.57886800     0.05746570
h     0.07960556     0.29736326     0.57727068
h     0.29736330     0.21775773     0.41060401
h     0.78224228     0.07960551     0.74393735
h     0.21775776     0.92039447     0.24393735
h     0.70263676     0.78224226     0.91060401
h     0.92039449     0.70263673     0.07727068
h     0.40579308     0.40681377     0.57169140
h     0.40681381     0.00102072     0.40502474
h     0.99897929     0.40579303     0.73835807
h     0.00102075     0.59420695     0.23835808
h     0.59318625     0.99897927     0.90502473
h     0.59420697     0.59318622     0.07169140

K_POINTS automatic
2 2 2 1 1 1

CELL_PARAMETERS cubic
   11.594485000000     0.000000000000     0.000000000000
   -5.797243000000    10.041119000000     0.000000000000
    0.000000000000     0.000000000000    55.903081000000
