&control
 title='crystal',
 prefix='crystal',
 pseudo_dir='../..',
 forc_conv_thr=1.0D-4,
 etot_conv_thr=1.0D-5,
/
&system
 ibrav=0,
 nat=    40,
 ntyp=  4,
 ecutwfc=80.0,
 ecutrho=800.0,
 vdw_corr='xdm',
 nosym=.true.,
/
&electrons
 conv_thr = 1d-10,
/
&ions
/
&cell
 press_conv_thr=0.01,
/
ATOMIC_SPECIES
C    12.010700 c.UPF
N    14.006700 n.UPF
O    15.999400 o.UPF
H     1.007940 h.UPF

ATOMIC_POSITIONS crystal
C             0.0407616840        0.8290039673        0.8936297838
C             0.4592392252        0.3290033289        0.6063702238
C             0.8814558470        0.7904820891        0.0050003390
C             0.6185446851        0.2904821475        0.4949997748
C             0.6632266689        0.7328821649        0.9223908611
C             0.8367735130        0.2328821943        0.5776094294
C             0.9592203500        0.1706589289        0.1063515499
C             0.5407809179        0.6706573611        0.3936486126
C             0.1185689157        0.2091631691        0.9950104340
C             0.3814315205        0.7091631033        0.5049896508
C             0.3368121895        0.2666246208        0.0776643530
C             0.1631882569        0.7666246843        0.4223357474
N             0.1383600132        0.0243806667        0.8934690772
N             0.3616395188        0.5243818636        0.6065312617
N             0.8615881750        0.9752991268        0.1064969643
N             0.6384108193        0.4753007955        0.3935038641
O             0.0716118897        0.6775839196        0.8039277626
O             0.4283884571        0.1775842740        0.6960723172
O             0.9283611812        0.3220793544        0.1960507310
O             0.5716393610        0.8220797631        0.3039492713
H             0.2395038807        0.0543066529        0.8133208555
H             0.2604966551        0.5543067064        0.6866789497
H             0.9386604752        0.6464171271        0.0726987223
H             0.5613398193        0.1464173123        0.4273014695
H             0.6049450162        0.8674916833        0.8473717234
H             0.8950552641        0.3674919103        0.6526284601
H             0.5490405741        0.7057075905        0.0036119198
H             0.9509596683        0.2057078584        0.4963881932
H             0.6750196495        0.5818938902        0.8572027016
H             0.8249805971        0.0818942011        0.6427974539
H             0.7604719339        0.9453627577        0.1866599318
H             0.7395291438        0.4453627290        0.3133398487
H             0.0614391576        0.3532949688        0.9273526008
H             0.4385612911        0.8532951484        0.5726475683
H             0.3950300325        0.1319408607        0.1526423249
H             0.1049705529        0.6319408661        0.3473577532
H             0.4510282967        0.2938285241        0.9964660034
H             0.0489722981        0.7938285167        0.5035341235
H             0.3250490085        0.4175609007        0.1429138783
H             0.1749515563        0.9175609520        0.3570862291

K_POINTS automatic
4 4 3  1 1 1

CELL_PARAMETERS bohr
  11.940233145  -0.000000225  -0.000317104
  -0.000000224  11.443113416  -0.000001257
  -1.869193556  -0.000001805  16.916778450
