&control
 title='crystal',
 prefix='crystal',
 pseudo_dir='..',
/
&system
 ibrav=1,
 celldm(1)=40,
 nat=2,
 ntyp=1,
 ecutwfc=80.0,
 ecutrho=800.0,
 xdm=.true.,
 xdm_a1=0.6754,
 xdm_a2=1.4651,
 input_dft='b86bpbex',
 exx_fraction=0.25,
/
&electrons
 conv_thr = 1d-8,
/
ATOMIC_SPECIES
I   126.904470 i.UPF

ATOMIC_POSITIONS angstrom
I        0.000000000  -0.717013833   8.659254272
I        0.000000000   0.717013833  10.943545728

K_POINTS gamma

