&control
 title='crystal',
 prefix='crystal',
 pseudo_dir='..',
/
&system
 ibrav=0,
 celldm(1)=1.0,
 nat=8,
 ntyp=1,
 ecutwfc=80.0,
 ecutrho=800.0,
 xdm=.true.,
 xdm_a1=0.6754,
 xdm_a2=1.4651,
 input_dft='b86bpbex',
 exx_fraction=0.25,
/
&electrons
 conv_thr = 1d-8,
/
ATOMIC_SPECIES
i   126.904470 i.UPF

ATOMIC_POSITIONS crystal
i        0.000000000   0.000000000   0.000000000
i        0.500000000   0.500000000  -0.000000000
i        0.000000000  -0.000000000   0.500000000
i        0.500000000   0.500000000   0.500000000
i        0.000000000   0.628153719   0.249990452
i        0.500000000   0.128145674   0.250007602
i        0.000000000   0.371846281   0.750009548
i        0.500000000   0.871854326   0.749992398

K_POINTS automatic
6 6 6 1 1 1

CELL_PARAMETERS 
  13.468704431   0.000000000   0.000000000
   0.000000000   8.927757880   0.000028730
   0.000000000   0.000053901  17.872539714
