&control
 title='crystal',
 prefix='crystal',
 pseudo_dir='.',
 calculation='vc-relax',
/
&system
 ibrav=0,
 celldm(1)=1.0,
 nat=    78,
 ntyp=  5,
 ecutwfc=60.0,
 ecutrho=600.0,
 xdm=.true.,
 xdm_a1=0.4073,
 xdm_a2=2.4150,
/
&electrons
 conv_thr = 1d-8,
/
&ions
/
&cell
/
ATOMIC_SPECIES
h      1.007940 h.UPF
c     12.010700 c.UPF
n     14.006700 n.UPF
o     15.999400 o.UPF
s     32.065000 s.UPF

ATOMIC_POSITIONS crystal
s     0.34814070     0.19843259     0.21964661
s     0.65185930     0.80156744     0.78035341
o     0.22645601     0.08578894     0.61089204
o     0.77354399     0.91421109     0.38910798
h     0.20185238     0.19603707     0.65577692
h     0.79814763     0.80396296     0.34422310
o     0.11580777     0.94496253     0.72024676
o     0.88419224     0.05503750     0.27975325
o     0.93218964     0.77418076     0.17292193
o     0.06781036     0.22581926     0.82707808
h     0.89753149     0.89015824     0.21556091
h     0.10246851     0.10984179     0.78443910
o     0.85122570     0.61656749     0.28534590
o     0.14877431     0.38343254     0.71465412
o     0.44234253     0.25742674     0.14650975
o     0.55765748     0.74257328     0.85349026
o     0.43803584     0.99075933     0.25252769
o     0.56196417     0.00924069     0.74747232
n     0.11434832     0.24736807     0.19575732
n     0.88565168     0.75263195     0.80424269
h     0.04071035     0.18244990     0.23544021
h     0.95928965     0.81755013     0.76455980
c     0.17750769     0.94307543     0.64355216
c     0.82249231     0.05692459     0.35644785
c     0.19686461     0.78000961     0.58672591
c     0.80313540     0.21999042     0.41327410
h     0.16176090     0.66195405     0.61677716
h     0.83823910     0.33804598     0.38322286
c     0.25778141     0.77691492     0.50357467
c     0.74221860     0.22308510     0.49642535
h     0.29277191     0.90154557     0.48113919
h     0.70722809     0.09845446     0.51886082
c     0.28232747     0.62837263     0.43893270
c     0.71767253     0.37162739     0.56106731
c     0.34204229     0.66360008     0.35566605
c     0.65795771     0.33639994     0.64433396
h     0.37048868     0.79617524     0.34206126
h     0.62951132     0.20382478     0.65793875
c     0.36489065     0.53184500     0.28919193
c     0.63510935     0.46815503     0.71080808
h     0.40796024     0.56215801     0.22471506
h     0.59203976     0.43784202     0.77528495
c     0.33038815     0.36078380     0.30620745
c     0.66961185     0.63921622     0.69379256
c     0.27385216     0.32034875     0.38910049
c     0.72614784     0.67965128     0.61089953
h     0.24962991     0.18498960     0.40157341
h     0.75037010     0.81501042     0.59842661
c     0.24977653     0.45322689     0.45497250
c     0.75022347     0.54677313     0.54502751
h     0.20676006     0.42027018     0.51914366
h     0.79323994     0.57972985     0.48085635
c     0.91438410     0.61861597     0.21005658
c     0.08561590     0.38138405     0.78994343
c     0.98399334     0.43460300     0.15157548
c     0.01600666     0.56539702     0.84842453
h     0.07453718     0.45781861     0.09770155
h     0.92546282     0.54218142     0.90229847
c     0.79850908     0.41100593     0.11780106
c     0.20149092     0.58899410     0.88219896
h     0.72698838     0.36699321     0.17322482
h     0.27301162     0.63300682     0.82677520
c     0.63941562     0.61076144     0.08175126
c     0.36058438     0.38923858     0.91824875
h     0.70176613     0.66452529     0.02633080
h     0.29823387     0.33547473     0.97366922
h     0.57919632     0.73302151     0.12922443
h     0.42080368     0.26697851     0.87077559
h     0.50996451     0.58673813     0.06034449
h     0.49003549     0.41326189     0.93965552
c     0.87097977     0.24001602     0.05208383
c     0.12902023     0.75998401     0.94791618
h     0.74124800     0.21154710     0.03468819
h     0.25875201     0.78845292     0.96531182
h     0.98760814     0.09781264     0.07719393
h     0.01239186     0.90218738     0.92280608
h     0.93679498     0.27930185     0.99365992
h     0.06320502     0.72069817     0.00634010

K_POINTS automatic
2 2 2 1 1 1

CELL_PARAMETERS cubic
   13.690249000000     0.073368000000     0.086308000000
    5.912600000000    12.473094000000     0.025542000000
    1.308006000000     0.180102000000    29.534024000000
