&control
 title='crystal',
 prefix='crystal',
 pseudo_dir='../..',
 forc_conv_thr=1.0D-4,
 etot_conv_thr=1.0D-5,
/
&system
 ibrav=0,
 nat=    28,
 ntyp=  3,
 ecutwfc=80.0,
 ecutrho=800.0,
 vdw_corr='xdm',
 nosym=.true.,
/
&electrons
 conv_thr = 1d-10,
/
&ions
/
&cell
 press_conv_thr=0.01,
/
ATOMIC_SPECIES
O    15.999400 o.UPF
C    12.010700 c.UPF
H     1.007940 h.UPF

ATOMIC_POSITIONS crystal
O             0.4065967603        0.2040325512        0.4644847701
O             0.5548188664        0.1502292271        0.8042999771
O             0.5933869097        0.7958935176        0.5351950331
O             0.4451696314        0.8497030252        0.1953819670
C             0.4750143394        0.2578990406        0.7093205870
C             0.4431409016        0.4605708253        0.8632794161
C             0.5249596533        0.7420259760        0.2903615353
C             0.5568087962        0.5393426801        0.1364024357
H             0.4267939658        0.0620662176        0.3662009428
H             0.2744586129        0.4388790081        0.8538767645
H             0.4902288611        0.5706256416        0.7699540516
H             0.5732006542        0.9378639784        0.6334794157
H             0.7254898155        0.5610207978        0.1458103959
H             0.5097072095        0.4292887523        0.2297246691
O             0.9027442504        0.2457830839        0.4879477851
O             0.0538027978        0.3791015525        0.2224968474
O             0.0972145398        0.7539564893        0.5115824636
O             0.9461319487        0.6206468381        0.7770252045
C             0.9737647997        0.2294359617        0.2774394331
C             0.9443326499        0.0104715853        0.1097732206
C             0.0261962739        0.7703106455        0.7220925138
C             0.0556584322        0.9892774286        0.8897713594
H             0.9219813070        0.3974744244        0.5972991710
H             0.7755670415        0.9445215241        0.0427076095
H             0.9947042176        0.9267828270        0.2267404631
H             0.0779590341        0.6022605858        0.4022240954
H             0.2244262416        0.0552123758        0.9568336154
H             0.0052980086        0.0729741291        0.7728090274

K_POINTS automatic
4 4 5  1 1 1

CELL_PARAMETERS bohr
  12.653142364   0.001174295   0.005291221
  -2.808226058  13.157785888   0.003621326
  -1.255124740  -3.826425344  10.010444895
