&control
 title='crystal',
 prefix='crystal',
 pseudo_dir='.',
 calculation='vc-relax',
/
&system
 ibrav=0,
 celldm(1)=1.0,
 nat=    72,
 ntyp=  5,
 ecutwfc=60.0,
 ecutrho=600.0,
 xdm=.true.,
 xdm_a1=0.4073,
 xdm_a2=2.4150,
/
&electrons
 conv_thr = 1d-8,
/
&ions
/
&cell
/
ATOMIC_SPECIES
h      1.007940 h.UPF
c     12.010700 c.UPF
n     14.006700 n.UPF
o     15.999400 o.UPF
cl    35.453000 cl.UPF

ATOMIC_POSITIONS crystal
cl    0.12840772     0.02199873     0.81077271
cl    0.87159228     0.97800128     0.18922735
cl    0.68458921     0.76856425     0.77454816
cl    0.31541079     0.23143577     0.22545190
o     0.46853909     0.89575187     0.83725354
o     0.53146091     0.10424814     0.16274652
o     0.16887453     0.87482439     0.45259340
o     0.83112547     0.12517562     0.54740666
o     0.04367025     0.71494167     0.87243917
o     0.95632975     0.28505834     0.12756089
o     0.88520467     0.68138188     0.49716746
o     0.11479533     0.31861814     0.50283260
n     0.29692316     0.80105104     0.04865304
n     0.70307684     0.19894898     0.95134701
n     0.35734800     0.94542128     0.21065935
n     0.64265200     0.05457873     0.78934070
c     0.14549368     0.68801029     0.69247740
c     0.85450632     0.31198972     0.30752265
c     0.11994482     0.59141318     0.66282780
c     0.88005518     0.40858683     0.33717225
c     0.22061345     0.57646927     0.87938810
c     0.77938655     0.42353074     0.12061195
c     0.22975192     0.49967011     0.96560396
c     0.77024808     0.50032991     0.03439609
c     0.33493926     0.50075022     0.16711869
c     0.66506074     0.49924979     0.83288136
c     0.42954376     0.57731726     0.28048968
c     0.57045624     0.42268275     0.71951038
c     0.42107769     0.65397757     0.19169826
c     0.57892231     0.34602244     0.80830180
c     0.31603117     0.65269014     0.99103990
c     0.68396883     0.34730987     0.00896016
c     0.29120563     0.72633201     0.85240661
c     0.70879437     0.27366800     0.14759345
c     0.37774872     0.87906465     0.01835880
c     0.62225128     0.12093537     0.98164126
c     0.25507406     0.94082764     0.40551866
c     0.74492594     0.05917237     0.59448139
c     0.25927655     0.02802017     0.55645242
c     0.74072345     0.97197984     0.44354764
c     0.92133874     0.71349672     0.73995142
c     0.07866126     0.28650329     0.26004864
c     0.84055515     0.75826544     0.94098591
c     0.15944485     0.24173457     0.05901415
h     0.22068052     0.79955606     0.19370597
h     0.77931948     0.20044395     0.80629409
h     0.42355372     0.00515415     0.18580941
h     0.57644628     0.99484586     0.81419064
h     0.13876663     0.71226414     0.48859753
h     0.86123337     0.28773587     0.51140253
h     0.01019151     0.55943745     0.69511764
h     0.98980849     0.44056256     0.30488242
h     0.14279251     0.56900951     0.44656159
h     0.85720749     0.43099051     0.55343846
h     0.15772619     0.43993821     0.87351742
h     0.84227381     0.56006180     0.12648263
h     0.34356643     0.44132668     0.23598568
h     0.65643357     0.55867333     0.76401437
h     0.51135098     0.57748248     0.43641595
h     0.48864902     0.42251753     0.56358411
h     0.49649304     0.71344095     0.27484312
h     0.50350696     0.28655907     0.72515694
h     0.37006635     0.74563150     0.69473823
h     0.62993365     0.25436852     0.30526183
h     0.36139807     0.05758748     0.66711473
h     0.63860193     0.94241253     0.33288533
h     0.24265525     0.06952431     0.40087420
h     0.75734475     0.93047571     0.59912586
h     0.90605656     0.82209966     0.01682366
h     0.09394344     0.17790036     0.98317640
h     0.81298858     0.72401501     0.12719367
h     0.18701143     0.27598500     0.87280639

K_POINTS automatic
2 2 2 1 1 1

CELL_PARAMETERS cubic
   18.750838000000     0.089519000000    -0.002911000000
   -8.552315000000    29.932022000000    -0.104672000000
   -0.139945000000    -1.010629000000     8.885330000000
