&control
 title='crystal',
 prefix='crystal',
 pseudo_dir='.',
 calculation='vc-relax',
/
&system
 ibrav=0,
 celldm(1)=1.0,
 nat=    46,
 ntyp=  5,
 ecutwfc=60.0,
 ecutrho=600.0,
 xdm=.true.,
 xdm_a1=0.4073,
 xdm_a2=2.4150,
/
&electrons
 conv_thr = 1d-8,
/
&ions
/
&cell
/
ATOMIC_SPECIES
h      1.007940 h.UPF
c     12.010700 c.UPF
n     14.006700 n.UPF
o     15.999400 o.UPF
s     32.065000 s.UPF

ATOMIC_POSITIONS crystal
s     0.22388043     0.62816534     0.17572013
s     0.77611958     0.37183467     0.82427989
o     0.33416674     0.77863309     0.12954565
o     0.66583327     0.22136692     0.87045437
o     0.95132083     0.62098937     0.21098299
o     0.04867918     0.37901064     0.78901703
o     0.23902607     0.46656304     0.07724474
o     0.76097395     0.53343697     0.92275528
n     0.43008886     0.58067483     0.28815650
n     0.56991115     0.41932517     0.71184352
c     0.38817162     0.33965691     0.12830286
c     0.61182840     0.66034309     0.87169716
h     0.57470518     0.34026303     0.08429054
h     0.42529483     0.65973698     0.91570948
c     0.20926918     0.17209269     0.10970588
c     0.79073084     0.82790731     0.89029414
h     0.06526606     0.16185745     0.02888370
h     0.93473395     0.83814255     0.97111632
h     0.33405493     0.06948463     0.09590873
h     0.66594509     0.93051537     0.90409129
c     0.20238820     0.29503516     0.31618953
c     0.79761181     0.70496484     0.68381049
c     0.07855776     0.16766696     0.22680121
c     0.92144226     0.83233304     0.77319880
c     0.43088555     0.39659854     0.26799358
c     0.56911447     0.60340146     0.73200644
h     0.62793217     0.37044090     0.30614013
h     0.37206784     0.62955910     0.69385989
c     0.86607972     0.05591579     0.25318142
c     0.13392029     0.94408421     0.74681860
h     0.76823884     0.95591941     0.18478839
h     0.23176118     0.04408059     0.81521163
c     0.11681189     0.31316400     0.43241348
c     0.88318812     0.68683600     0.56758654
h     0.21277009     0.41356387     0.50095165
h     0.78722992     0.58643614     0.49904837
c     0.90328359     0.20175978     0.45876575
c     0.09671642     0.79824022     0.54123427
h     0.83258471     0.21561855     0.54878586
h     0.16741530     0.78438146     0.45121415
c     0.77928900     0.07402004     0.36961727
c     0.22071102     0.92597996     0.63038275
h     0.61218635     0.98832022     0.39093948
h     0.38781367     0.01167978     0.60906054
h     0.61949825     0.63758836     0.27836932
h     0.38050176     0.36241164     0.72163070

K_POINTS automatic
2 2 2 1 1 1

CELL_PARAMETERS cubic
    9.484050000000     0.070613000000    -0.052476000000
   -1.788549000000    15.203981000000    -0.028922000000
   -1.577635000000    -2.644555000000    20.805966000000
