&control
 title='crystal',
 prefix='crystal',
 pseudo_dir='.',
 calculation='vc-relax',
/
&system
 ibrav=0,
 celldm(1)=1.0,
 nat=    96,
 ntyp=  4,
 ecutwfc=60.0,
 ecutrho=600.0,
 xdm=.true.,
 xdm_a1=0.4073,
 xdm_a2=2.4150,
/
&electrons
 conv_thr = 1d-8,
/
&ions
/
&cell
/
ATOMIC_SPECIES
h      1.007940 h.UPF
c     12.010700 c.UPF
n     14.006700 n.UPF
o     15.999400 o.UPF

ATOMIC_POSITIONS crystal
o     0.90475489     0.74639393     0.78972087
o     0.40475487     0.75360608     0.21027913
o     0.09524515     0.24639393     0.71027913
o     0.59524516     0.25360608     0.28972087
n     0.87520829     0.51486194     0.73022812
n     0.37520827     0.98513806     0.26977187
n     0.12479175     0.01486194     0.76977187
n     0.62479176     0.48513806     0.23022812
h     0.93685048     0.41281217     0.72997995
h     0.43685046     0.08718783     0.27002005
h     0.06314955     0.91281217     0.77002005
h     0.56314957     0.58718783     0.22997995
o     0.37758759     0.41897364     0.63736725
o     0.87758757     0.08102637     0.36263275
o     0.62241244     0.91897364     0.86263275
o     0.12241246     0.58102637     0.13736725
h     0.28182496     0.34234629     0.66404809
h     0.78182495     0.15765372     0.33595190
h     0.71817507     0.84234629     0.83595190
h     0.21817509     0.65765372     0.16404809
o     0.57415217     0.32789265     0.76461761
o     0.07415216     0.17210735     0.23538238
o     0.42584786     0.82789265     0.73538238
o     0.92584788     0.67210735     0.26461761
c     0.96712848     0.61737478     0.78596538
c     0.46712846     0.88262523     0.21403461
c     0.03287155     0.11737478     0.71403461
c     0.53287157     0.38262523     0.28596538
c     0.73655889     0.55026762     0.55165129
c     0.23655888     0.94973239     0.44834871
c     0.26344114     0.05026762     0.94834871
c     0.76344115     0.44973239     0.05165129
h     0.58914287     0.57030816     0.51548092
h     0.08914286     0.92969185     0.48451908
h     0.41085716     0.07030816     0.98451908
h     0.91085718     0.42969185     0.01548092
c     0.15221394     0.57201312     0.84498462
c     0.65221393     0.92798688     0.15501538
c     0.84778609     0.07201312     0.65501538
c     0.34778611     0.42798688     0.34498462
h     0.18684306     0.45741959     0.83528754
h     0.68684304     0.04258042     0.16471246
h     0.81315697     0.95741959     0.66471246
h     0.31315699     0.54258042     0.33528754
h     0.12973565     0.59517654     0.92741486
h     0.62973563     0.90482347     0.07258513
h     0.87026438     0.09517654     0.57258513
h     0.37026440     0.40482347     0.42741486
h     0.28009699     0.63707043     0.81813283
h     0.78009697     0.86292957     0.18186717
h     0.71990305     0.13707043     0.68186717
h     0.21990306     0.36292957     0.31813283
c     0.54438352     0.41691842     0.69580520
c     0.04438350     0.08308158     0.30419480
c     0.45561652     0.91691842     0.80419480
c     0.95561653     0.58308158     0.19580520
c     0.69297805     0.53715688     0.66934628
c     0.19297803     0.96284312     0.33065372
c     0.30702198     0.03715688     0.83065372
c     0.80702200     0.46284312     0.16934628
h     0.62369175     0.63932149     0.69479645
h     0.12369173     0.86067852     0.30520354
h     0.37630828     0.13932149     0.80520354
h     0.87630830     0.36067852     0.19479645
c     0.82600610     0.41188077     0.50594849
c     0.32600609     0.08811924     0.49405151
c     0.17399393     0.91188077     0.99405151
c     0.67399394     0.58811924     0.00594849
h     0.72231937     0.31995771     0.51299710
h     0.22231936     0.18004230     0.48700289
h     0.27768066     0.81995771     0.98700289
h     0.77768068     0.68004230     0.01299710
h     0.96811588     0.38266933     0.54428631
h     0.46811586     0.11733068     0.45571368
h     0.03188415     0.88266933     0.95571368
h     0.53188417     0.61733068     0.04428631
h     0.85864222     0.42765481     0.42353729
h     0.35864220     0.07234520     0.57646270
h     0.14135781     0.92765481     0.07646270
h     0.64135783     0.57234520     0.92353729
c     0.87287718     0.68000697     0.53025336
c     0.37287717     0.81999304     0.46974663
c     0.12712285     0.18000697     0.96974663
c     0.62712286     0.31999304     0.03025336
h     0.80558140     0.77990996     0.55981814
h     0.30558139     0.72009004     0.44018185
h     0.19441863     0.27990996     0.94018185
h     0.69441864     0.22009004     0.05981814
h     0.89591451     0.69198291     0.44669665
h     0.39591449     0.80801710     0.55330335
h     0.10408553     0.19198291     0.05330335
h     0.60408554     0.30801710     0.94669665
h     0.02132233     0.66628365     0.56682104
h     0.52132231     0.83371636     0.43317896
h     0.97867770     0.16628365     0.93317896
h     0.47867772     0.33371636     0.06682104

K_POINTS automatic
2 2 2 1 1 1

CELL_PARAMETERS cubic
   12.508502000000     0.000000000000     0.000000000000
    0.000000000000    17.494173000000     0.000000000000
    0.000000000000     0.000000000000    24.406549000000
