&control
 title='crystal',
 prefix='crystal',
 pseudo_dir='.',
 calculation='vc-relax',
/
&system
 ibrav=0,
 celldm(1)=1.0,
 nat=   124,
 ntyp=  3,
 ecutwfc=60.0,
 ecutrho=600.0,
 xdm=.true.,
 xdm_a1=0.4073,
 xdm_a2=2.4150,
/
&electrons
 conv_thr = 1d-8,
/
&ions
/
&cell
/
ATOMIC_SPECIES
h      1.007940 h.UPF
c     12.010700 c.UPF
o     15.999400 o.UPF

ATOMIC_POSITIONS crystal
o     0.22354778     0.88758735     0.77911573
o     0.77645221     0.11241267     0.22088427
o     0.72354781     0.61241267     0.27911574
o     0.27645219     0.38758734     0.72088426
o     0.73590768     0.87834283     0.79470753
o     0.26409231     0.12165719     0.20529247
o     0.23590772     0.62165720     0.29470754
o     0.76409228     0.37834282     0.70529246
o     0.17101233     0.88630548     0.97800517
o     0.82898766     0.11369454     0.02199482
o     0.67101236     0.61369455     0.47800519
o     0.32898764     0.38630547     0.52199481
o     0.07104874     0.64153932     0.02835992
o     0.92895126     0.35846070     0.97164007
o     0.57104877     0.85846071     0.52835994
o     0.42895123     0.14153931     0.47164006
o     0.05134852     0.50708983     0.82438358
o     0.94865147     0.49291019     0.17561642
o     0.55134855     0.99291019     0.32438359
o     0.44865145     0.00708982     0.67561641
o     0.82229401     0.67918208     0.68734297
o     0.17770598     0.32081794     0.31265703
o     0.32229404     0.82081795     0.18734298
o     0.67770596     0.17918207     0.81265702
c     0.03352242     0.85975839     0.73924649
c     0.96647757     0.14024163     0.26075351
c     0.53352245     0.64024163     0.23924650
c     0.46647755     0.35975838     0.76075350
c     0.92445364     0.90906394     0.82531553
c     0.07554635     0.09093608     0.17468447
c     0.42445368     0.59093609     0.32531554
c     0.57554632     0.40906393     0.67468446
c     0.99078081     0.84073942     0.93606902
c     0.00921918     0.15926060     0.06393098
c     0.49078084     0.65926060     0.43606903
c     0.50921916     0.34073941     0.56393097
c     0.98617972     0.69312179     0.92496085
c     0.01382028     0.30687823     0.07503914
c     0.48617975     0.80687823     0.42496087
c     0.51382025     0.19312178     0.57503913
c     0.08199585     0.64301414     0.83353647
c     0.91800414     0.35698588     0.16646353
c     0.58199589     0.85698589     0.33353648
c     0.41800411     0.14301413     0.66646352
c     0.01189751     0.71158087     0.72411077
c     0.98810248     0.28841915     0.27588923
c     0.51189755     0.78841915     0.22411078
c     0.48810245     0.21158086     0.77588922
c     0.10915099     0.68581015     0.62783432
c     0.89084900     0.31418988     0.37216567
c     0.60915102     0.81418988     0.12783434
c     0.39084898     0.18581014     0.87216566
c     0.06603379     0.80561093     0.55242730
c     0.93396620     0.19438909     0.44757270
c     0.56603383     0.69438909     0.05242731
c     0.43396617     0.30561092     0.94757269
c     0.98836134     0.90932136     0.62138419
c     0.01163865     0.09067866     0.37861581
c     0.48836137     0.59067867     0.12138420
c     0.51163863     0.40932135     0.87861580
h     0.24414056     0.88819237     0.86149662
h     0.75585943     0.11180765     0.13850338
h     0.74414059     0.61180766     0.36149663
h     0.25585941     0.38819236     0.63850337
h     0.66376167     0.95081726     0.75772383
h     0.33623832     0.04918276     0.24227617
h     0.16376170     0.54918277     0.25772384
h     0.83623830     0.45081725     0.74227616
h     0.22097206     0.84734358     0.05124850
h     0.77902793     0.15265644     0.94875150
h     0.72097209     0.65265645     0.55124851
h     0.27902791     0.34734357     0.44875149
h     0.99134533     0.58525539     0.06273628
h     0.00865467     0.41474463     0.93726371
h     0.49134536     0.91474464     0.56273629
h     0.50865464     0.08525538     0.43726371
h     0.14324085     0.46607077     0.78548935
h     0.85675914     0.53392925     0.21451065
h     0.64324089     0.03392925     0.28548936
h     0.35675911     0.96607076     0.71451064
h     0.75132513     0.74765309     0.71675889
h     0.24867486     0.25234693     0.28324111
h     0.25132516     0.75234694     0.21675890
h     0.74867484     0.24765308     0.78324110
h     0.94312813     0.01316777     0.83665547
h     0.05687186     0.98683225     0.16334453
h     0.44312816     0.48683226     0.33665548
h     0.55687184     0.51316776     0.66334452
h     0.90022282     0.86870711     0.99256673
h     0.09977717     0.13129291     0.00743326
h     0.40022285     0.63129291     0.49256674
h     0.59977715     0.36870710     0.50743326
h     0.84362177     0.66312843     0.90431151
h     0.15637822     0.33687159     0.09568848
h     0.34362180     0.83687159     0.40431153
h     0.65637820     0.16312842     0.59568847
h     0.22804439     0.66118341     0.85770851
h     0.77195561     0.33881661     0.14229148
h     0.72804442     0.83881661     0.35770852
h     0.27195558     0.16118340     0.64229148
h     0.06305140     0.59578332     0.58586283
h     0.93694859     0.40421670     0.41413716
h     0.56305143     0.90421670     0.08586285
h     0.43694857     0.09578331     0.91413715
h     0.25507258     0.67723568     0.65845773
h     0.74492741     0.32276434     0.34154226
h     0.75507261     0.82276435     0.15845775
h     0.24492739     0.17723567     0.84154225
h     0.18834100     0.84017370     0.52563336
h     0.81165899     0.15982632     0.47436664
h     0.68834103     0.65982632     0.02563337
h     0.31165897     0.34017369     0.97436663
h     0.96863375     0.78198183     0.47767300
h     0.03136624     0.21801819     0.52232700
h     0.46863378     0.71801819     0.97767301
h     0.53136622     0.28198182     0.02232699
h     0.04795951     0.00450110     0.61539848
h     0.95204048     0.99549892     0.38460151
h     0.54795955     0.49549892     0.11539849
h     0.45204045     0.50450109     0.88460151
h     0.84176885     0.91717975     0.59460701
h     0.15823114     0.08282027     0.40539299
h     0.34176888     0.58282028     0.09460702
h     0.65823112     0.41717974     0.90539298

K_POINTS automatic
2 2 2 1 1 1

CELL_PARAMETERS cubic
   14.204376000000     0.000000000000    -0.078169000000
    0.000000000000    19.665395000000     0.000000000000
   -4.145387000000     0.000000000000    22.947104000000
