%nprocs=4
%mem=4GB
#p pbepbe aug-cc-pvtz output=wfx scf=(conver=6) int=(grid=ultrafine)

title

0 1
o 0.000000000000000 0.000000000000000 -0.389049880433992
h 0.758612141465994 0.000000000000000 0.194524940216993
h -0.758612141465994 0.000000000000000 0.194524940216993

02a.wfx

