%nprocs=4
%mem=4GB
#p pbepbe aug-cc-pvtz output=wfx scf=(conver=6) int=(grid=ultrafine)

title

0 1
o 0.000000000000000 0.000000000000000 -0.392738190743374
h -0.760068604112101 0.000000000000000 0.196369095371687
h 0.760068604112101 0.000000000000000 0.196369095371687

02b.wfx

