%nprocs=4
%mem=4GB
#p pbepbe aug-cc-pvtz output=wfx scf=(conver=6) int=(grid=ultrafine)

title

0 1
n -1.951783717438065 0.561067052876832 0.000000000000000
n -0.033329245121479 2.023688798410834 0.000000000000000
n 1.202121378774842 -1.346379040200852 0.000000000000000
n 2.043243447921477 0.739745380631218 0.000000000000000
n -1.815491339112292 -1.757387495137397 0.000000000000000
c -1.337577429530854 1.763246322246769 0.000000000000000
c 0.188215845611192 -0.416976992323302 0.000000000000000
c 2.296732332267951 -0.604293156313754 0.000000000000000
c 0.678167998537666 0.888725446675898 0.000000000000000
c -1.212826327361000 -0.560267161355434 0.000000000000000
h -2.007236672331203 2.613998238391101 0.000000000000000
h 3.302140402438866 -0.990778107862131 0.000000000000000
h 2.717433022917473 1.486934425753126 0.000000000000000
h -2.827788103027497 -1.821739081317451 0.000000000000000
h -1.242021594547078 -2.579584630475454 0.000000000000000

07a.wfx

