%nprocs=4
%mem=4GB
#p pbepbe aug-cc-pvtz output=wfx scf=(conver=6) int=(grid=ultrafine)

title

0 1
c 0.000000000000000 0.000000000000000 -1.859161538188602
c 0.000000000000000 0.000000000000000 1.859161538188602
h 0.888621326386229 -0.513045761996731 -1.494593135031698
h 0.000000000000000 1.026091523993461 -1.494593135031698
h 0.000000000000000 0.000000000000000 -2.948284714984098
h -0.888621326386229 -0.513045761996731 -1.494593135031698
h 0.000000000000000 0.000000000000000 2.948284714984098
h -0.888621326386229 0.513045761996731 1.494593135031698
h 0.888621326386229 0.513045761996731 1.494593135031698
h 0.000000000000000 -1.026091523993461 1.494593135031698

08.wfx

