%nprocs=4
%mem=4GB
#p pbepbe aug-cc-pvtz output=wfx scf=(conver=6) int=(grid=ultrafine)

title

0 1
c -0.471925147865332 -0.471925147865332 -1.859111574954831
c 0.471925147865332 0.471925147865332 -1.859111574954831
c -0.471925147865332 0.471925147865332 1.859111574954831
c 0.471925147865332 -0.471925147865332 1.859111574954831
h -0.870464262706523 -0.870464262706523 -2.783308727583549
h 0.870464262706523 0.870464262706523 -2.783308727583549
h -0.872422227865966 -0.872422227865966 -0.936125234339468
h 0.872422227865966 0.872422227865966 -0.936125234339468
h -0.872422227865966 0.872422227865966 0.936125234339468
h 0.872422227865966 -0.872422227865966 0.936125234339468
h -0.870464262706523 0.870464262706523 2.783308727583549
h 0.870464262706523 -0.870464262706523 2.783308727583549

09.wfx

