%nprocs=4
%mem=4GB
#p pbepbe aug-cc-pvtz output=wfx scf=(conver=6) int=(grid=ultrafine)

title

0 1
c -1.130649610340996 0.696138316879781 0.000000000000000
c -1.130649610340996 -0.696138316879781 0.000000000000000
c 1.130649610340996 -0.696138316879781 0.000000000000000
c 1.130649610340996 0.696138316879781 0.000000000000000
n 0.000000000000000 -1.414478617176061 0.000000000000000
n 0.000000000000000 1.414478617176061 0.000000000000000
h -2.062479888927069 1.247278851840842 0.000000000000000
h -2.062479888927069 -1.247278851840842 0.000000000000000
h 2.062479888927069 -1.247278851840842 0.000000000000000
h 2.062479888927069 1.247278851840842 0.000000000000000

12a.wfx

