%nprocs=4
%mem=4GB
#p pbepbe aug-cc-pvtz output=wfx scf=(conver=6) int=(grid=ultrafine)

title

0 1
c -0.667578545011343 0.000000000000000 0.000000000000000
c 0.667578545011343 0.000000000000000 0.000000000000000
h 1.232253470691542 0.923621190688446 0.000000000000000
h 1.232253470691542 -0.923621190688446 0.000000000000000
h -1.232253470691542 -0.923621190688446 0.000000000000000
h -1.232253470691542 0.923621190688446 0.000000000000000

16a.wfx

