%nprocs=4
%mem=4GB
#p pbepbe aug-cc-pvtz output=wfx scf=(conver=6) int=(grid=ultrafine)

title

0 1
h -0.750811363543667 0.000000000000000 0.198879120010615
h 0.750811363543667 0.000000000000000 0.198879120010615
o 0.000000000000000 0.000000000000000 -0.397758240021236

17b.wfx

