%nprocs=4
%mem=4GB
#p pbepbe aug-cc-pvtz output=wfx scf=(conver=6) int=(grid=ultrafine)

title

0 1
c -1.207128430991393 0.696935924579331 0.000000000000000
c -1.207128430991393 -0.696935924579331 0.000000000000000
c 0.000000000000000 -1.393871849158663 0.000000000000000
c 1.207128430991393 -0.696935924579331 0.000000000000000
c 1.207128430991393 0.696935924579331 0.000000000000000
c 0.000000000000000 1.393871849158663 0.000000000000000
h -2.143561608720591 1.237585871819383 0.000000000000000
h -2.143561608720591 -1.237585871819383 0.000000000000000
h 0.000000000000000 -2.475171743638760 0.000000000000000
h 2.143561608720591 -1.237585871819383 0.000000000000000
h 2.143561608720591 1.237585871819383 0.000000000000000
h 0.000000000000000 2.475171743638760 0.000000000000000

18a.wfx

