%nprocs=4
%mem=4GB
#p pbepbe aug-cc-pvtz output=wfx scf=(conver=6) int=(grid=ultrafine)

title

0 1
c -1.207742251693660 -0.697290314127021 0.000000000000000
c -1.207742251693660 0.697290314127021 0.000000000000000
c 0.000000000000000 1.394580628254041 0.000000000000000
c 1.207742251693660 0.697290314127021 0.000000000000000
c 1.207742251693660 -0.697290314127021 0.000000000000000
c 0.000000000000000 -1.394580628254041 0.000000000000000
h -2.144070737317083 1.237879817351618 0.000000000000000
h 0.000000000000000 2.475759634703237 0.000000000000000
h 2.144070737317083 1.237879817351618 0.000000000000000
h 2.144070737317083 -1.237879817351618 0.000000000000000
h 0.000000000000000 -2.475759634703237 0.000000000000000
h -2.144070737317083 -1.237879817351618 0.000000000000000

19a.wfx

