%nprocs=4
%mem=4GB
#p pbepbe aug-cc-pvtz output=wfx scf=(conver=6) int=(grid=ultrafine)

title

0 1
n 0.000000000000000 0.000000000000000 1.134185393272525
c 0.000000000000000 0.000000000000000 -0.033153229865034
h 0.000000000000000 0.000000000000000 -1.101032163407485

19b.wfx

