&control
 title='crystal',
 prefix='crystal',
 pseudo_dir='.',
 calculation='vc-relax',
/
&system
 ibrav=0,
 celldm(1)=1.0,
 nat=    44,
 ntyp=  2,
 ecutwfc=60.0,
 ecutrho=600.0,
 xdm=.true.,
 xdm_a1=0.4073,
 xdm_a2=2.4150,
/
&electrons
 conv_thr = 1d-8,
/
&ions
/
&cell
/
ATOMIC_SPECIES
h      1.007940 h.UPF
c     12.010700 c.UPF

ATOMIC_POSITIONS crystal
c     0.99462612     0.05321112     0.28313882
c     0.00537385     0.94678888     0.71686123
c     0.00534254     0.55321627     0.21683385
c     0.99465743     0.44678374     0.78316621
h     0.03545691     0.97015495     0.21315615
h     0.96454306     0.02984505     0.78684390
h     0.96450109     0.47015784     0.28681129
h     0.03549888     0.52984216     0.71318876
h     0.76188188     0.05454373     0.54788647
h     0.23811809     0.94545628     0.45211358
h     0.23809280     0.55455266     0.95208357
h     0.76190717     0.44544734     0.04791648
h     0.25105507     0.07854613     0.15994660
h     0.74894491     0.92145387     0.84005345
h     0.74892150     0.57855956     0.34002061
h     0.25107847     0.42144044     0.65997945
c     0.91322389     0.12613931     0.19288339
c     0.08677608     0.87386069     0.80711666
c     0.08674990     0.62613213     0.30709556
c     0.91325008     0.37386788     0.69290449
h     0.65407107     0.09958031     0.32084221
h     0.34592891     0.90041969     0.67915784
h     0.34590004     0.59956596     0.17913508
h     0.65409993     0.40043404     0.82086498
h     0.14029566     0.11796150     0.93013292
h     0.85970431     0.88203851     0.06986713
h     0.85967598     0.61794807     0.56984762
h     0.14032399     0.38205193     0.43015243
c     0.87522207     0.24332072     0.27177361
c     0.12477790     0.75667928     0.72822644
c     0.12475869     0.74331816     0.22822316
c     0.87524128     0.25668184     0.77177689
h     0.82726418     0.29474095     0.19713489
h     0.17273580     0.70525905     0.80286517
h     0.17271756     0.79472718     0.30287039
h     0.82728241     0.20527282     0.69712966
h     0.13253666     0.27153432     0.14423627
h     0.86746331     0.72846568     0.85576378
h     0.86744840     0.77153982     0.35576064
h     0.13255157     0.22846019     0.64423942
h     0.63908453     0.25538474     0.53533834
h     0.36091544     0.74461526     0.46466171
h     0.36090169     0.75538869     0.96465738
h     0.63909828     0.24461131     0.03534267

K_POINTS automatic
2 2 2 1 1 1

CELL_PARAMETERS cubic
   12.943891000000     0.000085000000     0.047498000000
    0.000160000000    23.683370000000     0.000033000000
   12.748282000000     0.000095000000     7.757567000000
