&control
 title='crystal',
 prefix='crystal',
 pseudo_dir='.',
 calculation='vc-relax',
/
&system
 ibrav=0,
 celldm(1)=1.0,
 nat=    44,
 ntyp=  2,
 ecutwfc=60.0,
 ecutrho=600.0,
 xdm=.true.,
 xdm_a1=0.4073,
 xdm_a2=2.4150,
/
&electrons
 conv_thr = 1d-8,
/
&ions
/
&cell
/
ATOMIC_SPECIES
h      1.007940 h.UPF
c     12.010700 c.UPF

ATOMIC_POSITIONS crystal
c     0.38582649     0.21408189     0.15438839
c     0.61417350     0.78591810     0.84561160
c     0.38582649     0.28591811     0.65438839
c     0.61417349     0.71408188     0.34561160
h     0.55250588     0.28241940     0.12727966
h     0.44749410     0.71758059     0.87272033
h     0.55250589     0.21758060     0.62727965
h     0.44749410     0.78241938     0.37272034
h     0.38007384     0.95067215     0.17139856
h     0.61992615     0.04932784     0.82860144
h     0.38007384     0.54932785     0.67139855
h     0.61992615     0.45067213     0.32860144
h     0.32559374     0.34447596     0.22521503
h     0.67440625     0.65552403     0.77478496
h     0.32559374     0.15552404     0.72521502
h     0.67440625     0.84447595     0.27478497
c     0.25546189     0.29629698     0.07799880
c     0.74453810     0.70370301     0.92200119
c     0.25546189     0.20370302     0.57799879
c     0.74453810     0.79629696     0.42200120
h     0.31893951     0.16370410     0.00770717
h     0.68106048     0.83629588     0.99229282
h     0.31893952     0.33629590     0.50770716
h     0.68106047     0.66370409     0.49229283
h     0.27386244     0.55819278     0.05883679
h     0.72613755     0.44180721     0.94116321
h     0.27386244     0.94180722     0.55883678
h     0.72613755     0.05819277     0.44116321
c     0.02077064     0.21629982     0.11562649
c     0.97922935     0.78370016     0.88437350
c     0.02077064     0.28370018     0.61562648
c     0.97922935     0.71629981     0.38437351
h     0.92968235     0.28098731     0.06027807
h     0.07031764     0.71901267     0.93972192
h     0.92968236     0.21901269     0.56027806
h     0.07031763     0.78098730     0.43972193
h     0.95243161     0.35039502     0.18488398
h     0.04756838     0.64960497     0.81511601
h     0.95243161     0.14960498     0.68488397
h     0.04756838     0.85039501     0.31511602
h     0.99637282     0.95359243     0.13186918
h     0.00362717     0.04640755     0.86813081
h     0.99637282     0.54640757     0.63186918
h     0.00362717     0.45359242     0.36813081

K_POINTS automatic
2 2 2 1 1 1

CELL_PARAMETERS cubic
   12.273136000000     0.000000000000    -0.030302000000
    0.000000000000     7.705918000000     0.000000000000
    6.007199000000     0.000000000000    25.227044000000
