&control
 title='crystal',
 prefix='crystal',
 pseudo_dir='.',
 calculation='vc-relax',
/
&system
 ibrav=0,
 celldm(1)=1.0,
 nat=    44,
 ntyp=  2,
 ecutwfc=60.0,
 ecutrho=600.0,
 xdm=.true.,
 xdm_a1=0.4073,
 xdm_a2=2.4150,
/
&electrons
 conv_thr = 1d-8,
/
&ions
/
&cell
/
ATOMIC_SPECIES
h      1.007940 h.UPF
c     12.010700 c.UPF

ATOMIC_POSITIONS crystal
c     0.21121042     0.27800098     0.05337817
c     0.78878964     0.72199901     0.94662182
c     0.21121045     0.22199901     0.55337817
c     0.78878962     0.77800097     0.44662182
h     0.28733490     0.24977721     0.97037552
h     0.71266517     0.75022277     0.02962448
h     0.28733493     0.25022278     0.47037551
h     0.71266514     0.74977721     0.52962448
h     0.33430381     0.41242973     0.07886696
h     0.66569625     0.58757025     0.92113303
h     0.33430384     0.08757026     0.57886696
h     0.66569623     0.91242973     0.42113304
h     0.94839586     0.30885359     0.05491412
h     0.05160420     0.69114639     0.94508588
h     0.94839589     0.19114640     0.55491411
h     0.05160417     0.80885358     0.44508588
c     0.29125245     0.10538302     0.12570902
c     0.70874761     0.89461696     0.87429097
c     0.29125248     0.39461697     0.62570902
c     0.70874759     0.60538302     0.37429097
h     0.55292646     0.07141947     0.11729418
h     0.44707360     0.92858052     0.88270581
h     0.55292649     0.42858053     0.61729418
h     0.44707358     0.57141946     0.38270581
h     0.16341089     0.97313636     0.09897927
h     0.83658917     0.02686362     0.90102073
h     0.16341092     0.52686363     0.59897926
h     0.83658915     0.47313635     0.40102073
c     0.20340717     0.14464301     0.24281870
c     0.79659289     0.85535697     0.75718129
c     0.20340720     0.35535698     0.74281870
c     0.79659287     0.64464300     0.25718130
h     0.26792911     0.02055423     0.29361301
h     0.73207096     0.97944576     0.70638698
h     0.26792913     0.47944577     0.79361301
h     0.73207093     0.52055422     0.20638698
h     0.94092582     0.17122662     0.25499219
h     0.05907424     0.82877337     0.74500780
h     0.94092585     0.32877338     0.75499218
h     0.05907421     0.67122661     0.24500781
h     0.33148109     0.27481555     0.27174224
h     0.66851897     0.72518443     0.72825776
h     0.33148112     0.22518444     0.77174223
h     0.66851894     0.77481554     0.22825776

K_POINTS automatic
2 2 2 1 1 1

CELL_PARAMETERS cubic
    7.748958000000     0.000000000000    -0.125953000000
    0.000000000000    12.882037000000     0.000000000000
    1.072416000000     0.000000000000    23.711772000000
