&control
 title='crystal',
 prefix='crystal',
 pseudo_dir='.',
 calculation='vc-relax',
/
&system
 ibrav=0,
 celldm(1)=1.0,
 nat=    44,
 ntyp=  2,
 ecutwfc=60.0,
 ecutrho=600.0,
 xdm=.true.,
 xdm_a1=0.4073,
 xdm_a2=2.4150,
/
&electrons
 conv_thr = 1d-8,
/
&ions
/
&cell
/
ATOMIC_SPECIES
h      1.007940 h.UPF
c     12.010700 c.UPF

ATOMIC_POSITIONS crystal
c     0.89450067     0.83674186     0.33871662
c     0.10549928     0.16325819     0.66128343
c     0.10549041     0.33668815     0.16128459
c     0.89450954     0.66331190     0.83871546
c     0.71527773     0.69622287     0.47436649
c     0.28472222     0.30377718     0.52563356
c     0.28474648     0.19620046     0.02562121
c     0.71525347     0.80379959     0.97437884
c     0.47940892     0.76868584     0.66238980
c     0.52059103     0.23131421     0.33761025
c     0.52059707     0.26869876     0.83762223
c     0.47940288     0.73130129     0.16237783
h     0.89618626     0.91436428     0.45644874
h     0.10381369     0.08563576     0.54355131
h     0.10378042     0.41429424     0.04355963
h     0.89621953     0.58570580     0.95644042
h     0.06176511     0.78139158     0.20310328
h     0.93823484     0.21860847     0.79689678
h     0.93824475     0.28130888     0.29688775
h     0.06175519     0.71869117     0.70311230
h     0.35414243     0.83478332     0.25945546
h     0.64585751     0.16521673     0.74054460
h     0.64582912     0.33481058     0.24053799
h     0.35417083     0.66518947     0.75946206
h     0.72381285     0.61612510     0.35103936
h     0.27618710     0.38387495     0.64896070
h     0.27622312     0.11611225     0.14894602
h     0.72377683     0.88388780     0.85105403
h     0.75185391     0.60814119     0.55606992
h     0.24814604     0.39185886     0.44393013
h     0.24818059     0.10812235     0.94390596
h     0.75181936     0.89187770     0.05609410
h     0.46470174     0.84726219     0.79040043
h     0.53529821     0.15273786     0.20959962
h     0.53528680     0.34727872     0.70962628
h     0.46471314     0.65272133     0.29037377
h     0.43468387     0.85166072     0.58441451
h     0.56531608     0.14833933     0.41558554
h     0.56529728     0.35168810     0.91561044
h     0.43470267     0.64831194     0.08438961
h     0.86506522     0.57391022     0.75178213
h     0.13493473     0.42608982     0.24821792
h     0.13496514     0.07385001     0.74819410
h     0.86503480     0.92615004     0.25180595

K_POINTS automatic
2 2 2 1 1 1

CELL_PARAMETERS cubic
   13.955474000000    -0.000834000000     6.480350000000
    0.001419000000    14.592517000000    -0.001227000000
    4.462218000000     0.000745000000    13.940015000000
