&control
 title='crystal',
 prefix='crystal',
 pseudo_dir='.',
 calculation='vc-relax',
/
&system
 ibrav=0,
 celldm(1)=1.0,
 nat=    22,
 ntyp=  2,
 ecutwfc=60.0,
 ecutrho=600.0,
 xdm=.true.,
 xdm_a1=0.4073,
 xdm_a2=2.4150,
/
&electrons
 conv_thr = 1d-8,
/
&ions
/
&cell
/
ATOMIC_SPECIES
h      1.007940 h.UPF
c     12.010700 c.UPF

ATOMIC_POSITIONS crystal
c     0.87644059     0.19369157     0.33351535
c     0.12355929     0.80630838     0.66648476
c     0.73530891     0.33427746     0.22613245
c     0.26469097     0.66572249     0.77386766
c     0.48760604     0.25488143     0.36629630
c     0.51239385     0.74511851     0.63370381
h     0.90259527     0.10557420     0.17498096
h     0.09740461     0.89442575     0.82501915
h     0.05071085     0.25318676     0.24313950
h     0.94928903     0.74681319     0.75686061
h     0.78458450     0.11055232     0.66900934
h     0.21541538     0.88944763     0.33099077
h     0.72335115     0.42678659     0.36920145
h     0.27664873     0.57321336     0.63079867
h     0.83140760     0.41425929     0.88805354
h     0.16859228     0.58574066     0.11194657
h     0.49335897     0.16558860     0.21965110
h     0.50664091     0.83441134     0.78034901
h     0.38657351     0.17748266     0.70425025
h     0.61342637     0.82251729     0.29574986
h     0.38809171     0.35740208     0.28883353
h     0.61190817     0.64259787     0.71116658

K_POINTS automatic
2 2 2 1 1 1

CELL_PARAMETERS cubic
   12.469679000000     0.041668000000    -0.241085000000
    0.593749000000    15.638171000000    -0.157733000000
    3.817475000000     2.791086000000     5.977539000000
