&control
 title='crystal',
 prefix='crystal',
 pseudo_dir='.',
 calculation='vc-relax',
/
&system
 ibrav=0,
 celldm(1)=1.0,
 nat=    22,
 ntyp=  2,
 ecutwfc=60.0,
 ecutrho=600.0,
 xdm=.true.,
 xdm_a1=0.4073,
 xdm_a2=2.4150,
/
&electrons
 conv_thr = 1d-8,
/
&ions
/
&cell
/
ATOMIC_SPECIES
h      1.007940 h.UPF
c     12.010700 c.UPF

ATOMIC_POSITIONS crystal
c     0.02668715     0.37669087     0.30629442
c     0.97331281     0.62330918     0.69370561
h     0.99603841     0.55092351     0.24667804
h     0.00396156     0.44907653     0.75332199
h     0.27890669     0.28480949     0.38975236
h     0.72109327     0.71519056     0.61024767
h     0.77970724     0.40300313     0.39428615
h     0.22029273     0.59699691     0.60571388
c     0.06031242     0.23532872     0.16566457
c     0.93968755     0.76467133     0.83433546
h     0.29645109     0.22301252     0.07337582
h     0.70354888     0.77698753     0.92662421
h     0.80251503     0.33155021     0.08523523
h     0.19748493     0.66844983     0.91476480
c     0.12079598     0.98765730     0.24521281
c     0.87920399     0.01234275     0.75478722
h     0.14597025     0.88800919     0.14266618
h     0.85402972     0.11199086     0.85733385
h     0.88470481     0.99350760     0.33449310
h     0.11529516     0.00649244     0.66550693
h     0.38140040     0.88661792     0.32281930
h     0.61859957     0.11338213     0.67718073

K_POINTS automatic
2 2 2 1 1 1

CELL_PARAMETERS cubic
    7.618236000000     0.010096000000    -0.059221000000
    6.056182000000    10.898607000000    -0.182346000000
    1.818420000000     2.726163000000    14.212448000000
