&control
 title='crystal',
 prefix='crystal',
 pseudo_dir='.',
 calculation='vc-relax',
/
&system
 ibrav=0,
 celldm(1)=1.0,
 nat=    22,
 ntyp=  2,
 ecutwfc=60.0,
 ecutrho=600.0,
 xdm=.true.,
 xdm_a1=0.4073,
 xdm_a2=2.4150,
/
&electrons
 conv_thr = 1d-8,
/
&ions
/
&cell
/
ATOMIC_SPECIES
h      1.007940 h.UPF
c     12.010700 c.UPF

ATOMIC_POSITIONS crystal
c     0.36116574     0.04770265     0.35555025
c     0.63883425     0.95229751     0.64444985
c     0.23869792     0.46759094     0.49836791
c     0.76130207     0.53240923     0.50163219
c     0.12756868     0.48112597     0.51708783
c     0.87243131     0.51887420     0.48291227
h     0.43937038     0.04567886     0.34631375
h     0.56062961     0.95432131     0.65368635
h     0.40028518     0.82397331     0.04825834
h     0.59971480     0.17602686     0.95174176
h     0.33961760     0.94198273     0.55771000
h     0.66038239     0.05801744     0.44229009
h     0.26422204     0.56690215     0.29383678
h     0.73577795     0.43309802     0.70616331
h     0.20421622     0.68786018     0.80065919
h     0.79578376     0.31213999     0.19934091
h     0.04137502     0.78372907     0.61483640
h     0.95862496     0.21627110     0.38516370
h     0.09634841     0.39803640     0.73106507
h     0.90365158     0.60196376     0.26893503
h     0.15843936     0.26827326     0.21788929
h     0.84156063     0.73172691     0.78211081

K_POINTS automatic
2 2 2 1 1 1

CELL_PARAMETERS cubic
   26.860423000000     1.275444000000     0.088726000000
    4.155739000000     7.530930000000    -0.081336000000
    2.484663000000    -3.618382000000     6.263323000000
