&control
 title='crystal',
 prefix='crystal',
 pseudo_dir='.',
 calculation='vc-relax',
/
&system
 ibrav=0,
 celldm(1)=1.0,
 nat=    44,
 ntyp=  2,
 ecutwfc=60.0,
 ecutrho=600.0,
 xdm=.true.,
 xdm_a1=0.4073,
 xdm_a2=2.4150,
/
&electrons
 conv_thr = 1d-8,
/
&ions
/
&cell
/
ATOMIC_SPECIES
h      1.007940 h.UPF
c     12.010700 c.UPF

ATOMIC_POSITIONS crystal
h     0.92907080     0.40788027     0.35025900
h     0.57092920     0.59211972     0.85025902
h     0.42912680     0.09222821     0.64980191
h     0.07087320     0.90777177     0.14980193
c     0.06226826     0.48585837     0.39276337
c     0.43773175     0.51414161     0.89276339
c     0.56223133     0.01413556     0.60723011
c     0.93776868     0.98586442     0.10723013
c     0.24915807     0.37449864     0.33973667
c     0.25084194     0.62550135     0.83973669
c     0.74915635     0.12545000     0.66023546
c     0.75084365     0.87454998     0.16023548
c     0.43624892     0.48530784     0.39295368
c     0.06375109     0.51469214     0.89295370
c     0.93630770     0.01472375     0.60704517
c     0.56369230     0.98527623     0.10704519
h     0.05277013     0.49031584     0.51866513
h     0.44722987     0.50968414     0.01866515
h     0.55262469     0.00970651     0.48133330
h     0.94737532     0.99029347     0.98133331
h     0.05877892     0.64839478     0.35183909
h     0.44122108     0.35160520     0.85183911
h     0.55864259     0.85159866     0.64815103
h     0.94135742     0.14840133     0.14815105
h     0.24889997     0.21231878     0.38201078
h     0.25110004     0.78768120     0.88201080
h     0.74885311     0.28763718     0.61797597
h     0.75114690     0.71236281     0.11797599
h     0.24928861     0.36289896     0.21368287
h     0.25071139     0.63710102     0.71368288
h     0.74924888     0.13703188     0.78628968
h     0.75075112     0.86296811     0.28628970
h     0.56922913     0.40663266     0.35073523
h     0.93077088     0.59336732     0.85073525
h     0.06924372     0.09346834     0.64928291
h     0.43075629     0.90653164     0.14928293
h     0.44041548     0.64777260     0.35188098
h     0.05958453     0.35222738     0.85188099
h     0.94055353     0.85226691     0.64812720
h     0.55944648     0.14773308     0.14812721
h     0.44545016     0.48996282     0.51886390
h     0.05454985     0.51003717     0.01886392
h     0.94556585     0.01007567     0.48113690
h     0.55443415     0.98992431     0.98113691

K_POINTS automatic
2 2 2 1 1 1

CELL_PARAMETERS cubic
   12.847502000000     0.000005000000     0.000000000000
    0.000061000000    12.071388000000     0.000000000000
    0.000000000000     0.000000000000    16.448083000000
