&control
 title='crystal',
 prefix='crystal',
 pseudo_dir='.',
 calculation='vc-relax',
/
&system
 ibrav=0,
 celldm(1)=1.0,
 nat=    44,
 ntyp=  2,
 ecutwfc=60.0,
 ecutrho=600.0,
 xdm=.true.,
 xdm_a1=0.4073,
 xdm_a2=2.4150,
/
&electrons
 conv_thr = 1d-8,
/
&ions
/
&cell
/
ATOMIC_SPECIES
h      1.007940 h.UPF
c     12.010700 c.UPF

ATOMIC_POSITIONS crystal
c     0.13812160     0.12074964     0.37218432
c     0.63812160     0.37925037     0.37218432
c     0.36187840     0.62074965     0.87218434
c     0.86187841     0.87925039     0.87218434
c     0.03477591     0.23606473     0.27761116
c     0.53477591     0.26393528     0.27761116
c     0.46522410     0.73606474     0.77761117
c     0.96522411     0.76393530     0.77761117
c     0.11840772     0.36130798     0.16533944
c     0.61840772     0.13869203     0.16533944
c     0.38159229     0.86130799     0.66533946
c     0.88159230     0.63869204     0.66533946
h     0.07562770     0.03182028     0.45037909
h     0.57562770     0.46817973     0.45037909
h     0.42437231     0.53182029     0.95037910
h     0.92437231     0.96817974     0.95037910
h     0.21194980     0.14909048     0.57724796
h     0.71194980     0.35090953     0.57724796
h     0.28805021     0.64909049     0.07724797
h     0.78805021     0.85090954     0.07724797
h     0.20928580     0.09149519     0.16314893
h     0.70928580     0.40850482     0.16314893
h     0.29071421     0.59149520     0.66314894
h     0.79071421     0.90850483     0.66314894
h     0.96299623     0.26107274     0.48944293
h     0.46299623     0.23892727     0.48944293
h     0.53700377     0.76107275     0.98944294
h     0.03700378     0.73892728     0.98944294
h     0.95905676     0.20326744     0.07947864
h     0.45905676     0.29673257     0.07947864
h     0.54094325     0.70326745     0.57947865
h     0.04094325     0.79673258     0.57947865
h     0.04202544     0.44227429     0.09583400
h     0.54202544     0.05772572     0.09583400
h     0.45797457     0.94227430     0.59583401
h     0.95797457     0.55772573     0.59583401
h     0.18892780     0.33995688     0.94960024
h     0.68892780     0.16004313     0.94960024
h     0.31107220     0.83995689     0.44960025
h     0.81107221     0.66004314     0.44960025
h     0.19150973     0.39932403     0.36206340
h     0.69150973     0.10067598     0.36206340
h     0.30849027     0.89932404     0.86206342
h     0.80849028     0.60067599     0.86206342

K_POINTS automatic
2 2 2 1 1 1

CELL_PARAMETERS cubic
   16.989409000000     0.000000000000     0.000000000000
    0.000000000000    18.854326000000     0.000000000000
    0.000000000000     0.000000000000     7.628080000000
