&control
 title='crystal',
 prefix='crystal',
 pseudo_dir='.',
 calculation='vc-relax',
/
&system
 ibrav=0,
 celldm(1)=1.0,
 nat=    64,
 ntyp=  4,
 ecutwfc=60.0,
 ecutrho=600.0,
 xdm=.true.,
 xdm_a1=0.4073,
 xdm_a2=2.4150,
/
&electrons
 conv_thr = 1d-8,
/
&ions
/
&cell
/
ATOMIC_SPECIES
h      1.007940 h.UPF
c     12.010700 c.UPF
n     14.006700 n.UPF
o     15.999400 o.UPF

ATOMIC_POSITIONS crystal
o     0.95479551     0.94045153     0.72060321
o     0.04520451     0.44045152     0.27939685
n     0.87857887     0.03409389     0.81341330
n     0.12142115     0.53409388     0.18658675
c     0.95469612     0.15078822     0.93750187
c     0.04530391     0.65078821     0.06249819
c     0.05342233     0.22779789     0.77569804
c     0.94657769     0.72779788     0.22430201
c     0.05044649     0.10598520     0.15436612
c     0.94955353     0.60598519     0.84563393
c     0.81047213     0.23069887     0.98712916
c     0.18952789     0.73069886     0.01287089
o     0.69832931     0.20130992     0.79783625
o     0.30167071     0.70130991     0.20216380
c     0.71133800     0.06057228     0.75044282
c     0.28866202     0.56057227     0.24955723
c     0.65810846     0.02532698     0.49964494
c     0.34189156     0.52532697     0.50035511
c     0.52739768     0.92171725     0.51797975
c     0.47260234     0.42171724     0.48202030
c     0.59012701     0.84279904     0.73291509
c     0.40987301     0.34279902     0.26708496
c     0.60648662     0.96858566     0.88745301
c     0.39351340     0.46858565     0.11254704
c     0.44156720     0.02771521     0.85771782
c     0.55843282     0.52771520     0.14228223
c     0.38663311     0.99514360     0.60344467
c     0.61336691     0.49514358     0.39655538
h     0.49964399     0.86138939     0.36365332
h     0.50035603     0.36138938     0.63634674
h     0.65281434     0.95275763     0.06453500
h     0.34718568     0.45275762     0.93546506
h     0.76746718     0.19858915     0.14941848
h     0.23253284     0.69858914     0.85058158
h     0.83149109     0.33955619     0.99267425
h     0.16850893     0.83955618     0.00732580
h     0.75625682     0.98021797     0.42190092
h     0.24374321     0.48021796     0.57809913
h     0.62135867     0.11725401     0.40621592
h     0.37864135     0.61725400     0.59378413
h     0.50726557     0.77000713     0.79232457
h     0.49273445     0.27000712     0.20767548
h     0.69981336     0.79136260     0.71395808
h     0.30018667     0.29136259     0.28604197
h     0.36992194     0.97671155     0.97609124
h     0.63007808     0.47671154     0.02390881
h     0.44000267     0.13607996     0.89525945
h     0.55999735     0.63607994     0.10474060
h     0.28420430     0.92969446     0.59010735
h     0.71579573     0.42969445     0.40989271
h     0.35662299     0.08660995     0.50362539
h     0.64337703     0.58660994     0.49637467
h     0.98115301     0.27447781     0.63452257
h     0.01884701     0.77447780     0.36547749
h     0.11865656     0.30758207     0.87130848
h     0.88134346     0.80758206     0.12869158
h     0.13497640     0.15832740     0.70476437
h     0.86502362     0.65832739     0.29523568
h     0.15611943     0.05416330     0.11382309
h     0.84388059     0.55416329     0.88617697
h     0.98526646     0.03894087     0.25914595
h     0.01473356     0.53894086     0.74085411
h     0.08333490     0.19679337     0.25449069
h     0.91666513     0.69679336     0.74550936

K_POINTS automatic
2 2 2 1 1 1

CELL_PARAMETERS cubic
   16.404557000000     0.000000000000     0.235370000000
    0.000000000000    18.683615000000     0.000000000000
   -1.154213000000     0.000000000000    11.039362000000
