## FHIaims input file generated by critic2.
lattice_vector 3.5430999929       0.0000000000       0.0000000000       
lattice_vector -1.7715500035      3.0684146061       0.0000000000       
lattice_vector 0.0000000000       0.0000000000       4.3389000000       
atom_frac  0.3333317500       0.6666658700       0.2636221200       S 
atom_frac  0.6666667500       0.3333333800       0.7363778800       S 
atom_frac  0.0000000000       0.0000000000       0.0000000000       Pt
