## FHIaims input file generated by critic2.
lattice_vector 4.4121733262       0.0000000000       0.0000000000      
lattice_vector 0.0000000000       7.6634880950       0.0001243032      
lattice_vector 0.0000000000       0.0001170213       7.1995921130      
atom_frac  0.0000000000       0.5407220846       0.0198885747       H 
atom_frac  0.0000000000       0.6643169899       0.1999179185       H 
atom_frac  0.0000000000       0.4592799383       0.5198865179       H 
atom_frac  0.0000000000       0.3356761667       0.6999111051       H 
atom_frac  0.4999990847       0.1643172156       0.1999208556       H 
atom_frac  0.4999990847       0.0407255383       0.0198933813       H 
atom_frac  0.4999990847       0.8356695689       0.6999237541       H 
atom_frac  0.4999990847       0.9592740557       0.5198968236       H 
atom_frac  0.3184513355       0.7681136336       0.9837204820       H 
atom_frac  0.6815475204       0.7681136336       0.9837204820       H 
atom_frac  0.3184568009       0.2318861246       0.4837188604       H 
atom_frac  0.6815422838       0.2318861246       0.4837188604       H 
atom_frac  0.1815451215       0.2681154376       0.9837171250       H 
atom_frac  0.8184537344       0.2681154376       0.9837171250       H 
atom_frac  0.1815444703       0.7318897940       0.4837161574       H 
atom_frac  0.8184543856       0.7318897940       0.4837161574       H 
atom_frac  0.0000000000       0.6656938066       0.0607742510       O 
atom_frac  0.0000000000       0.3343051327       0.5607681525       O 
atom_frac  0.4999990847       0.1656959204       0.0607760287       O 
atom_frac  0.4999990847       0.8342987266       0.5607806058       O 
atom_frac  0.4999990847       0.8328906903       0.9364367994       O 
atom_frac  0.4999990847       0.1671212841       0.4364135329       O 
atom_frac  0.9999990847       0.3328865701       0.9364216726       O 
atom_frac  0.9999990847       0.6671210596       0.4364196457       O 
