&control
 title='crystal',
 prefix='crystal',
 pseudo_dir='../..',
 forc_conv_thr=1.0D-4,
 etot_conv_thr=1.0D-5,
/
&system
 ibrav=0,
 nat=    24,
 ntyp=  3,
 ecutwfc=80.0,
 ecutrho=800.0,
 vdw_corr='xdm',
 nosym=.true.,
/
&electrons
 conv_thr = 1d-10,
/
&ions
/
&cell
 press_conv_thr=0.01,
/
ATOMIC_SPECIES
C    12.010700 c.UPF
O    15.999400 o.UPF
H     1.007940 h.UPF

ATOMIC_POSITIONS crystal
C             0.1036732729        0.9650970660        0.2335932611
C             0.3963271420        0.4650925414        0.7664069816
C             0.0627623409        0.1715471407        0.1433143792
C             0.4372375077        0.6715430604        0.8566853482
C             0.0425536058        0.8036934701        0.0996265774
C             0.4574463219        0.3036902487        0.9003728643
C             0.8963275112        0.0348592808        0.7664109455
C             0.6036724260        0.5348562360        0.2335884899
C             0.9372390232        0.8284109506        0.8566888295
C             0.5627611853        0.3284067152        0.1433118009
C             0.9574466286        0.1962644359        0.9003752371
C             0.5425538278        0.6962594413        0.0996254054
O             0.1142764563        0.3205850402        0.2678337119
O             0.3857228990        0.8205805482        0.7321663156
O             0.8857226518        0.6793727050        0.7321697786
O             0.6142765688        0.1793695123        0.2678299866
H             0.1856527508        0.9491662704        0.4109801289
H             0.3143471895        0.4491622976        0.5890191916
H             0.0690483879        0.6491372290        0.1621729293
H             0.4309515331        0.1491334449        0.8378267261
H             0.8143445247        0.0507847113        0.5890262129
H             0.6856559556        0.5507809521        0.4109745048
H             0.9309452732        0.3508188330        0.8378224861
H             0.5690550160        0.8508148085        0.1621779074

K_POINTS automatic
4 4 5  1 1 1

CELL_PARAMETERS bohr
  12.676268752   0.000004382   0.011649294
   0.000004239  12.521274715   0.000001123
  -1.662336709   0.000000366  10.753977258
