## FHIaims input file generated by critic2.
lattice_vector 3.3599999942       0.0000000000       0.0000000000       
lattice_vector -1.6800000029      2.9098453550       0.0000000000       
lattice_vector 0.0000000000       0.0000000000       7.9000000000       
atom_frac  0.3333338700       0.6666669300       0.1934303800       S 
atom_frac  0.6666677300       0.3333338700       0.8065696200       S 
atom_frac  0.0000000000       0.0000000000       0.0000000000       Ta
