%nprocs=6
%mem=4GB
#p pbepbe aug-cc-pvtz output=wfx scf=(conver=6) int=(grid=ultrafine)

title

0 1
C	1.888896 0.179692 0.000000
O	1.493280 -1.073689 0.000000
O	1.170435 1.166590 0.000000
H	2.979488 0.258829 0.000000
H	0.498833 -1.107195 0.000000

h2co2_h2co2_2.wfx


