%nprocs=6
%mem=4GB
#p pbepbe aug-cc-pvtz output=wfx scf=(conver=6) int=(grid=ultrafine)

title

0 1
O	1.350625 0.111469 0.000000
H	1.680398 -0.373741 -0.758561
H	1.680398 -0.373741 0.758561

h2o_h2o_2.wfx


