&control
 title='crystal',
 prefix='crystal',
 pseudo_dir='.',
 calculation='vc-relax',
/
&system
 ibrav=0,
 celldm(1)=1.0,
 nat=    64,
 ntyp=  4,
 ecutwfc=60.0,
 ecutrho=600.0,
 xdm=.true.,
 xdm_a1=0.4073,
 xdm_a2=2.4150,
/
&electrons
 conv_thr = 1d-8,
/
&ions
/
&cell
/
ATOMIC_SPECIES
h      1.007940 h.UPF
c     12.010700 c.UPF
n     14.006700 n.UPF
o     15.999400 o.UPF

ATOMIC_POSITIONS crystal
c     0.09837470     0.32749685     0.18289120
c     0.90162739     0.82688726     0.81708273
c     0.96230106     0.21354634     0.13374491
c     0.03770137     0.71301836     0.86623047
c     0.72780617     0.32204987     0.04816429
c     0.27219681     0.82172728     0.95185196
c     0.65684010     0.37225497     0.89760786
c     0.34314538     0.87206989     0.10239727
c     0.56018654     0.17440312     0.67414653
c     0.43982966     0.67431275     0.32589645
c     0.66154026     0.48264376     0.12071209
c     0.33846652     0.98236749     0.87929280
c     0.72442521     0.43773218     0.26919254
c     0.27556205     0.93762991     0.73080308
c     0.82791810     0.60048657     0.35422310
c     0.17210430     0.10047474     0.64580704
c     0.88565389     0.55594341     0.49161015
c     0.11437406     0.05612134     0.50840862
c     0.84112086     0.34784208     0.54589434
c     0.15886473     0.84809936     0.45407637
c     0.73865994     0.18407313     0.46165344
c     0.26129073     0.68423990     0.53828328
c     0.68096282     0.22849530     0.32448239
c     0.31898290     0.72847844     0.67546515
o     0.94207461     0.96537930     0.13130465
o     0.05793169     0.46486377     0.86865388
o     0.63552378     0.60738328     0.85254109
o     0.36438268     0.10723203     0.14741266
n     0.86447667     0.39766509     0.09431082
n     0.13551856     0.89720301     0.90568681
n     0.62226802     0.15449139     0.81899635
n     0.37779196     0.65435520     0.18105196
h     0.09839523     0.54515952     0.16681950
h     0.90160980     0.04454377     0.83314629
h     0.15163928     0.28408311     0.28978457
h     0.84835676     0.78347643     0.71019207
h     0.15017721     0.22571582     0.13267839
h     0.84982544     0.72507596     0.86730525
h     0.72712304     0.10608614     0.06906037
h     0.27290730     0.60575595     0.93100945
h     0.57039202     0.97952335     0.63374402
h     0.42959815     0.47944550     0.36631907
h     0.45547118     0.21961766     0.63614124
h     0.54454973     0.71956317     0.36393179
h     0.60723854     0.33245081     0.64136146
h     0.39276208     0.83236291     0.35863045
h     0.55825584     0.42188669     0.07841295
h     0.44173563     0.92156178     0.92156209
h     0.66397881     0.69734286     0.09761976
h     0.33608484     0.19704345     0.90242860
h     0.86255780     0.76484844     0.31284973
h     0.13749408     0.26476667     0.68721990
h     0.96607170     0.68441099     0.55603870
h     0.03398355     0.18465450     0.44400633
h     0.88737854     0.31401194     0.65313537
h     0.11260882     0.81440148     0.34682806
h     0.70408286     0.01936786     0.50276582
h     0.29583805     0.51959439     0.49713889
h     0.59905517     0.10408561     0.25950534
h     0.40086654     0.60400761     0.74041243
h     0.88751728     0.59885662     0.10097886
h     0.11246495     0.09837241     0.89903142
h     0.64101207     0.96345251     0.85873352
h     0.35906542     0.46330873     0.14133424

K_POINTS automatic
2 2 2 1 1 1

CELL_PARAMETERS cubic
   21.426585000000    -0.001822000000     0.205199000000
   -0.000798000000     9.371557000000     0.000245000000
   -9.274824000000     0.001300000000    18.861318000000
