## FHIaims input file generated by critic2.
lattice_vector 3.9569999976       0.0000000000       0.0000000000       
lattice_vector -1.9785000012      3.4268625221       0.0000000000       
lattice_vector 0.0000000000       0.0000000000       7.5500000000       
atom_frac  0.3333340600       0.6666670300       0.2378145700       Te
atom_frac  0.6666681200       0.3333340600       0.7621854300       Te
atom_frac  0.0000000000       0.0000000000       0.0000000000       Hf
