%nprocs=4
%mem=4GB
#p pbepbe aug-cc-pvtz output=wfx scf=(conver=6) int=(grid=ultrafine)

title

0 1
ar 0.000000000000000 0.000000000000000 1.880007868957693
ar 0.000000000000000 0.000000000000000 -1.880007868957693

ar_2.wfx

