%nprocs=4
%mem=4GB
#p pbepbe aug-cc-pvtz output=wfx scf=(conver=6) int=(grid=ultrafine)

title

0 1
kr 0.000000000000000 0.000000000000000 2.004999525626651
kr 0.000000000000000 0.000000000000000 -2.004999525626651

kr_2.wfx

