%nprocs=4
%mem=4GB
#p pbepbe aug-cc-pvtz output=wfx scf=(conver=6) int=(grid=ultrafine)

title

0 1
rn 0.000000000000000 0.000000000000000 -2.214043044222001
xe 0.000000000000000 0.000000000000000 2.214043044222001

rnxe.wfx

