%nprocs=4
%mem=4GB
#p pbepbe aug-cc-pvtz output=wfx scf=(conver=6) int=(grid=ultrafine)

title

0 1
xe 0.000000000000000 0.000000000000000 -2.181003865203685
xe 0.000000000000000 0.000000000000000 2.181003865203685

xe_2.wfx

