&control
 title='crystal',
 prefix='crystal',
 pseudo_dir='.',
 calculation='vc-relax',
/
&system
 ibrav=0,
 celldm(1)=1.0,
 nat=    54,
 ntyp=  5,
 ecutwfc=60.0,
 ecutrho=600.0,
 xdm=.true.,
 xdm_a1=0.4073,
 xdm_a2=2.4150,
/
&electrons
 conv_thr = 1d-8,
/
&ions
/
&cell
/
ATOMIC_SPECIES
h      1.007940 h.UPF
c     12.010700 c.UPF
o     15.999400 o.UPF
s     32.065000 s.UPF
cl    35.453000 cl.UPF

ATOMIC_POSITIONS crystal
s     0.57591857     0.40928354     0.25102026
s     0.42407420     0.90900215     0.74898497
cl    0.64432815     0.68519586     0.51042661
cl    0.35568567     0.18495383     0.48957395
c     0.71904743     0.63112285     0.31582844
c     0.28096743     0.13092345     0.68417332
c     0.40504354     0.73883258     0.09982794
c     0.59495209     0.23855085     0.90018598
h     0.47641392     0.67987929     0.04764276
h     0.52356158     0.17965829     0.95235027
c     0.42473968     0.62700118     0.20212675
c     0.57527171     0.12663005     0.79786661
o     0.62407437     0.29509060     0.15919157
o     0.37591000     0.79487767     0.84082190
o     0.54284648     0.22959833     0.33161451
o     0.45712673     0.72927673     0.66839484
c     0.29256089     0.92753015     0.06605852
c     0.70740344     0.42722306     0.93390583
h     0.27610639     0.01613018     0.98658548
h     0.72383815     0.51590626     0.01339781
c     0.73817009     0.73602521     0.41454359
c     0.26185713     0.23580993     0.58547123
c     0.33288156     0.69884997     0.26996847
c     0.66710985     0.19844355     0.73004728
h     0.34810105     0.60769628     0.34873282
h     0.65190647     0.10725634     0.65127338
c     0.20054315     0.00745204     0.13297248
c     0.79941601     0.50711858     0.86703330
o     0.91169515     0.94874857     0.34022442
o     0.08836594     0.44870556     0.65979384
c     0.08342754     0.21828433     0.09666383
c     0.91654552     0.71788704     0.90331201
h     0.97703482     0.15983949     0.11400412
h     0.02294143     0.65936130     0.88599222
h     0.06531310     0.25712114     0.01061446
h     0.93464546     0.75677927     0.98936532
h     0.11859670     0.40726133     0.13907403
h     0.88139512     0.90685309     0.86088982
c     0.22125787     0.88788442     0.23455483
c     0.77871550     0.38749805     0.76541370
h     0.14991460     0.94509567     0.28718299
h     0.85002735     0.44469660     0.71279498
c     0.85974070     0.94036837     0.43121256
c     0.14031131     0.44025099     0.56880306
c     0.83781685     0.74180349     0.26356620
c     0.16221206     0.24170778     0.73644261
h     0.92303934     0.58917267     0.26172400
h     0.07697422     0.08913907     0.73827221
o     0.79142134     0.84778531     0.16189792
o     0.20861418     0.34764539     0.83812110
o     0.90312358     0.08471428     0.50802952
o     0.09695139     0.58463571     0.49198924
h     0.72275041     0.00062510     0.16259917
h     0.27731204     0.50041789     0.83744090

K_POINTS automatic
2 2 2 1 1 1

CELL_PARAMETERS cubic
   17.420834000000     0.000875000000     0.154150000000
    0.000459000000     9.443858000000    -0.000003000000
   -6.077776000000    -0.000348000000    23.477537000000
