%nprocs=4
%mem=4GB
#p pbepbe aug-cc-pvtz output=wfx scf=(conver=6) int=(grid=ultrafine)

title

0 1
c 0.177726505224180 -0.320677534861509 -0.459156476947518
c -0.720449706906720 -1.185712611401313 0.404072517779368
n 1.546436364811290 -0.839787237018209 -0.396806389308057
h 1.922654424998862 -0.709417578837212 0.537033546167287
h 2.148210071704730 -0.332950879446411 -1.036473745844080
h -0.156006409310354 -0.360233351283360 -1.495099641373486
c 0.138104441107585 1.121043893756143 0.009035460817011
o -0.027459761321177 1.481023267572193 1.155538100695099
o 0.400542723231936 1.979909235011503 -1.002155063961341
h 0.426001115939103 2.866235862374367 -0.606478289963292
h -0.663858183860628 -2.210933073924938 0.042461087367217
h -0.385818746898576 -1.165830169524602 1.440375453914140
s -2.465352527806398 -0.706384954214908 0.323430626159180
h -2.340730310913845 0.383715131798275 1.084222814498464

10.wfx

