%nprocs=4
%mem=4GB
#p pbepbe aug-cc-pvtz output=wfx scf=(conver=6) int=(grid=ultrafine)

title

0 1
c -0.205135567210954 0.235778866934647 -0.507090359986036
c 0.870461015081217 -0.845386813343130 -0.624832235979590
n 0.399649845929734 1.540643506888918 -0.298496107549006
h 0.503685338998664 2.038430838941930 -1.172054583178076
h -0.183856319757994 2.093126685181917 0.320155320113050
h -0.821631560850526 0.189037861207473 -1.414400742248584
c -1.143704711773518 -0.062881113566429 0.642256311048986
o -1.471533098765238 0.729974959028652 1.495178875832895
o -1.614208614178833 -1.326208993969123 0.578180232567128
h -2.196778898222538 -1.435497327556717 1.346280278780458
h 0.417243321207145 -1.814716362277748 -0.823807787757470
h 1.536316446777332 -0.594408472224586 -1.449697893957094
s 1.819911641167561 -1.027197481048381 0.905470869679478
h 2.089581161597927 0.279303845802565 1.002857822633860

4.wfx

