%nprocs=4
%mem=4GB
#p pbepbe aug-cc-pvtz output=wfx scf=(conver=6) int=(grid=ultrafine)

title

0 1
c -0.280944767628843 0.582535319415613 -0.218360241256547
c 1.014401905839704 0.396564482750856 -0.995568829549313
n -0.041836516895168 1.373932254651044 0.974805244875007
h 0.640350858071940 0.893716849779508 1.554003394782921
h -0.890664673571281 1.456213722475466 1.520764985837342
h -0.973039599382512 1.140536334298023 -0.859692061200924
c -0.949304197082969 -0.769524725443076 -0.001394336586586
o -0.778040988955665 -1.754407840309027 -0.686956496867299
o -1.812608414350056 -0.745881235932893 1.040279568295123
h -2.215812120294736 -1.628271425168270 1.071249426298109
h 0.835239886482432 -0.119804282552688 -1.934484156549965
h 1.437147051867879 1.378391276439102 -1.200166651038718
s 2.286509148347459 -0.499690593858435 -0.059002567803542
h 1.728602427551848 -1.704310136545235 -0.205477279235577

7.wfx

