%nprocs=4
%mem=4GB
#p pbepbe aug-cc-pvtz output=wfx scf=(conver=6) int=(grid=ultrafine)

title

-1 2
n 0.000000000000000 0.000000000000000 0.070344508975081
h 0.000000000000000 0.000000000000000 -0.977503729140012

EA_11.wfx

