%nprocs=4
%mem=4GB
#p pbepbe aug-cc-pvtz output=wfx scf=(conver=6) int=(grid=ultrafine)

title

0 3
n 0.000000000000000 0.000000000000000 0.069838961766073
h 0.000000000000000 0.000000000000000 -0.970478670762866

EA_11n.wfx

