%nprocs=4
%mem=4GB
#p pbepbe aug-cc-pvtz output=wfx scf=(conver=6) int=(grid=ultrafine)

title

0 2
n 0.000000000000000 0.000000000000000 0.572983573864353
o 0.000000000000000 0.000000000000000 -0.572983573864353

EA_21n.wfx

