%nprocs=4
%mem=4GB
#p pbepbe aug-cc-pvtz output=wfx scf=(conver=6) int=(grid=ultrafine)

title

-1 2
cl 0.000000000000000 0.000000000000000 1.366504601083531
cl 0.000000000000000 0.000000000000000 -1.366504601083531

EA_25.wfx

