%nprocs=4
%mem=4GB
#p pbepbe aug-cc-pvtz output=wfx scf=(conver=6) int=(grid=ultrafine)

title

-1 3
c 0.000000000000000 0.000000000000000 0.088488053356290
h 0.000000000000000 0.000000000000000 -1.054439400051966

EA_8.wfx

