%nprocs=4
%mem=4GB
#p pbepbe aug-cc-pvtz output=wfx scf=(conver=6) int=(grid=ultrafine)

title

-1 2
c 0.000000000000000 0.000000000000000 0.484252443436230
h 0.864091049281248 0.000000000000000 -0.242126221718117
h -0.864091049281248 0.000000000000000 -0.242126221718117

EA_9.wfx

