%nprocs=4
%mem=4GB
#p pbepbe aug-cc-pvtz output=wfx scf=(conver=6) int=(grid=ultrafine)

title

0 3
c 0.000000000000000 0.000000000000000 0.274255907234439
h 0.996045049523996 0.000000000000000 -0.137127953617219
h -0.996045049523996 0.000000000000000 -0.137127953617219

EA_9n.wfx

