## FHIaims input file generated by critic2.
lattice_vector 3.6619999925       0.0000000000       0.0000000000       
lattice_vector -1.8310000038      3.1713850265       0.0000000000       
lattice_vector 0.0000000000       0.0000000000       20.8130000000      
atom_frac  0.3333338600       0.6666669300       0.0698241500       S 
atom_frac  0.6666677100       0.3333338600       0.9301758500       S 
atom_frac  0.0000000000       0.0000000000       0.0000000000       Zr
