&control
 title='crystal',
 prefix='crystal',
 pseudo_dir='.',
 calculation='vc-relax',
/
&system
 ibrav=0,
 celldm(1)=1.0,
 nat=    62,
 ntyp=  3,
 ecutwfc=60.0,
 ecutrho=600.0,
 xdm=.true.,
 xdm_a1=0.4073,
 xdm_a2=2.4150,
/
&electrons
 conv_thr = 1d-8,
/
&ions
/
&cell
/
ATOMIC_SPECIES
h      1.007940 h.UPF
c     12.010700 c.UPF
o     15.999400 o.UPF

ATOMIC_POSITIONS crystal
o     0.08529964     0.96127453     0.25560674
o     0.81488594     0.96645337     0.09394211
h     0.74103917     0.92449127     0.17267301
o     0.48921266     0.19890559     0.74440049
c     0.00839728     0.98555621     0.13398375
c     0.12707204     0.03661903     0.02677038
c     0.04113953     0.07094284     0.89479015
h     0.88218991     0.05669464     0.86930355
c     0.15635133     0.12315680     0.79594588
h     0.08606274     0.14671880     0.69340569
c     0.36203413     0.14300401     0.82954199
c     0.44855480     0.10513123     0.95984814
h     0.60701750     0.11761767     0.98225294
c     0.33235360     0.05237531     0.05677424
h     0.39812722     0.02166982     0.15707834
c     0.41033429     0.24631917     0.61266620
h     0.31950733     0.32660783     0.64521773
h     0.31478335     0.13902947     0.52675782
c     0.58076027     0.33303333     0.55105521
h     0.66856067     0.43975134     0.64084461
c     0.71644295     0.22834609     0.50864092
h     0.75574612     0.17680568     0.60359155
h     0.63058843     0.12703204     0.41312584
c     0.90604755     0.31711890     0.46765921
h     0.99836490     0.23728173     0.43940293
h     0.99547778     0.41835398     0.56205038
h     0.87408976     0.36482693     0.36889744
c     0.49033173     0.38699083     0.41633186
h     0.60533632     0.45856106     0.37138252
h     0.39253764     0.46045681     0.44863340
h     0.40231125     0.28309409     0.32422220
o     0.61512644     0.85798454     0.27772995
o     0.88743609     0.86662509     0.44532739
h     0.96024754     0.90164874     0.36326665
o     0.21965496     0.67575527     0.81355018
c     0.69349971     0.84458489     0.40395930
c     0.57694450     0.80428755     0.51585611
c     0.66031691     0.76485811     0.64559104
h     0.81595767     0.76695530     0.66610436
c     0.54592784     0.71998595     0.74756681
h     0.61378748     0.68885413     0.84643177
c     0.34483016     0.71713172     0.72167728
c     0.26134915     0.75987943     0.59343302
h     0.10635328     0.75924412     0.57602504
c     0.37563225     0.80199447     0.49156478
h     0.31130624     0.83410233     0.39167357
c     0.28854679     0.60862319     0.93441981
h     0.43256006     0.68734966     0.00173023
h     0.30775870     0.49138675     0.88310334
c     0.14029514     0.59062222     0.03732680
h     0.14697122     0.71203065     0.09952031
c     0.92588076     0.50680001     0.95028905
h     0.91362253     0.38271584     0.89171857
h     0.89067807     0.56665237     0.86098594
c     0.77425887     0.50760142     0.05155821
h     0.62244372     0.45359925     0.98492469
h     0.78554129     0.63024818     0.11266408
h     0.79477379     0.43954836     0.13649153
c     0.21215191     0.50308555     0.15164560
h     0.36793281     0.56229833     0.20726627
h     0.19967020     0.37866442     0.09528621
h     0.12598508     0.50136141     0.24061582

K_POINTS automatic
2 2 2 1 1 1

CELL_PARAMETERS cubic
   13.416004000000     0.138989000000    -0.010637000000
   -4.260292000000    16.250492000000    -0.455838000000
   -2.569701000000    -3.885993000000    16.802441000000
