%nprocs=4
%mem=4GB
#p pbepbe aug-cc-pvtz output=wfx scf=(conver=6) int=(grid=ultrafine)

title

0 2
o 0.000000000000000 0.000000000000000 -0.487340287845684
h 0.000000000000000 0.000000000000000 0.487340287845684

12.wfx

