%nprocs=4
%mem=4GB
#p pbepbe aug-cc-pvtz output=wfx scf=(conver=6) int=(grid=ultrafine)

title

0 1
o 0.000000000000000 0.000000000000000 -0.390605527534676
h -0.762080382636836 0.000000000000000 0.195302763767338
h 0.762080382636836 0.000000000000000 0.195302763767338

13.wfx

