%nprocs=4
%mem=4GB
#p pbepbe aug-cc-pvtz output=wfx scf=(conver=6) int=(grid=ultrafine)

title

0 1
c 0.662503651519440 0.000000000000000 0.000000000000000
c -0.662503651519440 0.000000000000000 0.000000000000000
h 1.231488947622893 -0.921190539598980 0.000000000000000
h 1.231488947622893 0.921190539598980 0.000000000000000
h -1.231488947622893 -0.921190539598980 0.000000000000000
h -1.231488947622893 0.921190539598980 0.000000000000000

26.wfx

