%nprocs=4
%mem=4GB
#p pbepbe aug-cc-pvtz output=wfx scf=(conver=6) int=(grid=ultrafine)

title

1 3
o 0.000000000000000 0.000000000000000 0.488781811052081
h 0.000000000000000 0.000000000000000 -0.488781811052081

IP_61.wfx

