%nprocs=4
%mem=4GB
#p pbepbe aug-cc-pvtz output=wfx scf=(conver=6) int=(grid=ultrafine)

title

1 2
si -0.000096013803552 -0.106474428774498 -0.051149311020688
h 0.004220287870291 1.736288933177269 -0.338482004767708
h 0.000232018509762 1.769144717093418 0.446884471809415
h 1.288849613640189 -0.272614942441866 0.659323156267077
h -1.290626598645076 -0.266023260979712 0.657494918301666

IP_64.wfx

