%nprocs=4
%mem=4GB
#p pbepbe aug-cc-pvtz output=wfx scf=(conver=6) int=(grid=ultrafine)

title

1 2
p 0.000000066500223 -0.033425729454202 0.000000000000000
h -0.677354121141500 0.342378340485284 1.173206127680393
h 1.354706198804951 0.342378907359024 0.000000000000000
h -0.677354121141500 0.342378340485284 -1.173206127680393

IP_67.wfx

