%nprocs=4
%mem=4GB
#p pbepbe aug-cc-pvtz output=wfx scf=(conver=6) int=(grid=ultrafine)

title

1 3
s 0.000000000000000 0.000000000000000 -0.041856633067241
h 0.000000000000000 0.000000000000000 1.331479193495872

IP_68.wfx

