%nprocs=4
%mem=4GB
#p pbepbe aug-cc-pvtz output=wfx scf=(conver=6) int=(grid=ultrafine)

title

1 2
p 0.947685456464233 0.000000000000000 0.000000000000000
p -0.947685456464233 0.000000000000000 0.000000000000000

IP_76.wfx

