%nprocs=4
%mem=4GB
#p pbepbe aug-cc-pvtz output=wfx scf=(conver=6) int=(grid=ultrafine)

title

1 2
cl 0.543588463243950 0.000000000000000 0.000000000000000
f -1.014392885052833 0.000000000000000 0.000000000000000

IP_79.wfx

