%nprocs=4
%mem=4GB
#p pbepbe aug-cc-pvtz output=wfx scf=(conver=6) int=(grid=ultrafine)

title

1 2
n 0.000000000000000 0.000000000000000 -0.551979780346893
n 0.000000000000000 0.000000000000000 0.551979780346893

IP_74.wfx

