%nprocs=4
%mem=4GB
#p pbepbe aug-cc-pvtz output=wfx scf=(conver=6) int=(grid=ultrafine)

title

1 2
c 1.084703419273068 0.000000000000000 0.000000000000000
s -0.406329075424204 0.000000000000000 0.000000000000000

IP_80.wfx

