%nprocs=4
%mem=4GB
#p pbepbe aug-cc-pvtz output=wfx scf=(conver=6) int=(grid=ultrafine)

title

0 3
p 0.000000000000000 0.000000000000000 0.715286253096828
h 0.000000000000000 0.000000000000000 -0.715286253096828

IP_n65.wfx

