%nprocs=4
%mem=4GB
#p pbepbe aug-cc-pvtz output=wfx scf=(conver=6) int=(grid=ultrafine)

title

1 4
s 0.000000000000000 0.000000000000000 0.000000000000000

s+.wfx

