&control
 title='crystal',
 prefix='crystal',
 pseudo_dir='.',
 calculation='vc-relax',
/
&system
 ibrav=0,
 celldm(1)=1.0,
 nat=   104,
 ntyp=  4,
 ecutwfc=60.0,
 ecutrho=600.0,
 xdm=.true.,
 xdm_a1=0.4073,
 xdm_a2=2.4150,
/
&electrons
 conv_thr = 1d-8,
/
&ions
/
&cell
/
ATOMIC_SPECIES
h      1.007940 h.UPF
c     12.010700 c.UPF
n     14.006700 n.UPF
o     15.999400 o.UPF

ATOMIC_POSITIONS crystal
o     0.64095511     0.12013747     0.47930956
o     0.35904489     0.87986250     0.52069044
o     0.14093197     0.37980721     0.97930167
o     0.85906802     0.62019276     0.02069833
n     0.45865960     0.86379793     0.76862415
n     0.54134040     0.13620204     0.23137585
n     0.95866616     0.63620990     0.26861722
n     0.04133384     0.36379008     0.73138277
c     0.56366572     0.07781589     0.60331904
c     0.43633427     0.92218408     0.39668095
c     0.06364571     0.42216431     0.10333472
c     0.93635428     0.57783566     0.89666527
c     0.58981914     0.92376520     0.64457701
c     0.41018085     0.07623477     0.35542298
c     0.08982724     0.57620578     0.14457228
c     0.91017275     0.42379420     0.85542771
c     0.73364553     0.92444580     0.66285029
c     0.26635446     0.07555417     0.33714971
c     0.23365126     0.57550448     0.16284887
c     0.76634874     0.42449549     0.83715112
c     0.44770680     0.70242234     0.78519462
c     0.55229319     0.29757763     0.21480537
c     0.94771985     0.79758218     0.28518190
c     0.05228014     0.20241779     0.71481809
o     0.26065429     0.89990218     0.98798311
o     0.73934570     0.10009779     0.01201688
o     0.76063616     0.60019299     0.48797514
o     0.23936384     0.39980698     0.51202486
n     0.46175396     0.16547558     0.70545070
n     0.53824603     0.83452439     0.29454930
n     0.96173850     0.33454153     0.20545723
n     0.03826149     0.66545844     0.79454276
c     0.36047855     0.95090340     0.87409664
c     0.63952144     0.04909657     0.12590335
c     0.86048032     0.54914386     0.37408029
c     0.13951967     0.45085611     0.62591970
c     0.37310205     0.11821610     0.85273891
c     0.62689794     0.88178387     0.14726109
c     0.87308742     0.38183217     0.35274771
c     0.12691257     0.61816780     0.64725229
c     0.43159857     0.18887064     0.94795981
c     0.56840143     0.81112933     0.05204019
c     0.93159682     0.31120202     0.44796484
c     0.06840317     0.68879795     0.55203515
c     0.44716690     0.32054841     0.67180910
c     0.55283310     0.67945156     0.32819089
c     0.94715096     0.17947090     0.17181685
c     0.05284903     0.82052907     0.82818314
h     0.60969312     0.85133022     0.55578112
h     0.39030687     0.14866975     0.44421887
h     0.10970742     0.64862812     0.05577508
h     0.89029257     0.35137185     0.94422491
h     0.82953842     0.96519818     0.56604706
h     0.17046157     0.03480179     0.43395294
h     0.32954502     0.53473252     0.06604391
h     0.67045497     0.46526745     0.93395608
h     0.76018988     0.81133226     0.68137494
h     0.23981011     0.18866772     0.31862506
h     0.26019200     0.68861507     0.18138916
h     0.73980799     0.31138490     0.81861083
h     0.72028846     0.99566942     0.75071670
h     0.27971154     0.00433055     0.24928330
h     0.22029576     0.50428418     0.25070665
h     0.77970423     0.49571579     0.74929334
h     0.52247385     0.65149095     0.68362315
h     0.47752614     0.34850902     0.31637685
h     0.02248783     0.84848543     0.18360925
h     0.97751217     0.15151454     0.81639074
h     0.33029214     0.66656108     0.82144445
h     0.66970785     0.33343889     0.17855554
h     0.83030501     0.83346932     0.32143316
h     0.16969499     0.16653065     0.67856683
h     0.48299972     0.66542415     0.86280182
h     0.51700027     0.33457582     0.13719817
h     0.98301609     0.83458922     0.36278771
h     0.01698391     0.16541076     0.63721229
h     0.25643027     0.15816405     0.88908942
h     0.74356972     0.84183592     0.11091057
h     0.75641428     0.34189842     0.38910754
h     0.24358571     0.65810155     0.61089245
h     0.35473942     0.16094656     0.05781647
h     0.64526057     0.83905342     0.94218353
h     0.85473855     0.33915115     0.55782074
h     0.14526144     0.66084882     0.44217925
h     0.43329532     0.30984964     0.93739618
h     0.56670467     0.69015033     0.06260382
h     0.93331553     0.19021876     0.43740293
h     0.06668446     0.80978122     0.56259707
h     0.54598511     0.15016617     0.92197610
h     0.45401488     0.84983380     0.07802389
h     0.04597642     0.34990946     0.42198023
h     0.95402357     0.65009051     0.57801976
h     0.34997155     0.36989511     0.76206063
h     0.65002845     0.63010486     0.23793937
h     0.84996354     0.13014058     0.26206752
h     0.15003646     0.86985939     0.73793247
h     0.42816586     0.32623659     0.57957361
h     0.57183413     0.67376338     0.42042639
h     0.92814927     0.17376743     0.07958128
h     0.07185072     0.82623254     0.92041871
h     0.55077105     0.38353943     0.64797124
h     0.44922894     0.61646054     0.35202875
h     0.05075975     0.11646736     0.14797173
h     0.94924024     0.88353261     0.85202826

K_POINTS automatic
2 2 2 1 1 1

CELL_PARAMETERS cubic
   18.834753000000     0.000460000000     0.034056000000
    0.000416000000    17.015374000000    -0.000737000000
    9.484582000000    -0.000545000000    17.958979000000
