%nprocs=4
%mem=4GB
#p pbepbe aug-cc-pvtz output=wfx scf=(conver=6) int=(grid=ultrafine)

title

0 1
c 0.000000000000000 0.000000000000000 3.857518779454066
c 0.000000000000000 0.000000000000000 2.547120791383081
c 0.000000000000000 0.000000000000000 1.276938736555545
c 0.000000000000000 0.000000000000000 0.000000000000000
c 0.000000000000000 0.000000000000000 -1.276938736555545
c 0.000000000000000 0.000000000000000 -2.547120791383081
c 0.000000000000000 0.000000000000000 -3.857518779454066
h -0.655056265312425 0.655056265312425 4.422218020832704
h 0.655056265312425 -0.655056265312425 4.422218020832704
h -0.655056265312425 -0.655056265312425 -4.422218020832704
h 0.655056265312425 0.655056265312425 -4.422218020832704

heptahexaene.wfx

