%nprocs=4
%mem=2GB
#P pbepbe aug-cc-pvtz SCF=(Conver=6) Int=(grid=ultrafine) output=wfx
 
title
 
0 1
O	0.000000 0.722944 -0.058893
O	0.000000 -0.722944 -0.058893
H	0.789982 0.897694 0.471145
H	-0.789982 -0.897694 0.471145

hooh.wfx


