%nprocs=4
%mem=2GB
#P pbepbe aug-cc-pvtz SCF=(Conver=6) Int=(grid=ultrafine) output=wfx
 
title
 
0 2
C	0.000000 0.000000 0.274670
Cl	0.000000 1.695935 -0.032314
Cl	1.468723 -0.847967 -0.032314
Cl	-1.468723 -0.847967 -0.032314

trichloromethane_rad.wfx


