%nprocs=4
%mem=2GB
#P pbepbe aug-cc-pvtz SCF=(Conver=6) Int=(grid=ultrafine) output=wfx
 
title
 
0 1
C	-0.011698 -0.254626 1.202746
C	-0.008213 0.468270 0.000000
C	-0.011698 -0.254626 -1.202746
C	-0.011698 -1.647050 -1.205204
C	-0.010975 -2.345514 0.000000
C	-0.011698 -1.647050 1.205204
H	-0.019485 0.274993 2.151400
H	-0.019485 0.274993 -2.151400
H	-0.016067 -2.186406 -2.146894
H	-0.013938 -3.430659 0.000000
H	-0.016067 -2.186406 2.146894
Si	0.026803 2.339228 0.000000
H	-0.655910 2.860961 1.211350
H	1.417502 2.865951 0.000000
H	-0.655910 2.860961 -1.211350

phenylsilane.wfx


