%nprocs=4
%mem=2GB
#P pbepbe aug-cc-pvtz SCF=(Conver=6) Int=(grid=ultrafine) output=wfx
 
title
 
0 2
N	0.000000 0.000000 0.322643
O	0.000000 1.102041 -0.141156
O	0.000000 -1.102041 -0.141156

no2.wfx


