%nprocs=4
%mem=2GB
#P pbepbe aug-cc-pvtz SCF=(Conver=6) Int=(grid=ultrafine) output=wfx
 
title
 
0 2
S	0.000000 0.000000 0.079412
H	0.000000 0.000000 -1.270597

sh.wfx


