%nprocs=4
%mem=2GB
#P pbepbe aug-cc-pvtz SCF=(Conver=6) Int=(grid=ultrafine) output=wfx
 
title
 
0 2
C	0.000000 0.000000 1.395574
C	0.000000 0.000000 -1.321152
C	0.000000 1.224142 0.770537
C	0.000000 -1.224142 0.770537
C	0.000000 1.211674 -0.631211
C	0.000000 -1.211674 -0.631211
H	0.000000 0.000000 -2.405954
H	0.000000 2.159041 1.320756
H	0.000000 -2.159041 1.320756
H	0.000000 2.150500 -1.176998
H	0.000000 -2.150500 -1.176998

phenyl-radical.wfx


