%nprocs=4
%mem=2GB
#P pbepbe aug-cc-pvtz SCF=(Conver=6) Int=(grid=ultrafine) output=wfx
 
title
 
0 1
O	0.000000 0.000000 0.118882
H	0.000000 0.756653 -0.475529
H	0.000000 -0.756653 -0.475529

h2o.wfx


