%nprocs=4
%mem=2GB
#P pbepbe aug-cc-pvtz SCF=(Conver=6) Int=(grid=ultrafine) output=wfx
 
title
 
0 1
Si	0.000000 0.605678 0.000000
C	1.799575 1.185673 0.000000
H	2.337950 0.823466 -0.882970
H	1.869141 2.279765 0.000000
H	2.337950 0.823466 0.882970
C	-0.842026 1.296744 -1.537624
H	-0.853490 2.391658 -1.492261
H	-0.326917 1.022643 -2.463795
H	-1.879669 0.957160 -1.616844
C	-0.842026 1.296744 1.537624
H	-0.326917 1.022643 2.463795
H	-0.853490 2.391658 1.492261
H	-1.879669 0.957160 1.616844
N	-0.164190 -1.124581 0.000000
C	-0.009852 -1.922344 -1.203487
H	-0.737910 -2.747676 -1.219715
H	-0.180146 -1.318196 -2.098015
H	0.992819 -2.376068 -1.288925
C	-0.009852 -1.922344 1.203487
H	0.992819 -2.376068 1.288925
H	-0.180146 -1.318196 2.098015
H	-0.737910 -2.747676 1.219715

trimethylNNdimethylsilane.wfx


