%nprocs=4
%mem=2GB
#P pbepbe aug-cc-pvtz SCF=(Conver=6) Int=(grid=ultrafine) output=wfx
 
title
 
0 1
C	0.000000 0.000000 -1.516895
H	0.000000 1.032571 -1.860131
H	0.894232 -0.516285 -1.860131
H	-0.894232 -0.516285 -1.860131
Br	0.000000 0.000000 0.419479

bromomethane.wfx


