%nprocs=4
%mem=2GB
#P pbepbe aug-cc-pvtz SCF=(Conver=6) Int=(grid=ultrafine) output=wfx
 
title
 
0 2
C	-0.002488 1.120800 0.000000
Cl	-0.002488 -0.586397 0.000000
H	0.028607 1.621972 0.955048
H	0.028607 1.621972 -0.955048

CH2Cl.wfx


