%nprocs=4
%mem=2GB
#P pbepbe aug-cc-pvtz SCF=(Conver=6) Int=(grid=ultrafine) output=wfx
 
title
 
0 1
C	0.000000 0.000000 0.000000
H	0.630367 0.630367 0.630367
H	-0.630367 -0.630367 0.630367
H	0.630367 -0.630367 -0.630367
H	-0.630367 0.630367 -0.630367

ch4.wfx


