%nprocs=4
%mem=2GB
#P pbepbe aug-cc-pvtz SCF=(Conver=6) Int=(grid=ultrafine) output=wfx
 
title
 
0 1
C	-0.047994 1.160676 0.000000
S	-0.047994 -0.668905 0.000000
H	1.287605 -0.835974 0.000000
H	-1.096853 1.462323 0.000000
H	0.432553 1.556037 0.895739
H	0.432553 1.556037 -0.895739

h3csh.wfx


