%nprocs=4
%mem=2GB
#P pbepbe aug-cc-pvtz SCF=(Conver=6) Int=(grid=ultrafine) output=wfx
 
title
 
0 2
C	0.767783 -0.363280 0.029999
C	-0.767762 -0.363291 0.029993
C	0.000000 0.871654 -0.165807
H	1.299073 -0.520544 0.966979
H	1.256556 -0.824438 -0.826086
H	-1.299099 -0.520598 0.966944
H	-1.256547 -0.824499 -0.826065
H	0.000000 1.819584 0.353113

cyclopropane_rad.wfx


