%nprocs=4
%mem=2GB
#P pbepbe aug-cc-pvtz SCF=(Conver=6) Int=(grid=ultrafine) output=wfx
 
title
 
0 2
C	0.000000 0.000000 1.048677
C	0.000000 1.237095 0.289054
C	0.000000 1.223003 -1.085609
C	0.000000 0.000000 -1.781871
C	0.000000 -1.223003 -1.085609
C	0.000000 -1.237095 0.289054
H	0.000000 2.160613 0.857203
H	0.000000 2.153890 -1.643115
H	0.000000 0.000000 -2.866515
H	0.000000 -2.153890 -1.643115
H	0.000000 -2.160613 0.857203
O	0.000000 0.000000 2.299520

phenol_rad.wfx


