%nprocs=4
%mem=2GB
#P pbepbe aug-cc-pvtz SCF=(Conver=6) Int=(grid=ultrafine) output=wfx
 
title
 
0 2
N	0.000000 0.000000 0.144397
H	0.000000 0.800907 -0.505389
H	0.000000 -0.800907 -0.505389

nh2.wfx


