%nprocs=4
%mem=2GB
#P pbepbe aug-cc-pvtz SCF=(Conver=6) Int=(grid=ultrafine) output=wfx
 
title
 
0 2
C	0.000000 0.000000 0.274551
Cl	0.000000 1.695771 -0.032300
Cl	1.468581 -0.847886 -0.032300
Cl	-1.468581 -0.847886 -0.032300

CCl3.wfx


