%nprocs=4
%mem=2GB
#P pbepbe aug-cc-pvtz SCF=(Conver=6) Int=(grid=ultrafine) output=wfx
 
title
 
0 1
C	0.000000 0.819070 0.000000
H	-0.363145 1.338633 0.887495
H	-0.363145 1.338633 -0.887495
C	1.510402 0.673859 0.000000
H	1.854730 0.135272 -0.886414
H	1.854730 0.135272 0.886414
H	1.970536 1.668783 0.000000
Cl	-0.824477 -0.798481 0.000000

chloroethane.wfx


