%nprocs=4
%mem=2GB
#P pbepbe aug-cc-pvtz SCF=(Conver=6) Int=(grid=ultrafine) output=wfx
 
title
 
0 1
C	-1.323234 -0.000916 -0.003404
N	0.175868 0.000018 -0.009184
O	0.730132 -1.087065 0.002536
O	0.728333 1.087998 0.002525
H	-1.635064 0.008305 1.042616
H	-1.662595 0.901697 -0.506801
H	-1.661729 -0.912094 -0.491592

nitromethane.wfx


