%nprocs=4
%mem=2GB
#P pbepbe aug-cc-pvtz SCF=(Conver=6) Int=(grid=ultrafine) output=wfx
 
title
 
0 1
N	0.000000 0.000000 0.120472
H	0.000000 0.934537 -0.281102
H	0.809333 -0.467268 -0.281102
H	-0.809333 -0.467268 -0.281102

nh3.wfx


