%nprocs=4
%mem=2GB
#P pbepbe aug-cc-pvtz SCF=(Conver=6) Int=(grid=ultrafine) output=wfx
 
title
 
0 1
C	-0.510601 -0.044569 -0.107575
C	-0.512186 -0.040645 1.299225
C	0.677640 -0.039557 2.011175
C	1.905512 -0.043434 1.347868
C	1.914236 -0.044693 -0.042917
C	0.726618 -0.040980 -0.770653
H	-1.462574 -0.042852 1.826435
H	0.645474 -0.035324 3.096279
H	2.834307 -0.042903 1.906786
H	2.858399 -0.043402 -0.578933
H	0.764545 -0.036861 -1.853103
N	-1.717324 -0.086438 -0.792880
C	-1.801349 0.211821 -2.206840
H	-1.363862 1.186248 -2.476385
H	-1.292804 -0.558606 -2.797382
H	-2.852300 0.211277 -2.504696
H	-2.509144 0.219826 -0.250533

ArNHCH3.wfx


