%nprocs=4
%mem=2GB
#P pbepbe aug-cc-pvtz SCF=(Conver=6) Int=(grid=ultrafine) output=wfx
 
title
 
0 1
Si	0.000000 0.000000 0.000000
H	0.855859 0.855859 0.855859
H	-0.855859 -0.855859 0.855859
H	-0.855859 0.855859 -0.855859
H	0.855859 -0.855859 -0.855859

sih4.wfx


