&control
 title='crystal',
 prefix='crystal',
 pseudo_dir='..',
/
&system
 ibrav=1,
 celldm(1)=40,
 nat=2,
 ntyp=2,
 ecutwfc=80.0,
 ecutrho=800.0,
 xdm=.true.,
 xdm_a1=0.6754,
 xdm_a2=1.4651,
 input_dft='b86bpbex',
 exx_fraction=0.25,
/
&electrons
 conv_thr = 1d-8,
/
ATOMIC_SPECIES
I   126.904470 i.UPF
Cl    35.453000 cl.UPF

ATOMIC_POSITIONS angstrom
I        5.033969555   3.776433721   9.424094254
Cl       6.855350445   2.872406279   8.245345746

K_POINTS gamma

