&control
 title='crystal',
 prefix='crystal',
 pseudo_dir='.',
 calculation='vc-relax',
/
&system
 ibrav=0,
 celldm(1)=1.0,
 nat=    96,
 ntyp=  4,
 ecutwfc=60.0,
 ecutrho=600.0,
 xdm=.true.,
 xdm_a1=0.4073,
 xdm_a2=2.4150,
/
&electrons
 conv_thr = 1d-8,
/
&ions
/
&cell
/
ATOMIC_SPECIES
h      1.007940 h.UPF
c     12.010700 c.UPF
n     14.006700 n.UPF
o     15.999400 o.UPF

ATOMIC_POSITIONS crystal
c     0.96367075     0.13208316     0.33192445
c     0.03632931     0.86791684     0.66807554
c     0.96367077     0.36791684     0.83192446
c     0.03632929     0.63208317     0.16807554
c     0.80190465     0.19867798     0.37816999
c     0.19809540     0.80132202     0.62183001
c     0.80190467     0.30132202     0.87816999
c     0.19809538     0.69867799     0.12183000
c     0.49045559     0.31472960     0.30350875
c     0.50954447     0.68527040     0.69649124
c     0.49045560     0.18527040     0.80350876
c     0.50954445     0.81472960     0.19649124
c     0.54129756     0.43474303     0.31686511
c     0.45870250     0.56525697     0.68313488
c     0.54129758     0.06525697     0.81686512
c     0.45870248     0.93474304     0.18313488
c     0.74434763     0.45564985     0.42917678
c     0.25565242     0.54435016     0.57082322
c     0.74434765     0.04435016     0.92917678
c     0.25565241     0.95564985     0.07082321
c     0.55253630     0.48396254     0.17608368
c     0.44746376     0.51603747     0.82391631
c     0.55253632     0.01603747     0.67608369
c     0.44746374     0.98396254     0.32391630
c     0.29530957     0.29311516     0.18492521
c     0.70469048     0.70688485     0.81507478
c     0.29530959     0.20688485     0.68492521
c     0.70469047     0.79311516     0.31507478
n     0.66354373     0.25113732     0.27777556
n     0.33645633     0.74886268     0.72222444
n     0.66354375     0.24886268     0.77777556
n     0.33645631     0.75113733     0.22222443
o     0.79654023     0.20275656     0.50687250
o     0.20345983     0.79724344     0.49312749
o     0.79654024     0.29724344     0.00687250
o     0.20345981     0.70275657     0.99312749
o     0.29606319     0.23306077     0.08594304
o     0.70393687     0.76693924     0.91405695
o     0.29606320     0.26693924     0.58594305
o     0.70393685     0.73306077     0.41405695
o     0.12667030     0.34739092     0.19912460
o     0.87332976     0.65260908     0.80087540
o     0.12667032     0.15260908     0.69912460
o     0.87332974     0.84739093     0.30087539
h     0.95780321     0.13989531     0.21947785
h     0.04219684     0.86010469     0.78052215
h     0.95780323     0.36010469     0.71947785
h     0.04219683     0.63989532     0.28052214
h     0.93785891     0.04892635     0.35464603
h     0.06214115     0.95107366     0.64535397
h     0.93785893     0.45107366     0.85464603
h     0.06214113     0.54892635     0.14535396
h     0.12054129     0.15528314     0.39352865
h     0.87945876     0.84471687     0.60647134
h     0.12054131     0.34471687     0.89352866
h     0.87945874     0.65528314     0.10647133
h     0.45743229     0.28842362     0.40343767
h     0.54256776     0.71157638     0.59656232
h     0.45743231     0.21157638     0.90343767
h     0.54256774     0.78842363     0.09656232
h     0.40808750     0.46999005     0.35103591
h     0.59191255     0.53000995     0.64896408
h     0.40808752     0.03000995     0.85103592
h     0.59191254     0.96999006     0.14896408
h     0.73821251     0.42015019     0.53049115
h     0.26178754     0.57984981     0.46950884
h     0.73821253     0.07984981     0.03049116
h     0.26178753     0.92015020     0.96950884
h     0.76865401     0.54089611     0.44439973
h     0.23134605     0.45910390     0.55560026
h     0.76865402     0.95910390     0.94439974
h     0.23134603     0.04089611     0.05560026
h     0.88200716     0.42271439     0.39782652
h     0.11799290     0.57728561     0.60217347
h     0.88200718     0.07728561     0.89782653
h     0.11799288     0.92271440     0.10217347
h     0.67869803     0.44818322     0.13488110
h     0.32130202     0.55181679     0.86511889
h     0.67869805     0.05181679     0.63488111
h     0.32130200     0.94818322     0.36511889
h     0.58469788     0.56873336     0.18939642
h     0.41530218     0.43126665     0.81060357
h     0.58469790     0.93126665     0.68939643
h     0.41530216     0.06873336     0.31060357
h     0.40421756     0.47462720     0.09568723
h     0.59578250     0.52537280     0.90431277
h     0.40421757     0.02537280     0.59568723
h     0.59578248     0.97462721     0.40431276
h     0.67589935     0.24525174     0.17550464
h     0.32410070     0.75474826     0.82449536
h     0.67589937     0.25474826     0.67550464
h     0.32410068     0.74525174     0.32449535
h     0.99835445     0.32889402     0.11701130
h     0.00164561     0.67110599     0.88298869
h     0.99835446     0.17110599     0.61701131
h     0.00164559     0.82889402     0.38298868

K_POINTS automatic
2 2 2 1 1 1

CELL_PARAMETERS cubic
   12.319475000000     0.000000000000     0.181522000000
    0.000000000000    23.927670000000     0.000000000000
   -4.676857000000     0.000000000000    17.829427000000
