&control
 title='crystal',
 prefix='crystal',
 pseudo_dir='.',
 calculation='vc-relax',
/
&system
 ibrav=0,
 celldm(1)=1.0,
 nat=    60,
 ntyp=  4,
 ecutwfc=60.0,
 ecutrho=600.0,
 xdm=.true.,
 xdm_a1=0.4073,
 xdm_a2=2.4150,
/
&electrons
 conv_thr = 1d-8,
/
&ions
/
&cell
/
ATOMIC_SPECIES
h      1.007940 h.UPF
c     12.010700 c.UPF
o     15.999400 o.UPF
f     18.998403 f.UPF

ATOMIC_POSITIONS crystal
f     0.32956556     0.72548300     0.40413462
f     0.82956593     0.22548191     0.40413454
f     0.67043444     0.72548300     0.59586537
f     0.17043482     0.22548191     0.59586529
f     0.41922348     0.50975843     0.29072959
f     0.91922385     0.00975734     0.29072951
f     0.58077652     0.50975843     0.70927039
f     0.08077690     0.00975734     0.70927032
f     0.34100245     0.35449647     0.43656502
f     0.84100283     0.85449539     0.43656494
f     0.65899754     0.35449647     0.56343497
f     0.15899792     0.85449539     0.56343489
o     0.16237897     0.67896336     0.11862170
o     0.66237935     0.17896227     0.11862162
o     0.83762103     0.67896336     0.88137829
o     0.33762140     0.17896227     0.88137821
h     0.22199310     0.65590385     0.06687837
h     0.72199348     0.15590276     0.06687829
h     0.77800690     0.65590385     0.93312162
h     0.27800728     0.15590276     0.93312154
o     0.15725317     0.09026979     0.21185142
o     0.65725354     0.59026870     0.21185134
o     0.84274684     0.09026979     0.78814857
o     0.34274721     0.59026870     0.78814849
h     0.15932359     0.93620105     0.16617841
h     0.65932397     0.43619996     0.16617833
h     0.84067640     0.93620105     0.83382158
h     0.34067678     0.43619996     0.83382150
o     0.18178789     0.25828522     0.02616950
o     0.68178827     0.75828413     0.02616942
o     0.81821211     0.25828522     0.97383048
o     0.31821248     0.75828413     0.97383040
c     0.31728076     0.52029989     0.33862166
c     0.81728114     0.02029881     0.33862159
c     0.68271924     0.52029989     0.66137833
c     0.18271961     0.02029881     0.66137825
c     0.06026015     0.51624189     0.26546246
c     0.56026053     0.01624081     0.26546238
c     0.93973986     0.51624189     0.73453753
c     0.43974023     0.01624081     0.73453745
h     0.96213347     0.49558043     0.17560379
h     0.46213385     0.99557934     0.17560371
h     0.03786653     0.49558043     0.82439620
h     0.53786691     0.99557934     0.82439612
h     0.06402299     0.68389257     0.31337833
h     0.56402337     0.18389149     0.31337826
h     0.93597701     0.68389257     0.68662165
h     0.43597739     0.18389149     0.68662158
h     0.07021696     0.38279558     0.34252874
h     0.57021734     0.88279450     0.34252866
h     0.92978304     0.38279558     0.65747125
h     0.42978342     0.88279450     0.65747117
c     0.17514035     0.49714055     0.21404972
c     0.67514072     0.99713946     0.21404964
c     0.82485965     0.49714055     0.78595026
c     0.32486003     0.99713946     0.78595018
c     0.17153175     0.26578751     0.13992185
c     0.67153213     0.76578642     0.13992177
c     0.82846825     0.26578751     0.86007814
c     0.32846862     0.76578642     0.86007806

K_POINTS automatic
2 2 2 1 1 1

CELL_PARAMETERS cubic
   20.130514000000     0.000000000000     0.028425000000
    0.000000000000    11.042043000000     0.000000000000
   -7.882534000000     0.000000000000    17.958786000000
