&control
 title='crystal',
 prefix='crystal',
 pseudo_dir='.',
 calculation='vc-relax',
/
&system
 ibrav=0,
 celldm(1)=1.0,
 nat=    30,
 ntyp=  4,
 ecutwfc=60.0,
 ecutrho=600.0,
 xdm=.true.,
 xdm_a1=0.4073,
 xdm_a2=2.4150,
/
&electrons
 conv_thr = 1d-8,
/
&ions
/
&cell
/
ATOMIC_SPECIES
h      1.007940 h.UPF
c     12.010700 c.UPF
o     15.999400 o.UPF
f     18.998403 f.UPF

ATOMIC_POSITIONS crystal
f     0.48869435     0.53113038     0.20531847
f     0.51130560     0.46886961     0.79468150
f     0.45425619     0.21072105     0.05832391
f     0.54574376     0.78927895     0.94167606
f     0.10916615     0.25410983     0.10070951
f     0.89083380     0.74589017     0.89929046
o     0.15639687     0.20316697     0.38492739
o     0.84360308     0.79683303     0.61507258
h     0.26647839     0.37486475     0.43578710
h     0.73352156     0.62513524     0.56421287
o     0.65076381     0.32863241     0.47516542
o     0.34923614     0.67136759     0.52483455
o     0.68128922     0.08149981     0.29056517
o     0.31871073     0.91850018     0.70943480
h     0.86433934     0.13669423     0.33586255
h     0.13566061     0.86330576     0.66413742
c     0.33757036     0.28011988     0.16093307
c     0.66242959     0.71988011     0.83906690
c     0.13245358     0.84439777     0.23995459
c     0.86754637     0.15560222     0.76004539
h     0.10725844     0.74158984     0.33209422
h     0.89274151     0.25841016     0.66790575
h     0.22884697     0.77893762     0.16281740
h     0.77115298     0.22106238     0.83718257
h     0.94301362     0.80838361     0.19171545
h     0.05698633     0.19161639     0.80828452
c     0.29398361     0.12575849     0.28877529
c     0.70601634     0.87424150     0.71122469
c     0.56282736     0.18958837     0.36205966
c     0.43717259     0.81041163     0.63794031

K_POINTS automatic
2 2 2 1 1 1

CELL_PARAMETERS cubic
   10.999108000000    -0.047592000000    -0.072024000000
   -5.090095000000    10.107879000000    -0.058745000000
   -0.703348000000    -2.081213000000    17.834150000000
