&control
 title='crystal',
 prefix='crystal',
 pseudo_dir='.',
 calculation='vc-relax',
/
&system
 ibrav=0,
 celldm(1)=1.0,
 nat=    68,
 ntyp=  4,
 ecutwfc=60.0,
 ecutrho=600.0,
 xdm=.true.,
 xdm_a1=0.4073,
 xdm_a2=2.4150,
/
&electrons
 conv_thr = 1d-8,
/
&ions
/
&cell
/
ATOMIC_SPECIES
h      1.007940 h.UPF
c     12.010700 c.UPF
o     15.999400 o.UPF
i    126.904470 i.UPF

ATOMIC_POSITIONS crystal
c     0.03458142     0.44160378     0.54878837
c     0.96541865     0.55839621     0.45121171
c     0.03458141     0.05839621     0.04878836
c     0.96541866     0.94160377     0.95121172
c     0.14873918     0.43216585     0.73259449
c     0.85126089     0.56783414     0.26740559
c     0.14873917     0.06783414     0.23259448
c     0.85126090     0.93216584     0.76740560
c     0.21275004     0.31669654     0.82602864
c     0.78725003     0.68330345     0.17397144
c     0.21275003     0.18330345     0.32602862
c     0.78725004     0.81669653     0.67397146
c     0.16613684     0.21312430     0.73614766
c     0.83386322     0.78687569     0.26385242
c     0.16613684     0.28687570     0.23614764
c     0.83386323     0.71312429     0.76385244
i     0.25098942     0.03794046     0.85867864
i     0.74901065     0.96205952     0.14132143
i     0.25098941     0.46205953     0.35867863
i     0.74901066     0.53794046     0.64132145
c     0.05943328     0.22306565     0.56204938
c     0.94056679     0.77693433     0.43795070
c     0.05943327     0.27693434     0.06204936
c     0.94056680     0.72306565     0.93795071
c     0.98934603     0.33667391     0.46387542
c     0.01065403     0.66332607     0.53612466
c     0.98934602     0.16332608     0.96387541
c     0.01065404     0.83667391     0.03612467
c     0.86422008     0.34212762     0.26702932
c     0.13577999     0.65787237     0.73297076
c     0.86422007     0.15787237     0.76702931
c     0.13578000     0.84212761     0.23297077
o     0.81263893     0.24981175     0.18085423
o     0.18736114     0.75018823     0.81914585
o     0.81263892     0.25018824     0.68085421
o     0.18736115     0.74981175     0.31914587
c     0.80151364     0.46320369     0.17597014
c     0.19848643     0.53679629     0.82402994
c     0.80151363     0.03679630     0.67597012
c     0.19848644     0.96320369     0.32402995
c     0.69372434     0.47367601     0.99994547
c     0.30627573     0.52632398     0.00005461
c     0.69372433     0.02632398     0.49994545
c     0.30627574     0.97367600     0.50005462
c     0.63721204     0.58675756     0.91415589
c     0.36278803     0.41324243     0.08584419
c     0.63721203     0.91324243     0.41415588
c     0.36278804     0.08675756     0.58584420
c     0.68343738     0.68933480     0.00000238
c     0.31656269     0.31066519     0.99999770
c     0.68343737     0.81066519     0.50000237
c     0.31656270     0.18933479     0.49999771
h     0.02508275     0.14417993     0.49459354
h     0.97491732     0.85582005     0.50540654
h     0.02508274     0.35582006     0.99459353
h     0.97491733     0.64417993     0.00540655
h     0.35861984     0.22267507     0.06482517
h     0.64138023     0.77732492     0.93517491
h     0.35861983     0.27732493     0.56482516
h     0.64138024     0.72267506     0.43517492
h     0.44224301     0.40556604     0.21923561
h     0.55775706     0.59443394     0.78076447
h     0.44224300     0.09443395     0.71923559
h     0.55775707     0.90556604     0.28076449
h     0.34181012     0.60811364     0.06607744
h     0.65818995     0.39188634     0.93392264
h     0.34181011     0.89188635     0.56607743
h     0.65818996     0.10811364     0.43392265

K_POINTS automatic
2 2 2 1 1 1

CELL_PARAMETERS cubic
   33.446251000000     0.000000000000    -1.162361000000
    0.000000000000    21.014043000000     0.000000000000
  -33.083921000000     0.000000000000     8.590836000000
