&control
 title='crystal',
 prefix='crystal',
 pseudo_dir='.',
 calculation='vc-relax',
/
&system
 ibrav=0,
 celldm(1)=1.0,
 nat=   136,
 ntyp=  4,
 ecutwfc=60.0,
 ecutrho=600.0,
 xdm=.true.,
 xdm_a1=0.4073,
 xdm_a2=2.4150,
/
&electrons
 conv_thr = 1d-8,
/
&ions
/
&cell
/
ATOMIC_SPECIES
h      1.007940 h.UPF
c     12.010700 c.UPF
o     15.999400 o.UPF
i    126.904470 i.UPF

ATOMIC_POSITIONS crystal
i     0.86915776     0.19683945     0.22063102
i     0.63084145     0.30315911     0.27937029
i     0.86915854     0.69684090     0.77937028
i     0.36915855     0.80315912     0.22062970
i     0.36915776     0.30316056     0.77936897
i     0.13084145     0.19684089     0.72062970
i     0.13084223     0.69683945     0.27936898
i     0.63084223     0.80316056     0.72063101
o     0.35582046     0.43625549     0.02197853
o     0.14417874     0.06374307     0.47802277
o     0.35582125     0.93625693     0.97802277
o     0.85582125     0.56374308     0.02197722
o     0.85582047     0.06374452     0.97802145
o     0.64417874     0.43625693     0.52197721
o     0.64417953     0.93625549     0.47802146
o     0.14417952     0.56374453     0.52197853
c     0.30970621     0.37442661     0.08760035
c     0.19029299     0.12557195     0.41240096
c     0.30970700     0.87442805     0.91240095
c     0.80970700     0.62557196     0.08759904
c     0.80970622     0.12557340     0.91239964
c     0.69029299     0.37442805     0.58759903
c     0.69029378     0.87442661     0.41239964
c     0.19029377     0.62557341     0.58760034
c     0.02307121     0.32328765     0.05762366
c     0.47692799     0.17671091     0.44237764
c     0.02307200     0.82328909     0.94237764
c     0.52307200     0.67671092     0.05762235
c     0.52307122     0.17671236     0.94237632
c     0.97692799     0.32328909     0.55762234
c     0.97692878     0.82328765     0.44237633
c     0.47692877     0.67671236     0.55762366
c     0.07497278     0.38778917     0.98330318
c     0.42502643     0.11220939     0.51669813
c     0.07497356     0.88779062     0.01669812
c     0.57497357     0.61220940     0.98330187
c     0.57497278     0.11221084     0.01669681
c     0.92502643     0.38779061     0.48330186
c     0.92502721     0.88778917     0.51669681
c     0.42502721     0.61221084     0.48330317
c     0.16860024     0.40443796     0.99390624
c     0.33139897     0.09556061     0.50609507
c     0.16860102     0.90443940     0.00609506
c     0.66860103     0.59556061     0.99390493
c     0.66860024     0.09556205     0.00609375
c     0.83139897     0.40443939     0.49390492
c     0.83139975     0.90443796     0.50609375
c     0.33139975     0.59556206     0.49390624
c     0.21071465     0.35496294     0.07886578
c     0.28928455     0.14503562     0.42113553
c     0.21071544     0.85496438     0.92113552
c     0.71071544     0.64503563     0.07886447
c     0.71071466     0.14503707     0.92113421
c     0.78928455     0.35496438     0.57886446
c     0.78928534     0.85496294     0.42113421
c     0.28928533     0.64503707     0.57886578
c     0.15893505     0.28942174     0.15668686
c     0.34106416     0.21057682     0.34331444
c     0.15893583     0.78942318     0.84331444
c     0.65893584     0.71057683     0.15668555
c     0.65893505     0.21057827     0.84331312
c     0.84106416     0.28942318     0.65668554
c     0.84106494     0.78942174     0.34331313
c     0.34106494     0.71057827     0.65668686
c     0.06281366     0.27542322     0.14613137
c     0.43718554     0.22457535     0.35386993
c     0.06281444     0.77542466     0.85386993
c     0.56281445     0.72457535     0.14613006
c     0.56281367     0.22457679     0.85386861
c     0.93718555     0.27542465     0.64613005
c     0.93718633     0.77542322     0.35386862
c     0.43718632     0.72457680     0.64613137
c     0.20158755     0.24200738     0.24483495
c     0.29841165     0.25799118     0.25516635
c     0.20158833     0.74200883     0.75516635
c     0.70158834     0.75799119     0.24483364
c     0.70158756     0.25799263     0.75516503
c     0.79841165     0.24200882     0.74483363
c     0.79841244     0.74200738     0.25516504
c     0.29841243     0.75799263     0.74483495
c     0.01225110     0.21611249     0.22704547
c     0.48774810     0.28388608     0.27295583
c     0.01225188     0.71611393     0.77295583
c     0.51225189     0.78388608     0.22704416
c     0.51225111     0.28388752     0.77295451
c     0.98774811     0.21611392     0.72704415
c     0.98774889     0.71611249     0.27295452
c     0.48774888     0.78388753     0.72704547
c     0.05378282     0.16997111     0.31144332
c     0.44621639     0.33002745     0.18855798
c     0.05378360     0.66997256     0.68855798
c     0.55378361     0.83002746     0.31144201
c     0.55378282     0.33002890     0.68855666
c     0.94621639     0.16997255     0.81144200
c     0.94621717     0.66997111     0.18855667
c     0.44621717     0.83002890     0.81144332
c     0.14861362     0.18132380     0.32071249
c     0.35138558     0.31867477     0.17928882
c     0.14861440     0.68132524     0.67928882
c     0.64861441     0.81867477     0.32071117
c     0.64861362     0.31867621     0.67928750
c     0.85138559     0.18132523     0.82071117
c     0.85138637     0.68132380     0.17928751
c     0.35138636     0.81867622     0.82071248
h     0.95038891     0.31071648     0.04866512
h     0.54961029     0.18928208     0.45133618
h     0.95038969     0.81071793     0.95133618
h     0.45038970     0.68928209     0.04866381
h     0.45038892     0.18928352     0.95133486
h     0.04961030     0.31071792     0.54866380
h     0.04961108     0.81071648     0.45133487
h     0.54961107     0.68928353     0.54866512
h     0.04251719     0.42645487     0.91654939
h     0.45748201     0.07354369     0.58345192
h     0.04251797     0.92645632     0.08345191
h     0.54251798     0.57354370     0.91654807
h     0.54251720     0.07354513     0.08345060
h     0.95748202     0.42645631     0.41654807
h     0.95748280     0.92645487     0.58345061
h     0.45748279     0.57354514     0.41654938
h     0.21021248     0.45631151     0.93630953
h     0.28978673     0.04368705     0.56369177
h     0.21021326     0.95631296     0.06369177
h     0.71021327     0.54368706     0.93630822
h     0.71021248     0.04368850     0.06369045
h     0.78978673     0.45631295     0.43630821
h     0.78978751     0.95631151     0.56369046
h     0.28978751     0.54368850     0.43630953
h     0.01577296     0.12354946     0.37299998
h     0.48422624     0.37644910     0.12700132
h     0.01577374     0.62355091     0.62700132
h     0.51577375     0.87644911     0.37299867
h     0.51577297     0.37645055     0.62700000
h     0.98422625     0.12355090     0.87299866
h     0.98422703     0.62354946     0.12700001
h     0.48422702     0.87645055     0.87299998

K_POINTS automatic
2 2 2 1 1 1

CELL_PARAMETERS cubic
   27.943226000000     0.000000000000     0.000000000000
    0.000000000000    14.878269000000     0.000000000000
    0.000000000000     0.000000000000    26.213600000000
