&control
 title='crystal',
 prefix='crystal',
 pseudo_dir='.',
 calculation='vc-relax',
/
&system
 ibrav=0,
 celldm(1)=1.0,
 nat=   136,
 ntyp=  4,
 ecutwfc=60.0,
 ecutrho=600.0,
 xdm=.true.,
 xdm_a1=0.4073,
 xdm_a2=2.4150,
/
&electrons
 conv_thr = 1d-8,
/
&ions
/
&cell
/
ATOMIC_SPECIES
h      1.007940 h.UPF
c     12.010700 c.UPF
o     15.999400 o.UPF
i    126.904470 i.UPF

ATOMIC_POSITIONS crystal
c     0.93037445     0.94364492     0.07090886
c     0.06962555     0.44364489     0.42909114
c     0.56962290     0.05635098     0.57091200
c     0.43037709     0.55635096     0.92908800
c     0.91538588     0.03574130     0.95609192
c     0.08461411     0.53574127     0.54390808
c     0.58461117     0.96425289     0.45609412
c     0.41538883     0.46425286     0.04390588
c     0.88096472     0.21149038     0.94807614
c     0.11903527     0.71149035     0.55192386
c     0.61903222     0.78850259     0.44807570
c     0.38096777     0.28850256     0.05192430
c     0.86175043     0.29024576     0.05386052
c     0.13824956     0.79024573     0.44613948
c     0.63824675     0.70974631     0.55385845
c     0.36175324     0.20974629     0.94614155
c     0.87609362     0.19428759     0.16699363
c     0.12390637     0.69428757     0.33300637
c     0.62390368     0.80570490     0.66699238
c     0.37609631     0.30570487     0.83300762
c     0.96495199     0.77593596     0.07500946
c     0.03504800     0.27593593     0.42499054
c     0.53504549     0.22406175     0.57501526
c     0.46495450     0.72406172     0.92498474
c     0.98405232     0.69718831     0.97107404
c     0.01594767     0.19718829     0.52892596
c     0.51594506     0.30281034     0.47108120
c     0.48405493     0.80281031     0.02891880
c     0.96905311     0.78069195     0.85887494
c     0.03094688     0.28069193     0.64112506
c     0.53094390     0.21930368     0.35888137
c     0.46905610     0.71930365     0.14111863
c     0.93537226     0.94884122     0.85040300
c     0.06462773     0.44884119     0.64959700
c     0.56462452     0.05115344     0.35040688
c     0.43537547     0.55115341     0.14959312
c     0.82615845     0.47684343     0.04959523
c     0.17384154     0.97684341     0.45040477
c     0.67383891     0.52315240     0.54958947
c     0.32616108     0.02315237     0.95041053
c     0.81199718     0.57014007     0.92895542
c     0.18800282     0.07014005     0.57104458
c     0.68800011     0.42985859     0.42894889
c     0.31199988     0.92985857     0.07105111
c     0.83223357     0.48479780     0.82348269
c     0.16776642     0.98479777     0.67651731
c     0.66776328     0.51519962     0.32347804
c     0.33223671     0.01519959     0.17652196
c     0.86648132     0.30680303     0.83177855
c     0.13351867     0.80680300     0.66822145
c     0.63351534     0.69319063     0.33177698
c     0.36648466     0.19319061     0.16822302
c     0.92070049     0.03417478     0.73008223
c     0.07929950     0.53417475     0.76991777
c     0.57929608     0.96581858     0.23008552
c     0.42070391     0.46581855     0.26991448
c     0.88554330     0.22511980     0.72598873
c     0.11445669     0.72511977     0.77401127
c     0.61445300     0.77487296     0.22598875
c     0.38554699     0.27487293     0.27401125
c     0.81757342     0.57816656     0.70831090
c     0.18242657     0.07816653     0.79168910
c     0.68242337     0.42183673     0.20830480
c     0.31757662     0.92183670     0.29169520
c     0.78328161     0.74978752     0.70353966
c     0.21671838     0.24978750     0.79646034
c     0.71671574     0.25022638     0.20352978
c     0.28328426     0.75022635     0.29647022
c     0.76402713     0.82942794     0.80694041
c     0.23597286     0.32942791     0.69305959
c     0.73597082     0.17058758     0.30692871
c     0.26402917     0.67058755     0.19307129
c     0.77844797     0.74080339     0.91961752
c     0.22155202     0.24080337     0.58038248
c     0.72154975     0.25920394     0.41960723
c     0.27845024     0.75920391     0.08039277
c     0.87143154     0.32000584     0.61263441
c     0.12856846     0.82000582     0.88736559
c     0.62856448     0.67998854     0.11263316
c     0.37143552     0.17998851     0.38736684
c     0.90936650     0.02707350     0.17547408
c     0.09063349     0.52707348     0.32452592
c     0.59063103     0.97292166     0.67547539
c     0.40936896     0.47292163     0.82452461
c     0.83845535     0.49118023     0.60387723
c     0.16154464     0.99118020     0.89612277
c     0.66154099     0.50882077     0.10387285
c     0.33845900     0.00882074     0.39612715
o     0.80902599     0.55254890     0.14246292
o     0.19097400     0.05254887     0.35753708
o     0.69097195     0.44744903     0.64245634
o     0.30902804     0.94744900     0.85754366
o     0.93709210     0.94726787     0.63700285
o     0.06290789     0.44726785     0.86299715
o     0.56290423     0.05272901     0.13700632
o     0.43709576     0.55272898     0.36299368
i     0.92817570     0.89936468     0.34979473
i     0.07182430     0.39936465     0.15020527
i     0.57182230     0.10063605     0.84979657
i     0.42817769     0.60063602     0.65020343
i     0.81984467     0.61005994     0.42866638
i     0.18015533     0.11005991     0.07133362
i     0.68015193     0.38995465     0.92866009
i     0.31984806     0.88995462     0.57133991
h     0.86011304     0.25797855     0.24671139
h     0.13988696     0.75797853     0.25328861
h     0.63988419     0.74201278     0.74670922
h     0.36011580     0.24201275     0.75329078
h     0.97646470     0.70787822     0.16232973
h     0.02353529     0.20787819     0.33767027
h     0.52353286     0.29211987     0.66233632
h     0.47646713     0.79211984     0.83766368
h     0.01066973     0.56930363     0.97510839
h     0.98933027     0.06930361     0.52489161
h     0.48932788     0.43069793     0.47511727
h     0.51067211     0.93069790     0.02488273
h     0.98347013     0.71502262     0.77614508
h     0.01652986     0.21502259     0.72385492
h     0.51652665     0.28497164     0.27615237
h     0.48347334     0.78497161     0.22384763
h     0.77205933     0.81763186     0.61593209
h     0.22794066     0.31763184     0.88406791
h     0.72793800     0.18239021     0.11592069
h     0.27206200     0.68239018     0.38407931
h     0.73761050     0.96034133     0.80040065
h     0.26238949     0.46034130     0.69959935
h     0.76238798     0.03968501     0.30038574
h     0.23761202     0.53968499     0.19961426
h     0.76355590     0.80118239     0.00197968
h     0.23644409     0.30118237     0.49802032
h     0.73644228     0.19882613     0.50196795
h     0.26355771     0.69882610     0.99803205
h     0.88736660     0.25234632     0.53322770
h     0.11263340     0.75234629     0.96677230
h     0.61262903     0.74764695     0.03322793
h     0.38737097     0.24764692     0.46677207

K_POINTS automatic
2 2 2 1 1 1

CELL_PARAMETERS cubic
   68.304379000000     0.000000000000     0.000307000000
    0.000000000000     7.417503000000     0.000000000000
    0.000097000000     0.000000000000    20.996659000000
