&control
 title='crystal',
 prefix='crystal',
 pseudo_dir='.',
 calculation='vc-relax',
/
&system
 ibrav=0,
 celldm(1)=1.0,
 nat=    68,
 ntyp=  4,
 ecutwfc=60.0,
 ecutrho=600.0,
 xdm=.true.,
 xdm_a1=0.4073,
 xdm_a2=2.4150,
/
&electrons
 conv_thr = 1d-8,
/
&ions
/
&cell
/
ATOMIC_SPECIES
h      1.007940 h.UPF
c     12.010700 c.UPF
o     15.999400 o.UPF
i    126.904470 i.UPF

ATOMIC_POSITIONS crystal
i     0.92838876     0.94449000     0.59860907
i     0.07161122     0.05550998     0.40139090
i     0.92838875     0.55550997     0.09860908
i     0.07161122     0.44449001     0.90139090
o     0.53381134     0.18680159     0.99728763
o     0.46618864     0.81319839     0.00271234
o     0.53381133     0.31319837     0.49728764
o     0.46618864     0.68680161     0.50271233
c     0.66773747     0.12464146     0.98257858
c     0.33226251     0.87535852     0.01742139
c     0.66773746     0.37535851     0.48257859
c     0.33226251     0.62464148     0.51742139
c     0.60295783     0.08101346     0.67727367
c     0.39704215     0.91898652     0.32272630
c     0.60295782     0.41898650     0.17727368
c     0.39704215     0.58101348     0.82272629
c     0.45198265     0.14583683     0.69429154
c     0.54801732     0.85416315     0.30570843
c     0.45198265     0.35416314     0.19429155
c     0.54801732     0.64583684     0.80570842
c     0.47394524     0.15710060     0.79432671
c     0.52605473     0.84289938     0.20567327
c     0.47394524     0.34289937     0.29432671
c     0.52605473     0.65710061     0.70567326
c     0.64852465     0.10605699     0.87795364
c     0.35147533     0.89394299     0.12204634
c     0.64852464     0.39394298     0.37795364
c     0.35147533     0.60605700     0.62204633
c     0.80729391     0.04143820     0.86277286
c     0.19270607     0.95856178     0.13722711
c     0.80729390     0.45856177     0.36277287
c     0.19270607     0.54143821     0.63722710
c     0.78365974     0.02891326     0.76007541
c     0.21634023     0.97108672     0.23992456
c     0.78365974     0.47108671     0.26007542
c     0.21634023     0.52891327     0.73992455
c     0.98882626     0.99259927     0.94837281
c     0.01117371     0.00740071     0.05162716
c     0.98882625     0.50740069     0.44837282
c     0.01117371     0.49259929     0.55162716
c     0.94757013     0.96747118     0.74744357
c     0.05242985     0.03252880     0.25255640
c     0.94757012     0.53252879     0.24744358
c     0.05242985     0.46747120     0.75255639
c     0.12204956     0.92097146     0.83001364
c     0.87795041     0.07902852     0.16998633
c     0.12204956     0.57902851     0.33001365
c     0.87795041     0.42097147     0.66998632
c     0.14346249     0.93179611     0.93092496
c     0.85653748     0.06820387     0.06907501
c     0.14346249     0.56820385     0.43092497
c     0.85653748     0.43179613     0.56907500
h     0.58538651     0.07369343     0.59940235
h     0.41461346     0.92630655     0.40059762
h     0.58538650     0.42630654     0.09940236
h     0.41461346     0.57369344     0.90059762
h     0.31648707     0.18971142     0.62961950
h     0.68351290     0.81028856     0.37038048
h     0.31648707     0.31028855     0.12961950
h     0.68351290     0.68971143     0.87038047
h     0.35563251     0.20652305     0.80871181
h     0.64436747     0.79347693     0.19128817
h     0.35563250     0.29347692     0.30871181
h     0.64436747     0.70652306     0.69128816
h     0.24731862     0.87498755     0.82051889
h     0.75268135     0.12501243     0.17948108
h     0.24731862     0.62501242     0.32051890
h     0.75268135     0.37498756     0.67948107

K_POINTS automatic
2 2 2 1 1 1

CELL_PARAMETERS cubic
   14.316858000000     0.000000000000    -0.078869000000
    0.000000000000    15.260450000000     0.000000000000
  -12.583141000000     0.000000000000    24.626946000000
