&control
 title='crystal',
 prefix='crystal',
 pseudo_dir='.',
 calculation='vc-relax',
/
&system
 ibrav=0,
 celldm(1)=1.0,
 nat=    34,
 ntyp=  4,
 ecutwfc=60.0,
 ecutrho=600.0,
 xdm=.true.,
 xdm_a1=0.4073,
 xdm_a2=2.4150,
/
&electrons
 conv_thr = 1d-8,
/
&ions
/
&cell
/
ATOMIC_SPECIES
h      1.007940 h.UPF
c     12.010700 c.UPF
o     15.999400 o.UPF
i    126.904470 i.UPF

ATOMIC_POSITIONS crystal
c     0.91026889     0.74917712     0.53556606
c     0.08973114     0.25082292     0.46443396
c     0.68792332     0.82794971     0.61697265
c     0.31207671     0.17205033     0.38302737
c     0.48942394     0.96855919     0.56723351
c     0.51057609     0.03144085     0.43276650
c     0.05559793     0.18828477     0.60146183
c     0.94440210     0.81171527     0.39853819
c     0.27338268     0.04361010     0.64993503
c     0.72661735     0.95638994     0.35006499
c     0.66441083     0.76349758     0.74970132
c     0.33558920     0.23650246     0.25029870
c     0.85834011     0.62260006     0.79443608
c     0.14165992     0.37739998     0.20556394
c     0.07081577     0.54776834     0.71313791
c     0.92918426     0.45223170     0.28686210
c     0.09867353     0.61159522     0.58456908
c     0.90132651     0.38840482     0.41543094
c     0.25391775     0.98157214     0.78106011
c     0.74608228     0.01842790     0.21893991
c     0.44236537     0.84580855     0.82941666
c     0.55763467     0.15419149     0.17058335
o     0.85153194     0.25362938     0.67197938
o     0.14846809     0.74637066     0.32802064
i     0.37721700     0.76595138     0.02677120
i     0.62278303     0.23404866     0.97322881
h     0.83521868     0.57267932     0.89432992
h     0.16478135     0.42732072     0.10567010
h     0.21517245     0.43898828     0.74823127
h     0.78482758     0.56101175     0.25176874
h     0.26647696     0.55414782     0.52002606
h     0.73352307     0.44585222     0.47997396
h     0.08205844     0.04385989     0.84137615
h     0.91794159     0.95614015     0.15862386

K_POINTS automatic
2 2 2 1 1 1

CELL_PARAMETERS cubic
    7.440140000000     0.186173000000    -0.633736000000
    3.949657000000    18.209124000000    -0.886857000000
    0.601421000000     3.805574000000    19.049529000000
