&control
 title='crystal',
 prefix='crystal',
 pseudo_dir='.',
 calculation='vc-relax',
/
&system
 ibrav=0,
 celldm(1)=1.0,
 nat=    68,
 ntyp=  4,
 ecutwfc=60.0,
 ecutrho=600.0,
 xdm=.true.,
 xdm_a1=0.4073,
 xdm_a2=2.4150,
/
&electrons
 conv_thr = 1d-8,
/
&ions
/
&cell
/
ATOMIC_SPECIES
h      1.007940 h.UPF
c     12.010700 c.UPF
o     15.999400 o.UPF
i    126.904470 i.UPF

ATOMIC_POSITIONS crystal
c     0.65734901     0.52259169     0.54131699
c     0.34265097     0.47740827     0.45868302
c     0.65734901     0.97740824     0.04131699
c     0.34265097     0.02259172     0.95868301
c     0.45461434     0.55189250     0.51288570
c     0.54538564     0.44810746     0.48711430
c     0.45461435     0.94810743     0.01288571
c     0.54538563     0.05189253     0.98711430
c     0.47480936     0.72680040     0.59050272
c     0.52519062     0.27319956     0.40949729
c     0.47480936     0.77319953     0.09050272
c     0.52519062     0.22680043     0.90949728
c     0.68082225     0.70036567     0.62052945
c     0.31917773     0.29963429     0.37947055
c     0.68082225     0.79963426     0.12052946
c     0.31917773     0.20036570     0.87947055
c     0.74770692     0.41946203     0.51625721
c     0.25229306     0.58053793     0.48374279
c     0.74770693     0.08053790     0.01625722
c     0.25229305     0.91946206     0.98374279
c     0.27893777     0.75437822     0.56429759
c     0.72106221     0.24562174     0.43570241
c     0.27893778     0.74562171     0.06429759
c     0.72106220     0.25437825     0.93570241
c     0.38663521     0.82740856     0.61621228
c     0.61336477     0.17259140     0.38378773
c     0.38663521     0.67259137     0.11621228
c     0.61336476     0.32740859     0.88378772
c     0.58963855     0.81506089     0.64788005
c     0.41036143     0.18493907     0.35211995
c     0.58963856     0.68493905     0.14788006
c     0.41036142     0.31506091     0.85211995
c     0.78998454     0.77142810     0.67331289
c     0.21001544     0.22857186     0.32668711
c     0.78998454     0.72857183     0.17331289
c     0.21001544     0.27142813     0.82668711
c     0.85750651     0.49479424     0.57228203
c     0.14249347     0.50520572     0.42771797
c     0.85750652     0.00520569     0.07228204
c     0.14249346     0.99479427     0.92771797
c     0.87816443     0.66668184     0.64926282
c     0.12183555     0.33331812     0.35073718
c     0.87816443     0.83331810     0.14926283
c     0.12183554     0.16668186     0.85073718
o     0.60804285     0.98055381     0.71501816
o     0.39195712     0.01944615     0.28498184
o     0.60804286     0.51944612     0.21501817
o     0.39195712     0.48055384     0.78498184
i     0.15169070     0.91522942     0.60737489
i     0.84830928     0.08477054     0.39262511
i     0.15169070     0.58477052     0.10737489
i     0.84830927     0.41522944     0.89262511
h     0.40735227     0.96088465     0.67748733
h     0.59264770     0.03911531     0.32251268
h     0.40735228     0.53911529     0.17748733
h     0.59264770     0.46088467     0.82251267
h     0.92638836     0.41463560     0.55378884
h     0.07361162     0.58536436     0.44621116
h     0.92638837     0.08536434     0.05378884
h     0.07361161     0.91463562     0.94621116
h     0.96375088     0.72150336     0.69117733
h     0.03624910     0.27849660     0.30882268
h     0.96375089     0.77849657     0.19117733
h     0.03624909     0.22150339     0.80882267
h     0.80447351     0.91151267     0.73303489
h     0.19552646     0.08848729     0.26696511
h     0.80447352     0.58848726     0.23303489
h     0.19552646     0.41151270     0.76696511

K_POINTS automatic
2 2 2 1 1 1

CELL_PARAMETERS cubic
   24.389848000000     0.000000000000    -0.443251000000
    0.000000000000     7.434224000000     0.000000000000
  -10.967967000000     0.000000000000    29.362522000000
