&control
 title='crystal',
 prefix='crystal',
 pseudo_dir='.',
 calculation='vc-relax',
/
&system
 ibrav=0,
 celldm(1)=1.0,
 nat=    68,
 ntyp=  4,
 ecutwfc=60.0,
 ecutrho=600.0,
 xdm=.true.,
 xdm_a1=0.4073,
 xdm_a2=2.4150,
/
&electrons
 conv_thr = 1d-8,
/
&ions
/
&cell
/
ATOMIC_SPECIES
h      1.007940 h.UPF
c     12.010700 c.UPF
o     15.999400 o.UPF
i    126.904470 i.UPF

ATOMIC_POSITIONS crystal
c     0.54538923     0.42352177     0.50273134
c     0.45461081     0.57647824     0.49726865
c     0.54538922     0.07647823     0.00273133
c     0.45461080     0.92352177     0.99726866
c     0.53005945     0.52285738     0.44875875
c     0.46994059     0.47714263     0.55124124
c     0.53005945     0.97714262     0.94875874
c     0.46994057     0.02285738     0.05124125
c     0.66202725     0.51533524     0.30185651
c     0.33797278     0.48466477     0.69814349
c     0.66202725     0.98466477     0.80185649
c     0.33797277     0.01533524     0.19814349
c     0.68167848     0.41453824     0.35490423
c     0.31832156     0.58546177     0.64509576
c     0.68167847     0.08546176     0.85490422
c     0.31832155     0.91453824     0.14509577
c     0.48571605     0.37792194     0.60276805
c     0.51428399     0.62207807     0.39723194
c     0.48571605     0.12207806     0.10276804
c     0.51428397     0.87792194     0.89723195
c     0.64899714     0.61142056     0.24913471
c     0.35100289     0.38857945     0.75086529
c     0.64899714     0.88857945     0.74913469
c     0.35100288     0.11142056     0.25086529
c     0.72105150     0.55987939     0.20175087
c     0.27894854     0.44012062     0.79824913
c     0.72105150     0.94012062     0.70175086
c     0.27894853     0.05987939     0.29824913
c     0.74829894     0.46036920     0.24825794
c     0.25170110     0.53963081     0.75174205
c     0.74829893     0.03963080     0.74825793
c     0.25170109     0.96036920     0.25174206
c     0.75903614     0.36247827     0.30822851
c     0.24096390     0.63752174     0.69177148
c     0.75903614     0.13752173     0.80822850
c     0.24096389     0.86247827     0.19177149
c     0.56443857     0.32554768     0.54943593
c     0.43556146     0.67445233     0.45056406
c     0.56443857     0.17445233     0.04943592
c     0.43556145     0.82554768     0.95056407
c     0.69866100     0.31799310     0.40536995
c     0.30133903     0.68200691     0.59463004
c     0.69866100     0.18200690     0.90536994
c     0.30133902     0.81799311     0.09463005
o     0.87348103     0.45308221     0.12116757
o     0.12651901     0.54691780     0.87883242
o     0.87348102     0.04691780     0.62116756
o     0.12651900     0.95308221     0.37883243
i     0.75236741     0.67626576     0.09449244
i     0.24763263     0.32373424     0.90550755
i     0.75236740     0.82373424     0.59449243
i     0.24763262     0.17626577     0.40550756
h     0.82550196     0.55183404     0.08910808
h     0.17449808     0.44816597     0.91089192
h     0.82550195     0.94816596     0.58910806
h     0.17449807     0.05183405     0.41089192
h     0.51746017     0.29085305     0.62481254
h     0.48253987     0.70914696     0.37518745
h     0.51746017     0.20914695     0.12481253
h     0.48253986     0.79085305     0.87518746
h     0.75889001     0.27722325     0.36774787
h     0.24111003     0.72277676     0.63225212
h     0.75889001     0.22277676     0.86774786
h     0.24111002     0.77722325     0.13225213
h     0.86862539     0.35753767     0.19537260
h     0.13137465     0.64246234     0.80462739
h     0.86862538     0.14246234     0.69537259
h     0.13137464     0.85753767     0.30462740

K_POINTS automatic
2 2 2 1 1 1

CELL_PARAMETERS cubic
    7.491322000000     0.000000000000     0.134035000000
    0.000000000000    46.575807000000     0.000000000000
   -2.585844000000     0.000000000000    15.321121000000
