&control
 title='crystal',
 prefix='crystal',
 pseudo_dir='.',
 calculation='vc-relax',
/
&system
 ibrav=0,
 celldm(1)=1.0,
 nat=    68,
 ntyp=  4,
 ecutwfc=60.0,
 ecutrho=600.0,
 xdm=.true.,
 xdm_a1=0.4073,
 xdm_a2=2.4150,
/
&electrons
 conv_thr = 1d-8,
/
&ions
/
&cell
/
ATOMIC_SPECIES
h      1.007940 h.UPF
c     12.010700 c.UPF
o     15.999400 o.UPF
i    126.904470 i.UPF

ATOMIC_POSITIONS crystal
c     0.32989725     0.97546258     0.64039889
c     0.67010274     0.02453743     0.35960111
c     0.32989723     0.52453743     0.14039889
c     0.67010275     0.47546257     0.85960111
h     0.22243411     0.01271637     0.56388527
h     0.77756588     0.98728364     0.43611474
h     0.22243409     0.48728364     0.06388526
h     0.77756590     0.51271636     0.93611474
c     0.23875664     0.91109327     0.61797280
c     0.76124335     0.08890673     0.38202721
c     0.23875663     0.58890674     0.11797279
c     0.76124336     0.41109327     0.88202721
h     0.05379399     0.89695430     0.52298685
h     0.94620600     0.10304571     0.47701316
h     0.05379398     0.60304571     0.02298684
h     0.94620601     0.39695429     0.97701316
c     0.38348459     0.86513156     0.71746329
c     0.61651540     0.13486844     0.28253672
c     0.38348457     0.63486845     0.21746328
c     0.61651541     0.36513156     0.78253672
h     0.31085958     0.81511051     0.70033140
h     0.68914041     0.18488949     0.29966861
h     0.31085956     0.68488950     0.20033139
h     0.68914043     0.31511051     0.79966861
c     0.62481671     0.88158235     0.84207203
c     0.37518327     0.11841766     0.15792798
c     0.62481670     0.61841766     0.34207202
c     0.37518329     0.38158234     0.65792798
c     0.71494534     0.94765030     0.86530368
c     0.28505465     0.05234971     0.13469632
c     0.71494532     0.55234971     0.36530368
c     0.28505467     0.44765029     0.63469632
c     0.95508484     0.96656328     0.98971012
c     0.04491515     0.03343673     0.01028989
c     0.95508482     0.53343673     0.48971011
c     0.04491517     0.46656328     0.51028989
c     0.21566984     0.16451940     0.05352603
c     0.78433015     0.83548060     0.94647397
c     0.21566983     0.33548061     0.55352603
c     0.78433016     0.66451940     0.44647397
c     0.98630882     0.14589697     0.93277690
c     0.01369117     0.85410304     0.06722311
c     0.98630880     0.35410304     0.43277689
c     0.01369119     0.64589697     0.56722311
h     0.86462893     0.18054688     0.85229599
h     0.13537106     0.81945312     0.14770402
h     0.86462891     0.31945313     0.35229598
h     0.13537107     0.68054688     0.64770402
c     0.89952910     0.08057546     0.91031125
c     0.10047089     0.91942454     0.08968876
c     0.89952909     0.41942455     0.41031124
c     0.10047090     0.58057546     0.58968876
c     0.64874330     0.06279204     0.78032437
c     0.35125669     0.93720797     0.21967563
c     0.64874328     0.43720797     0.28032437
c     0.35125671     0.56279204     0.71967563
c     0.56286819     0.99412254     0.76192094
c     0.43713180     0.00587747     0.23807907
c     0.56286818     0.50587747     0.26192093
c     0.43713181     0.49412253     0.73807907
o     0.51479496     0.10340539     0.68990943
o     0.48520502     0.89659461     0.31009058
o     0.51479495     0.39659462     0.18990942
o     0.48520504     0.60340539     0.81009058
i     0.32627309     0.26312408     0.08701816
i     0.67372690     0.73687593     0.91298184
i     0.32627307     0.23687593     0.58701816
i     0.67372691     0.76312407     0.41298184

K_POINTS automatic
2 2 2 1 1 1

CELL_PARAMETERS cubic
    7.718132000000     0.000000000000     0.053291000000
    0.000000000000    39.370046000000     0.000000000000
   -3.032732000000     0.000000000000    16.940030000000
