&control
 title='crystal',
 prefix='crystal',
 pseudo_dir='.',
 calculation='vc-relax',
/
&system
 ibrav=0,
 celldm(1)=1.0,
 nat=    68,
 ntyp=  4,
 ecutwfc=60.0,
 ecutrho=600.0,
 xdm=.true.,
 xdm_a1=0.4073,
 xdm_a2=2.4150,
/
&electrons
 conv_thr = 1d-8,
/
&ions
/
&cell
/
ATOMIC_SPECIES
h      1.007940 h.UPF
c     12.010700 c.UPF
o     15.999400 o.UPF
i    126.904470 i.UPF

ATOMIC_POSITIONS crystal
c     0.79876216     0.29836705     0.43219768
c     0.20123791     0.79836706     0.56780231
c     0.93326775     0.33387640     0.33415173
c     0.06673232     0.83387640     0.66584826
c     0.88699875     0.29461496     0.23905382
c     0.11300132     0.79461496     0.76094617
c     0.70095662     0.21816935     0.24010670
c     0.29904345     0.71816935     0.75989329
c     0.56762401     0.18116459     0.34067696
c     0.43237606     0.68116459     0.65932303
c     0.62048908     0.22337240     0.43536879
c     0.37951099     0.72337240     0.56463120
c     0.64718134     0.17871384     0.14241469
c     0.35281873     0.67871385     0.85758530
c     0.78218033     0.21601915     0.04111913
c     0.21781974     0.71601916     0.95888086
c     0.97330730     0.29015444     0.03736841
c     0.02669277     0.79015444     0.96263158
c     0.04336648     0.33208354     0.13663603
c     0.95663359     0.83208354     0.86336396
c     0.10709709     0.32673890     0.93896107
c     0.89290298     0.82673891     0.06103892
c     0.04940463     0.28947014     0.84516392
c     0.95059544     0.78947015     0.15483607
c     0.85942761     0.21334941     0.84328866
c     0.14057246     0.71334941     0.15671133
c     0.72351856     0.17679622     0.94385777
c     0.27648151     0.67679622     0.05614222
c     0.79694684     0.17228432     0.74866563
c     0.20305323     0.67228433     0.25133436
c     0.60535076     0.09943462     0.75208685
c     0.39464931     0.59943462     0.24791314
c     0.46814736     0.06420562     0.85006779
c     0.53185271     0.56420563     0.14993220
c     0.52800178     0.10166016     0.94497892
c     0.47199829     0.60166016     0.05502107
c     0.38250642     0.06278394     0.04718928
c     0.61749365     0.56278394     0.95281071
c     0.46094993     0.10397536     0.14608540
c     0.53905014     0.60397536     0.85391459
c     0.33483796     0.06608241     0.24447571
c     0.66516211     0.56608241     0.75552428
c     0.38846436     0.10340263     0.33839665
c     0.61153571     0.60340264     0.66160334
o     0.19863642     0.99980985     0.05150376
o     0.80136365     0.49980985     0.94849623
o     0.22920694     0.39449850     0.13448495
o     0.77079313     0.89449850     0.86551504
i     0.18886793     0.04068926     0.48167737
i     0.81113214     0.54068926     0.51832262
i     0.25381364     0.35134899     0.70185660
i     0.74618643     0.85134899     0.29814340
h     0.83701717     0.32925144     0.50656756
h     0.16298290     0.82925145     0.49343243
h     0.08077243     0.39198921     0.32989987
h     0.91922764     0.89198922     0.67010013
h     0.51644505     0.19621411     0.51194314
h     0.48355502     0.69621411     0.48805685
h     0.25166094     0.38465704     0.94097258
h     0.74833913     0.88465705     0.05902741
h     0.90392572     0.19906835     0.67214462
h     0.09607435     0.69906835     0.32785538
h     0.55841874     0.06976623     0.67777316
h     0.44158133     0.56976624     0.32222684
h     0.31333912     0.00753244     0.85392242
h     0.68666095     0.50753245     0.14607757
h     0.19416176     0.00747514     0.24177755
h     0.80583831     0.50747515     0.75822244

K_POINTS automatic
2 2 2 1 1 1

CELL_PARAMETERS cubic
    7.575141000000     0.000000000000    -0.011344000000
    0.000000000000    29.854874000000     0.000000000000
    3.318324000000     0.000000000000    23.649115000000
