&control
 title='crystal',
 prefix='crystal',
 pseudo_dir='.',
 calculation='vc-relax',
/
&system
 ibrav=0,
 celldm(1)=1.0,
 nat=    68,
 ntyp=  4,
 ecutwfc=60.0,
 ecutrho=600.0,
 xdm=.true.,
 xdm_a1=0.4073,
 xdm_a2=2.4150,
/
&electrons
 conv_thr = 1d-8,
/
&ions
/
&cell
/
ATOMIC_SPECIES
h      1.007940 h.UPF
c     12.010700 c.UPF
o     15.999400 o.UPF
i    126.904470 i.UPF

ATOMIC_POSITIONS crystal
c     0.14613447     0.96504437     0.23015984
c     0.85386549     0.46504437     0.76984014
c     0.05775514     0.01060986     0.21959684
c     0.94224483     0.51060987     0.78040315
c     0.11727853     0.06186910     0.22761839
c     0.88272143     0.56186910     0.77238159
c     0.26932936     0.06887119     0.25012545
c     0.73067060     0.56887119     0.74987454
c     0.35954626     0.02216634     0.25949464
c     0.64045370     0.52216634     0.74050534
c     0.29335662     0.97070440     0.24739328
c     0.70664334     0.47070440     0.75260671
c     0.33219613     0.12158318     0.26657051
c     0.66780383     0.62158318     0.73342947
c     0.24018481     0.16849354     0.25850317
c     0.75981515     0.66849355     0.74149681
c     0.08917764     0.16300650     0.23230809
c     0.91082232     0.66300651     0.76769189
c     0.02011114     0.10893854     0.21666450
c     0.97988882     0.60893854     0.78333548
c     0.99932250     0.20864299     0.22598195
c     0.00067747     0.70864299     0.77401804
c     0.06091402     0.25925045     0.24480897
c     0.93908594     0.75925045     0.75519101
c     0.21322359     0.26786655     0.26842603
c     0.78677637     0.76786655     0.73157396
c     0.30332678     0.22121393     0.27654276
c     0.69667318     0.72121393     0.72345722
c     0.27910904     0.31932751     0.28034708
c     0.72089092     0.81932751     0.71965290
c     0.42731760     0.32511566     0.30242771
c     0.57268237     0.82511566     0.69757227
c     0.51583827     0.27961205     0.31250299
c     0.48416169     0.77961206     0.68749699
c     0.45551342     0.22829084     0.29981380
c     0.54448654     0.72829084     0.70018619
c     0.55185141     0.18121848     0.30674482
c     0.44814855     0.68121849     0.69325516
c     0.48297087     0.12709594     0.29170648
c     0.51702910     0.62709595     0.70829350
c     0.57306039     0.08140374     0.29986884
c     0.42693957     0.58140374     0.70013114
c     0.51212852     0.03076117     0.28421604
c     0.48787144     0.53076118     0.71578394
o     0.68288414     0.18682479     0.32063076
o     0.31711583     0.68682479     0.67936922
o     0.88829759     0.10334797     0.19937330
o     0.11170237     0.60334798     0.80062669
i     0.65436465     0.96426345     0.29624197
i     0.34563531     0.46426346     0.70375801
i     0.92095233     0.32573523     0.24366019
i     0.07904764     0.82573523     0.75633980
h     0.09801844     0.92494101     0.22187351
h     0.90198153     0.42494101     0.77812648
h     0.94175959     0.00690369     0.20676107
h     0.05824038     0.50690370     0.79323891
h     0.36104183     0.93517126     0.25172416
h     0.63895814     0.43517126     0.74827583
h     0.88353162     0.20190530     0.20995605
h     0.11646835     0.70190530     0.79004393
h     0.21055623     0.35492866     0.27037849
h     0.78944373     0.85492866     0.72962149
h     0.47432052     0.36530768     0.30801807
h     0.52567944     0.86530769     0.69198191
h     0.63223651     0.28335964     0.32714809
h     0.36776345     0.78335964     0.67285189
h     0.68884332     0.08805495     0.31567886
h     0.31115664     0.58805496     0.68432112

K_POINTS automatic
2 2 2 1 1 1

CELL_PARAMETERS cubic
   18.116486000000     0.000000000000    -0.099481000000
    0.000000000000    46.843840000000     0.000000000000
   -4.237681000000     0.000000000000     6.299917000000
