&control
 title='crystal',
 prefix='crystal',
 pseudo_dir='.',
 calculation='vc-relax',
/
&system
 ibrav=0,
 celldm(1)=1.0,
 nat=    68,
 ntyp=  4,
 ecutwfc=60.0,
 ecutrho=600.0,
 xdm=.true.,
 xdm_a1=0.4073,
 xdm_a2=2.4150,
/
&electrons
 conv_thr = 1d-8,
/
&ions
/
&cell
/
ATOMIC_SPECIES
h      1.007940 h.UPF
c     12.010700 c.UPF
o     15.999400 o.UPF
i    126.904470 i.UPF

ATOMIC_POSITIONS crystal
h     0.40332243     0.18780069     0.26580486
h     0.59667759     0.81219930     0.73419517
h     0.59667900     0.68779973     0.23419636
h     0.40332102     0.31220026     0.76580367
c     0.59873950     0.95990337     0.96349231
c     0.40126052     0.04009662     0.03650772
c     0.40125427     0.45990424     0.53650160
c     0.59874575     0.54009575     0.46349843
c     0.39829652     0.87998684     0.78164896
c     0.60170350     0.12001316     0.21835107
c     0.60170211     0.37998590     0.71835078
c     0.39829791     0.62001409     0.28164925
c     0.18751391     0.85115187     0.67655440
c     0.81248612     0.14884812     0.32344563
c     0.81248221     0.35115455     0.82344169
c     0.18751781     0.64884545     0.17655834
c     0.20224731     0.90794445     0.77503941
c     0.79775271     0.09205554     0.22496061
c     0.79775489     0.40794341     0.72496204
c     0.20224513     0.59205659     0.27503799
c     0.40009228     0.98653787     0.95218030
c     0.59990774     0.01346212     0.04781973
c     0.59990318     0.48653812     0.54781521
c     0.40009684     0.51346187     0.45218481
c     0.00561662     0.88167288     0.68000194
c     0.99438340     0.11832711     0.31999808
c     0.99437995     0.38167310     0.81999387
c     0.00562007     0.61832689     0.18000616
c     0.00122188     0.93343240     0.75611004
c     0.99877814     0.06656759     0.24388999
c     0.99878074     0.43343081     0.74389247
c     0.00121928     0.56656918     0.25610756
c     0.19940551     0.01408736     0.93823522
c     0.80059451     0.98591263     0.06176481
c     0.80059576     0.51408758     0.56176504
c     0.19940426     0.48591241     0.43823498
c     0.20680638     0.06897282     0.02594275
c     0.79319364     0.93102717     0.97405728
c     0.79319651     0.56897100     0.47406033
c     0.20680351     0.43102899     0.52593970
c     0.40574888     0.14630372     0.20493019
c     0.59425114     0.85369627     0.79506983
c     0.59425103     0.64630470     0.29506902
c     0.40574899     0.35369529     0.70493101
c     0.60310455     0.17181021     0.30116699
c     0.39689547     0.82818978     0.69883303
c     0.39689806     0.67180968     0.19883691
c     0.60310196     0.32819031     0.80116312
o     0.00296760     0.78288250     0.51024454
o     0.99703242     0.21711750     0.48975549
o     0.99703206     0.28288086     0.98975557
o     0.00296796     0.71711914     0.01024446
h     0.85516875     0.82022506     0.54145623
h     0.14483127     0.17977494     0.45854380
h     0.14483221     0.32022376     0.95854411
h     0.85516781     0.67977624     0.04145591
i     0.67827669     0.88857156     0.58083188
i     0.32172333     0.11142843     0.41916815
i     0.32172354     0.38857139     0.91916887
i     0.67827648     0.61142860     0.08083116
h     0.05336221     0.04911065     0.95119976
h     0.94663781     0.95088934     0.04880026
h     0.94663927     0.54910963     0.54880133
h     0.05336075     0.45089037     0.45119870
h     0.76385030     0.23205843     0.44447146
h     0.23614972     0.76794156     0.55552857
h     0.23615011     0.73205903     0.05552873
h     0.76384991     0.26794096     0.94447130

K_POINTS automatic
2 2 2 1 1 1

CELL_PARAMETERS cubic
   24.782077000000    -0.000024000000     0.212013000000
   -0.000023000000    28.837972000000    -0.000001000000
  -25.519766000000     0.000031000000     7.117327000000
