&control
 title='crystal',
 prefix='crystal',
 pseudo_dir='.',
 calculation='vc-relax',
/
&system
 ibrav=0,
 celldm(1)=1.0,
 nat=    68,
 ntyp=  4,
 ecutwfc=60.0,
 ecutrho=600.0,
 xdm=.true.,
 xdm_a1=0.4073,
 xdm_a2=2.4150,
/
&electrons
 conv_thr = 1d-8,
/
&ions
/
&cell
/
ATOMIC_SPECIES
h      1.007940 h.UPF
c     12.010700 c.UPF
o     15.999400 o.UPF
i    126.904470 i.UPF

ATOMIC_POSITIONS crystal
i     0.26790932     0.39539255     0.91887028
i     0.73209065     0.60460746     0.08112972
i     0.73209251     0.89539115     0.58112977
i     0.26790746     0.10460886     0.41887023
o     0.44826372     0.00155715     0.80704333
o     0.55173625     0.99844286     0.19295667
o     0.55173342     0.50155693     0.69296006
o     0.44826655     0.49844307     0.30703994
c     0.03185322     0.05105486     0.99041032
c     0.96814675     0.94894514     0.00958968
c     0.96813624     0.55105270     0.50959332
c     0.03186373     0.44894730     0.49040668
c     0.92966980     0.13459742     0.04166103
c     0.07033017     0.86540258     0.95833897
c     0.07033683     0.63460282     0.45833308
c     0.92966314     0.36539719     0.54166692
c     0.19470133     0.06918757     0.92331363
c     0.80529864     0.93081243     0.07668637
c     0.80530536     0.56918892     0.57668209
c     0.19469461     0.43081108     0.42331791
c     0.30519145     0.98499693     0.86834491
c     0.69480852     0.01500307     0.13165509
c     0.69481225     0.48499429     0.63165494
c     0.30518772     0.51500571     0.36834506
c     0.76404377     0.11875408     0.11120380
c     0.23595620     0.88124592     0.88879621
c     0.23594663     0.61874946     0.38879794
c     0.76405334     0.38125055     0.61120206
c     0.99364852     0.23606500     0.02510261
c     0.00635146     0.76393501     0.97489739
c     0.00634254     0.73605950     0.47489978
c     0.99365743     0.26394050     0.52510022
c     0.25809074     0.16896230     0.90660542
c     0.74190923     0.83103770     0.09339458
c     0.74189874     0.66895598     0.59339786
c     0.25810123     0.33104403     0.40660214
c     0.16052043     0.24981306     0.95559240
c     0.83947955     0.75018694     0.04440760
c     0.83948981     0.74981876     0.54440102
c     0.16051016     0.25018124     0.45559898
c     0.66652015     0.20081078     0.16205434
c     0.33347982     0.79918923     0.83794566
c     0.33348437     0.70081960     0.33793879
c     0.66651560     0.29918040     0.66206121
c     0.89022271     0.31703435     0.07873809
c     0.10977726     0.68296566     0.92126191
c     0.10978655     0.81703916     0.42125420
c     0.89021343     0.18296084     0.57874580
c     0.72970456     0.30007098     0.14644475
c     0.27029541     0.69992902     0.85355525
c     0.27028564     0.80006524     0.35355655
c     0.72971434     0.19993476     0.64644345
h     0.38564537     0.17869179     0.85395073
h     0.61435461     0.82130821     0.14604927
h     0.61435739     0.67869121     0.64604552
h     0.38564258     0.32130879     0.35395448
h     0.54065396     0.18550340     0.21530094
h     0.45934601     0.81449660     0.78469906
h     0.45934230     0.68550423     0.28469677
h     0.54065768     0.31449577     0.71530323
h     0.94035034     0.39391943     0.06629762
h     0.05964963     0.60608057     0.93370238
h     0.05965040     0.89391800     0.43369975
h     0.94034957     0.10608200     0.56630025
h     0.65274097     0.36343338     0.18873049
h     0.34725900     0.63656662     0.81126951
h     0.34726101     0.86343604     0.31126495
h     0.65273896     0.13656396     0.68873505

K_POINTS automatic
2 2 2 1 1 1

CELL_PARAMETERS cubic
   13.908870000000     0.000108000000     0.161427000000
    0.000187000000    24.941713000000    -0.000036000000
   -2.100036000000    -0.000040000000    15.128122000000
