&control
 title='crystal',
 prefix='crystal',
 pseudo_dir='.',
 calculation='vc-relax',
/
&system
 ibrav=0,
 celldm(1)=1.0,
 nat=   136,
 ntyp=  4,
 ecutwfc=60.0,
 ecutrho=600.0,
 xdm=.true.,
 xdm_a1=0.4073,
 xdm_a2=2.4150,
/
&electrons
 conv_thr = 1d-8,
/
&ions
/
&cell
/
ATOMIC_SPECIES
h      1.007940 h.UPF
c     12.010700 c.UPF
o     15.999400 o.UPF
i    126.904470 i.UPF

ATOMIC_POSITIONS crystal
o     0.90905858     0.46519769     0.81098792
o     0.40905882     0.46520186     0.31098737
o     0.09094144     0.53480238     0.18901207
o     0.59094168     0.53480655     0.68901152
o     0.09094220     0.96519628     0.68901157
o     0.59094244     0.96520046     0.18901102
o     0.90905782     0.03480380     0.31098842
o     0.40905806     0.03480797     0.81098787
c     0.85130896     0.30754964     0.79963524
c     0.35130920     0.30755382     0.29963469
c     0.14869106     0.69245044     0.20036475
c     0.64869130     0.69245461     0.70036420
c     0.14869200     0.80754779     0.70036420
c     0.64869223     0.80755197     0.20036365
c     0.85130802     0.19245229     0.29963579
c     0.35130826     0.19245646     0.79963524
c     0.77857189     0.19820294     0.84464184
c     0.27857213     0.19820712     0.34464129
c     0.22142812     0.80179713     0.15535815
c     0.72142836     0.80180130     0.65535760
c     0.22142877     0.69820253     0.65535766
c     0.72142901     0.69820670     0.15535711
c     0.77857124     0.30179755     0.34464233
c     0.27857148     0.30180173     0.84464178
c     0.77573032     0.27222456     0.90112606
c     0.27573056     0.27222874     0.40112552
c     0.22426969     0.72777552     0.09887392
c     0.72426993     0.72777969     0.59887337
c     0.22426992     0.77222467     0.59887377
c     0.72427016     0.77222885     0.09887323
c     0.77573009     0.22777541     0.40112621
c     0.27573033     0.22777958     0.90112566
h     0.82724238     0.41251957     0.90993197
h     0.32724262     0.41252374     0.40993142
h     0.17275763     0.58748051     0.09006801
h     0.67275787     0.58748469     0.59006746
h     0.17275826     0.91251837     0.59006806
h     0.67275850     0.91252255     0.09006751
h     0.82724175     0.08748171     0.40993192
h     0.32724199     0.08748588     0.90993137
c     0.70758491     0.17310139     0.94469373
c     0.20758514     0.17310557     0.44469318
c     0.29241511     0.82689869     0.05530626
c     0.79241535     0.82690286     0.55530571
c     0.29241536     0.67310108     0.55530623
c     0.79241560     0.67310525     0.05530569
c     0.70758465     0.32689899     0.44469375
c     0.20758489     0.32690317     0.94469320
h     0.70544497     0.23306442     0.98892548
h     0.20544521     0.23306860     0.48892493
h     0.29455504     0.76693566     0.01107451
h     0.79455528     0.76693983     0.51107396
h     0.29455508     0.73306413     0.51107480
h     0.79455532     0.73306831     0.01107425
h     0.70544493     0.26693595     0.48892519
h     0.20544517     0.26694012     0.98892464
c     0.64236666     0.00191862     0.93191984
c     0.14236690     0.00192279     0.43191929
c     0.35763335     0.99808145     0.06808014
c     0.85763359     0.99808562     0.56807960
c     0.35763321     0.50191873     0.56808026
c     0.85763345     0.50192290     0.06807971
c     0.64236681     0.49808135     0.43191973
c     0.14236705     0.49808553     0.93191918
h     0.58912874     0.92823779     0.96587867
h     0.08912898     0.92824197     0.46587812
h     0.41087128     0.07176229     0.03412132
h     0.91087152     0.07176646     0.53412077
h     0.41087110     0.42823824     0.53412141
h     0.91087134     0.42824242     0.03412086
h     0.58912892     0.57176184     0.46587857
h     0.08912916     0.57176601     0.96587802
c     0.64254352     0.92240451     0.87508102
c     0.14254376     0.92240868     0.37508047
c     0.35745649     0.07759556     0.12491896
c     0.85745673     0.07759973     0.62491841
c     0.35745672     0.42240436     0.62491840
c     0.85745696     0.42240854     0.12491785
c     0.64254329     0.57759572     0.37508159
c     0.14254353     0.57759989     0.87508104
c     0.71230629     0.02271362     0.83041528
c     0.21230653     0.02271779     0.33041473
c     0.28769372     0.97728645     0.16958471
c     0.78769396     0.97729063     0.66958416
c     0.28769402     0.52271351     0.66958395
c     0.78769426     0.52271769     0.16958341
c     0.71230600     0.47728657     0.33041603
c     0.21230624     0.47729074     0.83041548
c     0.71477417     0.94892956     0.77245474
c     0.21477441     0.94893373     0.27245420
c     0.28522585     0.05107051     0.22754524
c     0.78522609     0.05107468     0.72754469
c     0.28522627     0.44892971     0.72754424
c     0.78522651     0.44893389     0.22754369
c     0.71477375     0.55107037     0.27245575
c     0.21477399     0.55107454     0.77245520
c     0.85166297     0.22275272     0.74009581
c     0.35166321     0.22275690     0.24009526
c     0.14833704     0.77724736     0.25990417
c     0.64833728     0.77725153     0.75990362
c     0.14833737     0.72275308     0.75990348
c     0.64833761     0.72275726     0.25990293
c     0.85166264     0.27724700     0.24009651
c     0.35166288     0.27725117     0.74009596
c     0.92068853     0.32248801     0.69643157
c     0.42068877     0.32249219     0.19643102
c     0.07931148     0.67751205     0.30356842
c     0.57931172     0.67751623     0.80356787
c     0.07931167     0.82248787     0.80356772
c     0.57931191     0.82249204     0.30356717
c     0.92068834     0.17751222     0.19643227
c     0.42068858     0.17751639     0.69643172
h     0.97062501     0.45488436     0.70859317
h     0.47062525     0.45488853     0.20859262
h     0.02937500     0.54511572     0.29140681
h     0.52937524     0.54511990     0.79140626
h     0.02937505     0.95488441     0.79140653
h     0.52937529     0.95488859     0.29140598
h     0.97062496     0.04511567     0.20859346
h     0.47062520     0.04511985     0.70859291
c     0.92329757     0.25102416     0.64064507
c     0.42329781     0.25102834     0.14064452
c     0.07670244     0.74897592     0.35935492
c     0.57670268     0.74898009     0.85935437
c     0.07670213     0.75102495     0.85935443
c     0.57670237     0.75102912     0.35935388
c     0.92329788     0.24897512     0.14064555
c     0.42329812     0.24897929     0.64064500
i     0.02815336     0.41413271     0.57780906
i     0.52815360     0.41413688     0.07780852
i     0.97184665     0.58586737     0.42219092
i     0.47184689     0.58587155     0.92219037
i     0.97184629     0.91413311     0.92219126
i     0.47184653     0.91413729     0.42219071
i     0.02815372     0.08586697     0.07780873
i     0.52815396     0.08587114     0.57780818

K_POINTS automatic
2 2 2 1 1 1

CELL_PARAMETERS cubic
   31.617018000000    -0.000017000000     0.096114000000
   -0.000004000000     7.425367000000     0.000001000000
   11.438482000000    -0.000001000000    44.353922000000
