&control
 title='crystal',
 prefix='crystal',
 pseudo_dir='.',
 calculation='vc-relax',
/
&system
 ibrav=0,
 celldm(1)=1.0,
 nat=    68,
 ntyp=  4,
 ecutwfc=60.0,
 ecutrho=600.0,
 xdm=.true.,
 xdm_a1=0.4073,
 xdm_a2=2.4150,
/
&electrons
 conv_thr = 1d-8,
/
&ions
/
&cell
/
ATOMIC_SPECIES
h      1.007940 h.UPF
c     12.010700 c.UPF
o     15.999400 o.UPF
i    126.904470 i.UPF

ATOMIC_POSITIONS crystal
i     0.67652209     0.39804786     0.60410788
i     0.32347780     0.60195212     0.39589209
i     0.32347858     0.89804753     0.89589172
i     0.67652131     0.10195245     0.10410826
o     0.62413944     0.00659343     0.72306186
o     0.37586045     0.99340655     0.27693812
o     0.37586231     0.50659408     0.77693826
o     0.62413758     0.49340590     0.22306171
c     0.96053083     0.05153500     0.51190245
c     0.03946906     0.94846498     0.48809752
c     0.03946792     0.55153559     0.98809921
c     0.96053197     0.44846439     0.01190077
c     0.02025177     0.13412620     0.45391281
c     0.97974812     0.86587378     0.54608717
c     0.97974902     0.63412445     0.04608546
c     0.02025087     0.36587553     0.95391451
c     0.82426521     0.07161329     0.59182524
c     0.17573468     0.92838669     0.40817473
c     0.17573670     0.57161322     0.90817340
c     0.82426319     0.42838676     0.09182657
c     0.75350856     0.98829994     0.65352097
c     0.24649133     0.01170004     0.34647900
c     0.24648876     0.48830087     0.84648002
c     0.75351113     0.51169911     0.15351996
c     0.15927278     0.11623655     0.37228195
c     0.84072711     0.88376343     0.62771803
c     0.84072459     0.61623813     0.12771973
c     0.15927530     0.38376185     0.87228025
c     0.94157656     0.23657312     0.47742417
c     0.05842333     0.76342686     0.52257580
c     0.05842146     0.73657492     0.02257770
c     0.94157843     0.26342506     0.97742227
c     0.74792555     0.17218047     0.61537614
c     0.25207434     0.82781951     0.38462384
c     0.25207241     0.67218276     0.88462591
c     0.74792748     0.32781722     0.11537407
c     0.80541834     0.25226467     0.56011166
c     0.19458155     0.74773531     0.43988832
c     0.19458400     0.75226244     0.93988581
c     0.80541589     0.24773754     0.06011416
c     0.21823972     0.19751328     0.31660638
c     0.78176018     0.80248670     0.68339360
c     0.78176161     0.69750998     0.18339147
c     0.21823828     0.30249000     0.81660850
c     0.00379094     0.31658245     0.41845272
c     0.99620895     0.68341753     0.58154726
c     0.99621148     0.81658079     0.08154479
c     0.00378841     0.18341919     0.91845518
c     0.14160076     0.29760275     0.33972925
c     0.85839913     0.70239723     0.66027072
c     0.85839770     0.79760438     0.16027190
c     0.14160219     0.20239560     0.83972808
h     0.64162849     0.18340897     0.67810039
h     0.35837140     0.81659101     0.32189958
h     0.35837278     0.68340952     0.82189885
h     0.64162711     0.31659046     0.17810113
h     0.32876323     0.18108151     0.25518708
h     0.67123666     0.81891847     0.74481290
h     0.67123665     0.68108058     0.24481283
h     0.32876324     0.31891940     0.75518714
h     0.94174757     0.39426496     0.43625574
h     0.05825232     0.60573502     0.56374423
h     0.05825231     0.89426460     0.06374373
h     0.94174758     0.10573538     0.93625625
h     0.19163222     0.36069260     0.29598471
h     0.80836767     0.63930738     0.70401527
h     0.80836931     0.86069056     0.20401381
h     0.19163058     0.13930942     0.79598617

K_POINTS automatic
2 2 2 1 1 1

CELL_PARAMETERS cubic
    7.393896000000     0.000021000000     0.115367000000
    0.000075000000    24.780169000000    -0.000036000000
   -4.403348000000    -0.000055000000    27.843482000000
