&control
 title='crystal',
 prefix='crystal',
 pseudo_dir='.',
 calculation='vc-relax',
/
&system
 ibrav=0,
 celldm(1)=1.0,
 nat=   136,
 ntyp=  4,
 ecutwfc=60.0,
 ecutrho=600.0,
 xdm=.true.,
 xdm_a1=0.4073,
 xdm_a2=2.4150,
/
&electrons
 conv_thr = 1d-8,
/
&ions
/
&cell
/
ATOMIC_SPECIES
h      1.007940 h.UPF
c     12.010700 c.UPF
o     15.999400 o.UPF
i    126.904470 i.UPF

ATOMIC_POSITIONS crystal
o     0.07263090     0.66110133     0.80569073
o     0.57263030     0.66110273     0.80569050
o     0.92736910     0.33889868     0.19430926
o     0.42736850     0.33890008     0.19430902
o     0.92736527     0.16110146     0.69430771
o     0.42736467     0.16110286     0.69430747
o     0.07263473     0.83889854     0.30569228
o     0.57263413     0.83889994     0.30569205
c     0.98249431     0.59719963     0.86007622
c     0.48249371     0.59720103     0.86007599
c     0.01750568     0.40280037     0.13992377
c     0.51750508     0.40280177     0.13992353
c     0.01750401     0.09720069     0.63992346
c     0.51750341     0.09720209     0.63992323
c     0.98249598     0.90279931     0.36007652
c     0.48249538     0.90280072     0.36007629
c     0.02643809     0.49362133     0.84414530
c     0.52643749     0.49362273     0.84414507
c     0.97356191     0.50637868     0.15585469
c     0.47356131     0.50638008     0.15585445
c     0.97355814     0.99362136     0.65585496
c     0.47355754     0.99362276     0.65585473
c     0.02644185     0.00637864     0.34414503
c     0.52644125     0.00638004     0.34414479
c     0.17116782     0.46627762     0.76426692
c     0.67116722     0.46627902     0.76426669
c     0.82883217     0.53372238     0.23573307
c     0.32883157     0.53372378     0.23573283
c     0.82883330     0.96628233     0.73573023
c     0.32883270     0.96628374     0.73573000
c     0.17116669     0.03371767     0.26426976
c     0.67116609     0.03371907     0.26426952
h     0.24797472     0.52246372     0.71519080
h     0.74797412     0.52246512     0.71519057
h     0.75202527     0.47753628     0.28480918
h     0.25202467     0.47753768     0.28480895
h     0.75202168     0.02246512     0.78480825
h     0.25202108     0.02246652     0.78480802
h     0.24797831     0.97753488     0.21519174
h     0.74797772     0.97753628     0.21519150
c     0.21771196     0.36878931     0.74851481
c     0.71771136     0.36879071     0.74851458
c     0.78228803     0.63121069     0.25148517
c     0.28228743     0.63121210     0.25148494
c     0.78228361     0.86878840     0.75148487
c     0.28228301     0.86878980     0.75148463
c     0.21771638     0.13121160     0.24851512
c     0.71771578     0.13121300     0.24851489
h     0.33224460     0.34756517     0.68687646
h     0.83224400     0.34756657     0.68687623
h     0.66775539     0.65243483     0.31312353
h     0.16775479     0.65243623     0.31312330
h     0.66775635     0.84756732     0.81312122
h     0.16775576     0.84756872     0.81312098
h     0.33224364     0.15243268     0.18687877
h     0.83224304     0.15243408     0.18687854
c     0.11972801     0.29833315     0.81197365
c     0.61972741     0.29833456     0.81197341
c     0.88027199     0.70166685     0.18802635
c     0.38027139     0.70166825     0.18802611
c     0.88027425     0.79833711     0.68802250
c     0.38027366     0.79833851     0.68802227
c     0.11972574     0.20166289     0.31197749
c     0.61972514     0.20166429     0.31197726
h     0.15890192     0.22314847     0.79894147
h     0.65890132     0.22314987     0.79894124
h     0.84109807     0.77685153     0.20105851
h     0.34109747     0.77685293     0.20105828
h     0.84109514     0.72314894     0.70105608
h     0.34109455     0.72315034     0.70105585
h     0.15890485     0.27685106     0.29894391
h     0.65890425     0.27685246     0.29894367
c     0.97114900     0.32275271     0.89371101
c     0.47114840     0.32275412     0.89371077
c     0.02885099     0.67724729     0.10628898
c     0.52885039     0.67724869     0.10628875
c     0.02884494     0.82275234     0.60628908
c     0.52884434     0.82275374     0.60628885
c     0.97115506     0.17724766     0.39371091
c     0.47115446     0.17724906     0.39371067
c     0.92314903     0.42247273     0.91019315
c     0.42314843     0.42247413     0.91019291
c     0.07685096     0.57752728     0.08980684
c     0.57685036     0.57752868     0.08980661
c     0.07685061     0.92247445     0.58980514
c     0.57685001     0.92247585     0.58980490
c     0.92314938     0.07752556     0.41019485
c     0.42314878     0.07752696     0.41019462
c     0.77393756     0.44969827     0.99188708
c     0.27393696     0.44969967     0.99188685
c     0.22606243     0.55030173     0.00811291
c     0.72606183     0.55030313     0.00811268
c     0.22606211     0.94969809     0.50811213
c     0.72606151     0.94969949     0.50811190
c     0.77393788     0.05030192     0.49188786
c     0.27393728     0.05030332     0.49188763
c     0.82539790     0.62198636     0.94478515
c     0.32539730     0.62198776     0.94478492
c     0.17460210     0.37801365     0.05521483
c     0.67460150     0.37801505     0.05521460
c     0.17460230     0.12198701     0.55521552
c     0.67460170     0.12198842     0.55521529
c     0.82539770     0.87801299     0.44478447
c     0.32539710     0.87801439     0.44478423
c     0.77868589     0.72023227     0.96026962
c     0.27868529     0.72023367     0.96026938
c     0.22131410     0.27976774     0.03973038
c     0.72131350     0.27976914     0.03973014
c     0.22131440     0.22023221     0.53973182
c     0.72131380     0.22023361     0.53973159
c     0.77868559     0.77976779     0.46026816
c     0.27868499     0.77976919     0.46026793
h     0.86035413     0.77285942     0.90852795
h     0.36035353     0.77286082     0.90852771
h     0.13964586     0.22714058     0.09147204
h     0.63964526     0.22714198     0.09147181
h     0.13964483     0.27286003     0.59147415
h     0.63964423     0.27286143     0.59147391
h     0.86035517     0.72713997     0.40852584
h     0.36035457     0.72714137     0.40852561
c     0.63445594     0.74666822     0.03822212
c     0.13445534     0.74666962     0.03822189
c     0.36554405     0.25333178     0.96177787
c     0.86554346     0.25333318     0.96177763
c     0.36554348     0.24666765     0.46178156
c     0.86554288     0.24666905     0.46178133
c     0.63445652     0.75333236     0.53821842
c     0.13445592     0.75333376     0.53821819
i     0.57334778     0.89593870     0.05241193
i     0.07334718     0.89594010     0.05241170
i     0.42665221     0.10406130     0.94758806
i     0.92665161     0.10406270     0.94758782
i     0.42665197     0.39593758     0.44759201
i     0.92665137     0.39593898     0.44759177
i     0.57334802     0.60406243     0.55240798
i     0.07334743     0.60406383     0.55240775

K_POINTS automatic
2 2 2 1 1 1

CELL_PARAMETERS cubic
   16.054633000000    -0.000002000000    -0.162888000000
   -0.000013000000    26.117175000000    -0.000110000000
    9.816790000000    -0.000097000000    24.801615000000
