&control
 title='crystal',
 prefix='crystal',
 pseudo_dir='.',
 calculation='vc-relax',
/
&system
 ibrav=0,
 celldm(1)=1.0,
 nat=    44,
 ntyp=  5,
 ecutwfc=60.0,
 ecutrho=600.0,
 xdm=.true.,
 xdm_a1=0.4073,
 xdm_a2=2.4150,
/
&electrons
 conv_thr = 1d-8,
/
&ions
/
&cell
/
ATOMIC_SPECIES
h      1.007940 h.UPF
c     12.010700 c.UPF
n     14.006700 n.UPF
o     15.999400 o.UPF
s     32.065000 s.UPF

ATOMIC_POSITIONS crystal
s     0.20030992     0.31476944     0.81820856
s     0.79968997     0.68523058     0.18179148
s     0.29964292     0.81476008     0.68179281
s     0.70035697     0.18523994     0.31820723
c     0.96005685     0.18608788     0.90643785
c     0.03994304     0.81391214     0.09356219
c     0.54008864     0.68612947     0.59354439
c     0.45991125     0.31387055     0.40645565
c     0.96325605     0.19760895     0.00871613
c     0.03674384     0.80239107     0.99128391
c     0.53673141     0.69758847     0.49129159
c     0.46326848     0.30241156     0.50870845
c     0.16853556     0.30881824     0.01298443
c     0.83146433     0.69118178     0.98701561
c     0.33142579     0.80878043     0.48701512
c     0.66857410     0.19121960     0.51298492
c     0.31580090     0.38012897     0.91537942
c     0.68419899     0.61987106     0.08462062
c     0.18425149     0.88013759     0.58461296
c     0.81574840     0.11986243     0.41538708
o     0.22515982     0.34649639     0.10147841
o     0.77484007     0.65350363     0.89852163
o     0.27485077     0.84649199     0.39852603
o     0.72514912     0.15350803     0.60147401
c     0.79966025     0.08423077     0.87040476
c     0.20033964     0.91576926     0.12959528
c     0.70018362     0.58415605     0.62958694
c     0.29981627     0.41584397     0.37041310
n     0.67434773     0.99711628     0.83843277
n     0.32565216     0.00288374     0.16156727
n     0.82573374     0.49713504     0.66157698
n     0.17426615     0.50286499     0.33842306
h     0.82062568     0.12943133     0.07615846
h     0.17937421     0.87056869     0.92384158
h     0.67936943     0.62942014     0.42384387
h     0.32063046     0.37057988     0.57615617
h     0.48117030     0.46904359     0.89718288
h     0.51882959     0.53095644     0.10281716
h     0.01888880     0.96904067     0.60281392
h     0.98111109     0.03095935     0.39718612
h     0.10546501     0.28513826     0.16370890
h     0.89453488     0.71486176     0.83629114
h     0.39452264     0.78513388     0.33629912
h     0.60547725     0.21486614     0.66370092

K_POINTS automatic
2 2 2 1 1 1

CELL_PARAMETERS cubic
    8.737213000000    -0.000121000000     0.384468000000
   -0.000023000000    17.530618000000    -0.000160000000
    9.068956000000    -0.000533000000    23.715254000000
