&control
 title='crystal',
 prefix='crystal',
 pseudo_dir='.',
 calculation='vc-relax',
/
&system
 ibrav=0,
 celldm(1)=1.0,
 nat=    22,
 ntyp=  5,
 ecutwfc=60.0,
 ecutrho=600.0,
 xdm=.true.,
 xdm_a1=0.4073,
 xdm_a2=2.4150,
/
&electrons
 conv_thr = 1d-8,
/
&ions
/
&cell
/
ATOMIC_SPECIES
h      1.007940 h.UPF
c     12.010700 c.UPF
n     14.006700 n.UPF
o     15.999400 o.UPF
s     32.065000 s.UPF

ATOMIC_POSITIONS crystal
h     0.45848267     0.16671199     0.82027809
h     0.54151732     0.66671198     0.17972191
c     0.35871406     0.10117865     0.68145270
c     0.64128593     0.60117864     0.31854730
c     0.36047468     0.95650317     0.62315017
c     0.63952530     0.45650316     0.37684983
o     0.49048326     0.86698186     0.73112323
o     0.50951672     0.36698185     0.26887677
c     0.20591454     0.90642753     0.43223915
c     0.79408545     0.40642753     0.56776085
h     0.18332285     0.79681108     0.35526358
h     0.81667714     0.29681108     0.64473642
c     0.08865627     0.01465133     0.35136496
c     0.91134371     0.51465132     0.64863504
c     0.92295261     0.00605182     0.17051071
c     0.07704738     0.50605181     0.82948929
n     0.78374218     0.00071987     0.02174425
n     0.21625780     0.50071986     0.97825575
s     0.17017901     0.17663688     0.50544929
s     0.82982098     0.67663688     0.49455071
h     0.59272968     0.92132577     0.83810450
h     0.40727030     0.42132576     0.16189550

K_POINTS automatic
2 2 2 1 1 1

CELL_PARAMETERS cubic
   14.801795000000     0.000000000000     0.021318000000
    0.000000000000    17.886881000000     0.000000000000
   -0.791590000000     0.000000000000     7.028778000000
