&control
 title='crystal',
 prefix='crystal',
 pseudo_dir='.',
 calculation='vc-relax',
/
&system
 ibrav=0,
 celldm(1)=1.0,
 nat=    44,
 ntyp=  5,
 ecutwfc=60.0,
 ecutrho=600.0,
 xdm=.true.,
 xdm_a1=0.4073,
 xdm_a2=2.4150,
/
&electrons
 conv_thr = 1d-8,
/
&ions
/
&cell
/
ATOMIC_SPECIES
h      1.007940 h.UPF
c     12.010700 c.UPF
n     14.006700 n.UPF
o     15.999400 o.UPF
s     32.065000 s.UPF

ATOMIC_POSITIONS crystal
h     0.36677024     0.49498967     0.36669742
h     0.63322975     0.50501032     0.63330262
h     0.36677023     0.00501031     0.86669743
h     0.63322976     0.99498967     0.13330261
c     0.39638163     0.43127685     0.32432078
c     0.60361835     0.56872314     0.67567925
c     0.39638163     0.06872313     0.82432079
c     0.60361837     0.93127685     0.17567924
c     0.57240235     0.40589076     0.19235457
c     0.42759763     0.59410923     0.80764546
c     0.57240235     0.09410922     0.69235459
c     0.42759764     0.90589076     0.30764545
o     0.75237263     0.45392784     0.09122407
o     0.24762735     0.54607214     0.90877596
o     0.75237263     0.04607214     0.59122409
o     0.24762736     0.95392785     0.40877595
c     0.54985212     0.31743081     0.17138685
c     0.45014786     0.68256917     0.82861318
c     0.54985212     0.18256916     0.67138686
c     0.45014788     0.81743082     0.32861317
h     0.66871831     0.28492547     0.07539855
h     0.33128167     0.71507451     0.92460148
h     0.66871831     0.21507450     0.57539856
h     0.33128169     0.78492548     0.42460147
c     0.36100905     0.27716725     0.28728226
c     0.63899093     0.72283274     0.71271777
c     0.36100905     0.22283273     0.78728228
c     0.63899095     0.77716725     0.21271776
c     0.28953214     0.19062819     0.30093426
c     0.71046785     0.80937179     0.69906577
c     0.28953213     0.30937179     0.80093428
c     0.71046786     0.69062820     0.19906576
n     0.22950572     0.11838781     0.31047560
n     0.77049426     0.88161218     0.68952444
n     0.22950572     0.38161217     0.81047561
n     0.77049428     0.61838781     0.18952443
s     0.20997776     0.34798904     0.42257697
s     0.79002222     0.65201094     0.57742306
s     0.20997776     0.15201093     0.92257698
s     0.79002224     0.84798905     0.07742305
h     0.76008785     0.51399393     0.12244224
h     0.23991214     0.48600606     0.87755780
h     0.76008784     0.98600605     0.62244225
h     0.23991215     0.01399393     0.37755779

K_POINTS automatic
2 2 2 1 1 1

CELL_PARAMETERS cubic
    7.224615000000     0.000000000000     0.493916000000
    0.000000000000    29.924785000000     0.000000000000
    0.840756000000     0.000000000000    17.578156000000
