&control
 title='crystal',
 prefix='crystal',
 pseudo_dir='.',
 calculation='vc-relax',
/
&system
 ibrav=0,
 celldm(1)=1.0,
 nat=    44,
 ntyp=  5,
 ecutwfc=60.0,
 ecutrho=600.0,
 xdm=.true.,
 xdm_a1=0.4073,
 xdm_a2=2.4150,
/
&electrons
 conv_thr = 1d-8,
/
&ions
/
&cell
/
ATOMIC_SPECIES
h      1.007940 h.UPF
c     12.010700 c.UPF
n     14.006700 n.UPF
o     15.999400 o.UPF
s     32.065000 s.UPF

ATOMIC_POSITIONS crystal
s     0.12226515     0.13038117     0.85606085
s     0.87773493     0.86961876     0.14393916
s     0.87775774     0.63037821     0.64396322
s     0.12224234     0.36962173     0.35603679
c     0.86448030     0.23322650     0.79615127
c     0.13551978     0.76677343     0.20384874
c     0.13555563     0.73322628     0.70385658
c     0.86444445     0.26677365     0.29614343
c     0.74363615     0.33705955     0.86392369
c     0.25636392     0.66294038     0.13607632
c     0.25638570     0.83706764     0.63607382
c     0.74361437     0.16293230     0.36392619
c     0.86118982     0.33097773     0.96707180
c     0.13881026     0.66902221     0.03292821
c     0.13883880     0.83097597     0.53292591
c     0.86116128     0.16902396     0.46707410
c     0.07207815     0.22364237     0.97468359
c     0.92792192     0.77635757     0.02531642
c     0.92793840     0.72363485     0.52532694
c     0.07206168     0.27636509     0.47467306
c     0.23720426     0.18639417     0.06283018
c     0.76279582     0.81360576     0.93716982
c     0.76281438     0.68637955     0.43718355
c     0.23718569     0.31362038     0.56281646
n     0.37496025     0.15254184     0.13598767
n     0.62503983     0.84745809     0.86401234
n     0.62506010     0.65254164     0.36402469
n     0.37493998     0.34745830     0.63597532
o     0.53743722     0.43613990     0.83822003
o     0.46256285     0.56386003     0.16177998
o     0.46259273     0.93615298     0.66176234
o     0.53740735     0.06384695     0.33823767
h     0.80870905     0.21340676     0.71421878
h     0.19129103     0.78659317     0.28578123
h     0.19130985     0.71340041     0.78579515
h     0.80869023     0.28659952     0.21420486
h     0.47241218     0.41342092     0.76476251
h     0.52758790     0.58657901     0.23523750
h     0.52760783     0.91342958     0.73522703
h     0.47239224     0.08657036     0.26477297
h     0.79318163     0.40188240     0.03177164
h     0.20681845     0.59811753     0.96822837
h     0.20685482     0.90188528     0.46821867
h     0.79314526     0.09811465     0.53178134

K_POINTS automatic
2 2 2 1 1 1

CELL_PARAMETERS cubic
    9.219279000000    -0.000176000000    -0.079927000000
   -0.000293000000    16.397204000000     0.000697000000
   -0.485382000000     0.001024000000    24.010084000000
