&control
 title='crystal',
 prefix='crystal',
 pseudo_dir='.',
 calculation='vc-relax',
/
&system
 ibrav=0,
 celldm(1)=1.0,
 nat=    44,
 ntyp=  5,
 ecutwfc=60.0,
 ecutrho=600.0,
 xdm=.true.,
 xdm_a1=0.4073,
 xdm_a2=2.4150,
/
&electrons
 conv_thr = 1d-8,
/
&ions
/
&cell
/
ATOMIC_SPECIES
h      1.007940 h.UPF
c     12.010700 c.UPF
n     14.006700 n.UPF
o     15.999400 o.UPF
s     32.065000 s.UPF

ATOMIC_POSITIONS crystal
s     0.86042906     0.09180177     0.66930670
s     0.13957099     0.90819828     0.33069327
s     0.63962240     0.59178138     0.83067094
s     0.36037765     0.40821868     0.16932903
c     0.74535648     0.18053411     0.49918862
c     0.25464357     0.81946595     0.50081134
c     0.75463987     0.68051572     0.00080227
c     0.24536018     0.31948434     0.99919770
c     0.74150110     0.34753916     0.48543193
c     0.25849895     0.65246090     0.51456803
c     0.75848303     0.84752104     0.01454904
c     0.24151703     0.15247902     0.98545092
n     0.74096293     0.48735688     0.47721393
n     0.25903713     0.51264318     0.52278603
n     0.75901903     0.98733672     0.02277541
n     0.24098103     0.01266333     0.97722455
c     0.67054232     0.06749710     0.38929695
c     0.32945774     0.93250296     0.61070301
c     0.82942451     0.56748588     0.11070643
c     0.17057554     0.43251417     0.88929353
c     0.70820535     0.90909326     0.44431544
c     0.29179470     0.09090679     0.55568453
c     0.79178419     0.40908047     0.05568367
c     0.20821586     0.59091959     0.94431629
o     0.64714392     0.78187560     0.35327882
o     0.35285613     0.21812446     0.64672114
o     0.85285326     0.28186367     0.14671690
o     0.14714679     0.71813639     0.85328306
h     0.68683151     0.67900387     0.40812529
h     0.31316854     0.32099618     0.59187468
h     0.81314836     0.17899542     0.09186944
h     0.18685170     0.82100464     0.90813052
c     0.81162655     0.90419137     0.59434391
c     0.18837350     0.09580869     0.40565605
c     0.68839857     0.40417415     0.90564345
c     0.31160149     0.59582590     0.09435651
h     0.86517659     0.79999526     0.66285434
h     0.13482346     0.20000480     0.33714562
h     0.63487336     0.29997815     0.83712296
h     0.36512669     0.70002190     0.16287700
h     0.59518570     0.09618525     0.27398036
h     0.40481435     0.90381481     0.72601960
h     0.90477661     0.59617633     0.22602622
h     0.09522345     0.40382373     0.77397374

K_POINTS automatic
2 2 2 1 1 1

CELL_PARAMETERS cubic
   13.774591000000    -0.000200000000     0.191482000000
   -0.000215000000    15.763940000000     0.000029000000
   -4.152463000000     0.000155000000    16.509501000000
