&control
 title='crystal',
 prefix='crystal',
 pseudo_dir='.',
 calculation='vc-relax',
/
&system
 ibrav=0,
 celldm(1)=1.0,
 nat=    44,
 ntyp=  5,
 ecutwfc=60.0,
 ecutrho=600.0,
 xdm=.true.,
 xdm_a1=0.4073,
 xdm_a2=2.4150,
/
&electrons
 conv_thr = 1d-8,
/
&ions
/
&cell
/
ATOMIC_SPECIES
h      1.007940 h.UPF
c     12.010700 c.UPF
n     14.006700 n.UPF
o     15.999400 o.UPF
s     32.065000 s.UPF

ATOMIC_POSITIONS crystal
s     0.72243765     0.42550965     0.30907172
s     0.27756234     0.57449035     0.69092827
s     0.22243765     0.07449035     0.30907172
s     0.77756234     0.92550966     0.69092827
c     0.85518752     0.33101393     0.25290244
c     0.14481246     0.66898607     0.74709754
c     0.35518752     0.16898607     0.25290244
c     0.64481247     0.83101394     0.74709754
c     0.86461963     0.16228347     0.25286497
c     0.13538035     0.83771653     0.74713502
c     0.36461963     0.33771653     0.25286497
c     0.63538036     0.66228347     0.74713502
n     0.87206449     0.02130554     0.25379908
n     0.12793549     0.97869446     0.74620090
n     0.37206449     0.47869446     0.25379908
n     0.62793550     0.52130555     0.74620090
c     0.94463592     0.44164835     0.21574928
c     0.05536406     0.55835165     0.78425070
c     0.44463592     0.05835165     0.21574928
c     0.55536407     0.94164836     0.78425070
c     0.90386683     0.60301640     0.23259687
c     0.09613316     0.39698360     0.76740312
c     0.40386682     0.89698360     0.23259687
c     0.59613316     0.10301641     0.76740311
o     0.97664841     0.72926527     0.19836158
o     0.02335157     0.27073473     0.80163840
o     0.47664841     0.77073473     0.19836158
o     0.52335158     0.22926528     0.80163840
h     0.93325747     0.83348960     0.21692811
h     0.06674252     0.16651040     0.78307187
h     0.43325746     0.66651040     0.21692811
h     0.56674252     0.33348961     0.78307187
c     0.78498383     0.61230061     0.28270538
c     0.21501616     0.38769939     0.71729460
c     0.28498382     0.88769939     0.28270538
c     0.71501616     0.11230061     0.71729460
h     0.72840783     0.71932994     0.29738156
h     0.27159215     0.28067006     0.70261842
h     0.22840783     0.78067006     0.29738156
h     0.77159216     0.21932995     0.70261842
h     0.03406535     0.40796355     0.17652247
h     0.96593463     0.59203645     0.82347751
h     0.53406535     0.09203645     0.17652247
h     0.46593464     0.90796355     0.82347751

K_POINTS automatic
2 2 2 1 1 1

CELL_PARAMETERS cubic
   19.492798000000     0.000000000000     0.638442000000
    0.000000000000    15.628025000000     0.000000000000
   -5.015840000000     0.000000000000    11.688830000000
