&control
 title='crystal',
 prefix='crystal',
 pseudo_dir='.',
 calculation='vc-relax',
/
&system
 ibrav=0,
 celldm(1)=1.0,
 nat=    22,
 ntyp=  5,
 ecutwfc=60.0,
 ecutrho=600.0,
 xdm=.true.,
 xdm_a1=0.4073,
 xdm_a2=2.4150,
/
&electrons
 conv_thr = 1d-8,
/
&ions
/
&cell
/
ATOMIC_SPECIES
h      1.007940 h.UPF
c     12.010700 c.UPF
n     14.006700 n.UPF
o     15.999400 o.UPF
s     32.065000 s.UPF

ATOMIC_POSITIONS crystal
s     0.41946981     0.96844881     0.21668787
s     0.58052044     0.46842321     0.78334762
c     0.25410142     0.88791077     0.25036620
c     0.74588540     0.38784244     0.74964736
c     0.24271884     0.71934975     0.09633057
c     0.75726874     0.21927869     0.90368398
n     0.23518656     0.57789834     0.96754938
n     0.76481018     0.07782590     0.03245766
c     0.14460108     0.00829628     0.43885113
c     0.85539497     0.50820162     0.56113411
c     0.19556047     0.16592516     0.55779716
c     0.80444320     0.66584153     0.44219346
o     0.10458018     0.29862610     0.75279817
o     0.89543387     0.79852650     0.24717189
h     0.15773428     0.39661829     0.82145856
h     0.84228200     0.89652625     0.17850915
c     0.34255085     0.16267555     0.45515774
c     0.65745371     0.66263453     0.54485648
h     0.40782277     0.26333857     0.51800011
h     0.59218434     0.76331548     0.48202266
h     0.03367396     0.98277965     0.48643468
h     0.96632250     0.48265703     0.51354431

K_POINTS automatic
2 2 2 1 1 1

CELL_PARAMETERS cubic
   19.213709000000     0.000472000000    -0.026273000000
    0.000302000000    13.901939000000    -0.000067000000
    2.894906000000     0.000029000000     6.694918000000
