&control
 title='crystal',
 prefix='crystal',
 pseudo_dir='.',
 calculation='vc-relax',
/
&system
 ibrav=0,
 celldm(1)=1.0,
 nat=    44,
 ntyp=  5,
 ecutwfc=60.0,
 ecutrho=600.0,
 xdm=.true.,
 xdm_a1=0.4073,
 xdm_a2=2.4150,
/
&electrons
 conv_thr = 1d-8,
/
&ions
/
&cell
/
ATOMIC_SPECIES
h      1.007940 h.UPF
c     12.010700 c.UPF
n     14.006700 n.UPF
o     15.999400 o.UPF
s     32.065000 s.UPF

ATOMIC_POSITIONS crystal
c     0.77970490     0.15240812     0.96772292
c     0.22029507     0.84759190     0.03227711
c     0.22029516     0.65240296     0.53230797
c     0.77970481     0.34759706     0.46769206
c     0.48468709     0.22416282     0.09941459
c     0.51531288     0.77583720     0.90058544
c     0.51528297     0.72417451     0.40062294
c     0.48471700     0.27582552     0.59937709
c     0.91896017     0.35760767     0.88190356
c     0.08103980     0.64239235     0.11809647
c     0.08102141     0.85759656     0.61811265
c     0.91897856     0.14240347     0.38188738
s     0.72059339     0.41431498     0.96923194
s     0.27940658     0.58568504     0.03076809
s     0.27937447     0.91431852     0.53078506
s     0.72062550     0.08568151     0.46921496
h     0.01393907     0.43080155     0.82499790
h     0.98606090     0.56919847     0.17500212
h     0.98607247     0.93081345     0.67501649
h     0.01392750     0.06918657     0.32498353
c     0.65170139     0.24734532     0.01734695
c     0.34829858     0.75265470     0.98265308
c     0.34827791     0.74735428     0.48269243
c     0.65172206     0.25264574     0.51730760
h     0.76593046     0.04253954     0.98763179
h     0.23406951     0.95746049     0.01236824
h     0.23407107     0.54253304     0.51240348
h     0.76592890     0.45746698     0.48759655
o     0.07414263     0.14192612     0.83212314
o     0.92585734     0.85807390     0.16787688
o     0.92587625     0.64190412     0.66791559
o     0.07412372     0.35809590     0.33208443
c     0.93308231     0.21641641     0.89017787
c     0.06691766     0.78358361     0.10982216
c     0.06692045     0.71640221     0.60984671
c     0.93307952     0.28359781     0.39015332
h     0.16761638     0.20379939     0.77808213
h     0.83238359     0.79620064     0.22191790
h     0.83243170     0.70381334     0.72191544
h     0.16756827     0.29618669     0.27808459
n     0.34378541     0.20918252     0.16717513
n     0.65621456     0.79081750     0.83282490
n     0.65617892     0.70919371     0.33285173
n     0.34382105     0.29080631     0.66714830

K_POINTS automatic
2 2 2 1 1 1

CELL_PARAMETERS cubic
   14.761648000000    -0.000078000000    -0.314481000000
   -0.000113000000    18.448619000000    -0.000122000000
    1.599194000000    -0.000093000000    13.538468000000
