%nprocs=4
%mem=4GB
#p pbepbe aug-cc-pvtz output=wfx scf=(conver=6) int=(grid=ultrafine)

title

1 1
h -0.254135817053651 -0.440176147159953 0.000000000000000
h -0.254135817053651 0.440176147159953 0.000000000000000
h 0.508271634107303 0.000000000000000 0.000000000000000

h2p.wfx

