%nprocs=4
%mem=4GB
#p pbepbe aug-cc-pvtz output=wfx scf=(conver=6) int=(grid=ultrafine)

title

0 1
s 0.000000000000000 0.000000000000000 -0.618150411641479
h -0.975532292489442 0.000000000000000 0.309075205820739
h 0.975532292489442 0.000000000000000 0.309075205820739

h2s.wfx

