%nprocs=4
%mem=4GB
#p pbepbe aug-cc-pvtz output=wfx scf=(conver=6) int=(grid=ultrafine)

title

1 1
c 0.000000000000000 -0.688532966355701 -0.154092982718428
c 0.000000000000000 0.688532966355701 -0.154092982718428
h -0.933839120273917 -1.244633982781780 -0.165839976296388
h 0.933839120273917 -1.244633982781780 -0.165839976296388
h 0.000000000000000 0.000000000000000 0.971545870622414
h -0.933839120273917 1.244633982781780 -0.165839976296388
h 0.933839120273917 1.244633982781780 -0.165839976296388

p2p.wfx

