%nprocs=4
%mem=4GB
#p pbepbe aug-cc-pvtz output=wfx scf=(conver=6) int=(grid=ultrafine)

title

1 1
c 0.788587140880218 -0.454885316507331 0.000000000000000
c 2.027615934388537 0.117095629345181 0.000000000000000
c -0.346931182758784 0.359551423571474 0.000000000000000
c -1.719286353845778 -0.110505240209025 0.000000000000000
h 0.676955796815112 -1.533533109343316 0.000000000000000
h 2.155809035817605 1.195286748604798 0.000000000000000
h 2.929812125286402 -0.485394488340506 0.000000000000000
h -0.191388423880174 1.438059951396699 0.000000000000000
h -1.827630217079515 -1.192185885237914 0.000000000000000
h -2.246771927811803 0.333255143359982 0.860414019449809
h -2.246771927811803 0.333255143359982 -0.860414019449809

p4p.wfx

