%nprocs=4
%mem=4GB
#p pbepbe aug-cc-pvtz output=wfx scf=(conver=6) int=(grid=ultrafine)

title

0 1
c -4.297731147648459 -0.204670624428797 0.000000000000000
c -3.104804866598124 0.404086396849247 0.000000000000000
c -1.833344393987631 -0.281886973149334 0.000000000000000
c -0.634096357629639 0.338972101753537 0.000000000000000
c 0.634096357629639 -0.338972101753537 0.000000000000000
c 1.833344393987631 0.281886973149334 0.000000000000000
c 3.104804866598124 -0.404086396849247 0.000000000000000
c 4.297731147648459 0.204670624428797 0.000000000000000
h -4.383032053660344 -1.285995276605619 0.000000000000000
h -5.221755426455683 0.358957929176179 0.000000000000000
h -3.067341639346960 1.491120651310255 0.000000000000000
h -1.863265974726829 -1.369555827684729 0.000000000000000
h -0.608827883292210 1.426916648919178 0.000000000000000
h 0.608827883292210 -1.426916648919178 0.000000000000000
h 1.863265974726829 1.369555827684729 0.000000000000000
h 3.067341639346960 -1.491120651310255 0.000000000000000
h 4.383032053660344 1.285995276605619 0.000000000000000
h 5.221755426455683 -0.358957929176179 0.000000000000000

p8.wfx

