&control
 title='crystal',
 prefix='crystal',
 pseudo_dir='.',
 calculation='vc-relax',
/
&system
 ibrav=0,
 celldm(1)=1.0,
 nat=    40,
 ntyp=  3,
 ecutwfc=60.0,
 ecutrho=600.0,
 xdm=.true.,
 xdm_a1=0.4073,
 xdm_a2=2.4150,
/
&electrons
 conv_thr = 1d-8,
/
&ions
/
&cell
/
ATOMIC_SPECIES
h      1.007940 h.UPF
c     12.010700 c.UPF
o     15.999400 o.UPF

ATOMIC_POSITIONS crystal
c     0.84058018     0.56380063     0.72612919
c     0.15941988     0.43619943     0.22612918
c     0.85035575     0.39188743     0.68194804
c     0.14964431     0.60811263     0.18194804
c     0.05619104     0.41555740     0.76343998
c     0.94380902     0.58444267     0.26343998
c     0.29906929     0.69190247     0.82226206
c     0.70093077     0.30809760     0.32226206
c     0.12591048     0.75061723     0.81673151
c     0.87408958     0.24938284     0.31673150
c     0.18680497     0.92919966     0.88348908
c     0.81319509     0.07080040     0.38348907
c     0.84848162     0.69370718     0.61775959
c     0.15151844     0.30629289     0.11775959
o     0.62332156     0.64852932     0.59315659
o     0.37667850     0.35147074     0.09315659
o     0.11223553     0.86589465     0.54309792
o     0.88776453     0.13410541     0.04309792
o     0.41686530     0.08313177     0.97559728
o     0.58313476     0.91686830     0.47559727
o     0.02369875     0.97132188     0.85518010
o     0.97630131     0.02867818     0.35518010
h     0.61107334     0.45173677     0.77500901
h     0.38892672     0.54826330     0.27500901
h     0.70565561     0.25453480     0.60477647
h     0.29434445     0.74546527     0.10477647
h     0.26462958     0.86566854     0.55273514
h     0.73537048     0.13433152     0.05273513
h     0.90877210     0.26676438     0.83946803
h     0.09122796     0.73323568     0.33946802
h     0.17072825     0.38164133     0.71412720
h     0.82927182     0.61835873     0.21412719
h     0.36905658     0.69936654     0.91806148
h     0.63094348     0.30063352     0.41806147
h     0.52199041     0.83162599     0.76581830
h     0.47800965     0.16837407     0.26581830
h     0.01359701     0.97868790     0.42837917
h     0.98640305     0.02131216     0.92837917
h     0.41198478     0.19527901     0.01443395
h     0.58801529     0.80472106     0.51443394

K_POINTS automatic
2 2 2 1 1 1

CELL_PARAMETERS cubic
   12.085955000000    -1.725248000000     0.000000000000
  -10.052744000000    11.147841000000     0.000000000000
    0.000000000000     0.000000000000    20.060514000000
