&control
 title='crystal',
 prefix='crystal',
 pseudo_dir='.',
 calculation='vc-relax',
/
&system
 ibrav=0,
 celldm(1)=1.0,
 nat=    80,
 ntyp=  4,
 ecutwfc=60.0,
 ecutrho=600.0,
 xdm=.true.,
 xdm_a1=0.4073,
 xdm_a2=2.4150,
/
&electrons
 conv_thr = 1d-8,
/
&ions
/
&cell
/
ATOMIC_SPECIES
h      1.007940 h.UPF
c     12.010700 c.UPF
n     14.006700 n.UPF
o     15.999400 o.UPF

ATOMIC_POSITIONS crystal
c     0.23751918     0.93478337     0.51630069
c     0.76248087     0.43478338     0.98369935
c     0.26252727     0.06522368     0.01630564
c     0.73747277     0.56522369     0.48369439
c     0.41276216     0.13203945     0.46368554
c     0.58723788     0.63203945     0.03631450
c     0.08726292     0.86795908     0.96368443
c     0.91273713     0.36795908     0.53631561
h     0.49309618     0.20534963     0.52058891
h     0.50690387     0.70534964     0.97941112
h     0.00692879     0.79464933     0.02058615
h     0.99307126     0.29464934     0.47941388
h     0.33996498     0.18309978     0.38864414
h     0.66003507     0.68309978     0.11135589
h     0.16005456     0.81690085     0.88864295
h     0.83994548     0.31690085     0.61135708
c     0.58637631     0.01903405     0.42904343
c     0.41362374     0.51903406     0.07095660
c     0.91364029     0.98096328     0.92904350
c     0.08635976     0.48096329     0.57095653
h     0.75380566     0.02163175     0.47963729
h     0.24619439     0.52163175     0.02036275
h     0.74622046     0.97836658     0.97964168
h     0.25377959     0.47836658     0.52035835
c     0.65066063     0.02227183     0.30184971
c     0.34933942     0.52227184     0.19815032
c     0.84932935     0.97772450     0.80185104
c     0.15067069     0.47772451     0.69814899
h     0.47945962     0.02273423     0.25393586
h     0.52054043     0.52273423     0.24606417
h     0.02052298     0.97725117     0.75393399
h     0.97947707     0.47725118     0.74606604
c     0.78982153     0.14877623     0.27340104
c     0.21017851     0.64877624     0.22659899
c     0.71014871     0.85122516     0.77340327
c     0.28985134     0.35122516     0.72659676
h     0.96507465     0.14928622     0.31733173
h     0.03492539     0.64928622     0.18266830
h     0.53489904     0.85071894     0.81733180
h     0.46510101     0.35071894     0.68266823
h     0.69234836     0.23893537     0.29797189
h     0.30765168     0.73893538     0.20202814
h     0.80761818     0.76106354     0.79797431
h     0.19238186     0.26106355     0.70202572
h     0.82377830     0.15466625     0.18164509
h     0.17622175     0.65466625     0.31835494
h     0.67618632     0.84533801     0.68164699
h     0.32381372     0.34533801     0.81835305
c     0.79668484     0.90078101     0.26644709
c     0.20331521     0.40078102     0.23355294
c     0.70332519     0.09922144     0.76644724
c     0.29667486     0.59922144     0.73355279
h     0.82921548     0.90310801     0.17434070
h     0.17078456     0.40310801     0.32565933
h     0.67079521     0.09689529     0.67434018
h     0.32920484     0.59689529     0.82565985
h     0.70403938     0.80790555     0.28696130
h     0.29596067     0.30790556     0.21303873
h     0.79598168     0.19209345     0.78696272
h     0.20401837     0.69209346     0.71303731
h     0.97341542     0.89886576     0.30900924
h     0.02658463     0.39886576     0.19099079
h     0.52659382     0.10114418     0.80900619
h     0.47340622     0.60114419     0.69099384
n     0.44331041     0.90371305     0.46182793
n     0.55668963     0.40371306     0.03817210
n     0.05670151     0.09628858     0.96182202
n     0.94329854     0.59628858     0.53817802
h     0.50450599     0.80729395     0.45699419
h     0.49549406     0.30729395     0.04300584
h     0.99550655     0.19270283     0.95699501
h     0.00449350     0.69270283     0.54300502
o     0.08104022     0.86153071     0.55673733
o     0.91895982     0.36153071     0.94326270
o     0.41896467     0.13846250     0.05673415
o     0.58103538     0.63846251     0.44326588
o     0.21237691     0.07000654     0.52334603
o     0.78762314     0.57000655     0.97665400
o     0.28764430     0.92999452     0.02334616
o     0.71235575     0.42999452     0.47665387

K_POINTS automatic
2 2 2 1 1 1

CELL_PARAMETERS cubic
   10.456313000000     0.000000000000    -0.000091000000
    0.000000000000    19.098419000000     0.000000000000
   -0.000193000000     0.000000000000    22.177657000000
