&control
 title='crystal',
 prefix='crystal',
 pseudo_dir='.',
 calculation='vc-relax',
/
&system
 ibrav=0,
 celldm(1)=1.0,
 nat=   112,
 ntyp=  4,
 ecutwfc=60.0,
 ecutrho=600.0,
 xdm=.true.,
 xdm_a1=0.4073,
 xdm_a2=2.4150,
/
&electrons
 conv_thr = 1d-8,
/
&ions
/
&cell
/
ATOMIC_SPECIES
h      1.007940 h.UPF
c     12.010700 c.UPF
n     14.006700 n.UPF
o     15.999400 o.UPF

ATOMIC_POSITIONS crystal
c     0.90094179     0.75447900     0.88232414
c     0.09905814     0.24552100     0.11767581
c     0.90094185     0.74552100     0.38232417
c     0.09905809     0.25447900     0.61767579
o     0.92744628     0.73547426     0.81210988
o     0.07255364     0.26452575     0.18789007
o     0.92744634     0.76452575     0.31210991
o     0.07255360     0.23547425     0.68789005
o     0.85712007     0.80637237     0.87984249
o     0.14287986     0.19362763     0.12015746
o     0.85712012     0.69362763     0.37984252
o     0.14287982     0.30637237     0.62015744
c     0.93508254     0.70487950     0.96681956
c     0.06491739     0.29512051     0.03318039
c     0.93508259     0.79512051     0.46681959
c     0.06491735     0.20487949     0.53318037
c     0.89276700     0.71231777     0.03238170
c     0.10723292     0.28768223     0.96761825
c     0.89276706     0.78768223     0.53238173
c     0.10723288     0.21231777     0.46761823
h     0.00147635     0.66149690     0.97653120
h     0.99852357     0.33850310     0.02346875
h     0.00147641     0.83850310     0.47653123
h     0.99852353     0.16149690     0.52346873
h     0.82698080     0.75596656     0.02224187
h     0.17301913     0.24403344     0.97775808
h     0.82698086     0.74403344     0.52224190
h     0.17301908     0.25596656     0.47775806
c     0.94667688     0.66399194     0.13029099
c     0.05332304     0.33600806     0.86970897
c     0.94667694     0.83600806     0.63029101
c     0.05332300     0.16399194     0.36970895
o     0.96132223     0.61086792     0.11092659
o     0.03867769     0.38913209     0.88907336
o     0.96132229     0.88913209     0.61092662
o     0.03867765     0.11086791     0.38907334
o     0.98229439     0.67850312     0.23299736
o     0.01770553     0.32149688     0.76700259
o     0.98229445     0.82149688     0.73299739
o     0.01770549     0.17850312     0.26700258
h     0.93072845     0.76977290     0.76841301
h     0.06927148     0.23022710     0.23158694
h     0.93072850     0.73022710     0.26841304
h     0.06927144     0.26977290     0.73158692
h     0.61257918     0.38109756     0.94091060
h     0.38742074     0.61890245     0.05908935
h     0.61257924     0.11890245     0.44091063
h     0.38742070     0.88109755     0.55908933
c     0.77722055     0.40192514     0.08948681
c     0.22277938     0.59807486     0.91051314
c     0.77722061     0.09807486     0.58948684
c     0.22277933     0.90192514     0.41051312
c     0.89679354     0.36664004     0.23107269
c     0.10320638     0.63335996     0.76892726
c     0.89679360     0.13335996     0.73107272
c     0.10320634     0.86664004     0.26892724
c     0.04105877     0.48456167     0.30287682
c     0.95894115     0.51543833     0.69712313
c     0.04105883     0.01543833     0.80287685
c     0.95894111     0.98456167     0.19712311
c     0.09290425     0.39220538     0.41385231
c     0.90709568     0.60779462     0.58614764
c     0.09290431     0.10779462     0.91385234
c     0.90709563     0.89220538     0.08614762
h     0.82562868     0.32000585     0.18934826
h     0.17437124     0.67999416     0.81065169
h     0.82562874     0.17999416     0.68934829
h     0.17437120     0.82000584     0.31065167
c     0.17413645     0.45339811     0.45633602
c     0.82586347     0.54660189     0.54366393
c     0.17413651     0.04660189     0.95633605
c     0.82586343     0.95339811     0.04366391
h     0.18068754     0.36644819     0.52260288
h     0.81931238     0.63355182     0.47739707
h     0.18068760     0.13355182     0.02260291
h     0.81931234     0.86644818     0.97739705
c     0.37964476     0.48475807     0.64113732
c     0.62035516     0.51524193     0.35886263
c     0.37964482     0.01524193     0.14113735
c     0.62035512     0.98475807     0.85886261
c     0.30242761     0.57317311     0.51120183
c     0.69757232     0.42682689     0.48879813
c     0.30242766     0.92682689     0.01120185
c     0.69757228     0.07317311     0.98879811
c     0.44241239     0.54461780     0.66818655
c     0.55758754     0.45538220     0.33181341
c     0.44241245     0.95538220     0.16818657
c     0.55758749     0.04461780     0.83181339
h     0.48883332     0.46170828     0.76276688
h     0.51116660     0.53829173     0.23723307
h     0.48883338     0.03829173     0.26276691
h     0.51116656     0.96170827     0.73723305
h     0.32992666     0.62036182     0.51511966
h     0.67007327     0.37963819     0.48488029
h     0.32992672     0.87963819     0.01511969
h     0.67007322     0.12036181     0.98488027
h     0.59994701     0.56984256     0.80924416
h     0.40005292     0.43015744     0.19075579
h     0.59994706     0.93015744     0.30924419
h     0.40005288     0.06984256     0.69075577
n     0.84428425     0.45954947     0.12131852
n     0.15571568     0.54045054     0.87868143
n     0.84428431     0.04045054     0.62131855
n     0.15571563     0.95954946     0.37868141
n     0.11439276     0.54383433     0.33903188
n     0.88560716     0.45616567     0.66096807
n     0.11439282     0.95616567     0.83903191
n     0.88560712     0.04383433     0.16096805
h     0.02621141     0.56900321     0.22875230
h     0.97378852     0.43099679     0.77124765
h     0.02621146     0.93099679     0.72875233
h     0.97378847     0.06900321     0.27124763

K_POINTS automatic
2 2 2 1 1 1

CELL_PARAMETERS cubic
   16.902597000000     0.000000000000     0.105545000000
    0.000000000000    42.874427000000     0.000000000000
  -25.989654000000     0.000000000000    10.077463000000
