&control
 title='crystal',
 prefix='crystal',
 pseudo_dir='.',
 calculation='vc-relax',
/
&system
 ibrav=0,
 celldm(1)=1.0,
 nat=   112,
 ntyp=  4,
 ecutwfc=60.0,
 ecutrho=600.0,
 xdm=.true.,
 xdm_a1=0.4073,
 xdm_a2=2.4150,
/
&electrons
 conv_thr = 1d-8,
/
&ions
/
&cell
/
ATOMIC_SPECIES
h      1.007940 h.UPF
c     12.010700 c.UPF
n     14.006700 n.UPF
o     15.999400 o.UPF

ATOMIC_POSITIONS crystal
c     0.44874919     0.23212312     0.92899117
c     0.94874919     0.26787685     0.92899117
c     0.55124891     0.76787657     0.42899369
c     0.05124891     0.73212340     0.42899369
c     0.48285810     0.08711523     0.84795394
c     0.98285810     0.41288474     0.84795394
c     0.51714456     0.91288395     0.34795358
c     0.01714456     0.58711602     0.34795358
c     0.54321909     0.04243463     0.86105566
c     0.04321910     0.45756534     0.86105566
c     0.45677773     0.95756753     0.36105743
c     0.95677773     0.54243244     0.36105743
c     0.63132534     0.11716698     0.97803296
c     0.13132534     0.38283299     0.97803296
c     0.36867525     0.88283466     0.47803154
c     0.86867525     0.61716532     0.47803154
c     0.65203824     0.23374192     0.07262092
c     0.15203824     0.26625805     0.07262092
c     0.34796072     0.76625262     0.57262566
c     0.84796072     0.73374735     0.57262566
c     0.61172649     0.38057771     0.14546133
c     0.11172649     0.11942226     0.14546133
c     0.38827513     0.61942404     0.64546048
c     0.88827513     0.88057593     0.64546048
c     0.53348974     0.29624222     0.03572499
c     0.03348974     0.20375775     0.03572499
c     0.46650854     0.70376099     0.53572536
c     0.96650854     0.79623898     0.53572536
c     0.56997795     0.14770964     0.95585055
c     0.06997795     0.35229033     0.95585055
c     0.43002197     0.85228932     0.45585213
c     0.93002197     0.64771065     0.45585213
h     0.44528395     0.43202446     0.08144033
h     0.94528396     0.06797551     0.08144033
h     0.55471537     0.56797529     0.58144066
h     0.05471538     0.93202468     0.58144066
h     0.40101149     0.27120601     0.92309988
h     0.90101149     0.22879396     0.92309988
h     0.59898902     0.72879166     0.42310118
h     0.09898902     0.77120832     0.42310118
h     0.46147341     0.01177317     0.77561558
h     0.96147341     0.48822680     0.77561558
h     0.53852583     0.98822545     0.27561840
h     0.03852583     0.51177452     0.27561840
h     0.57019026     0.92810383     0.79874147
h     0.07019026     0.57189614     0.79874147
h     0.42981001     0.07189401     0.29874371
h     0.92981001     0.42810596     0.29874371
h     0.66156696     0.00189136     0.92111432
h     0.16156696     0.49810861     0.92111432
h     0.33843307     0.99810477     0.42111650
h     0.83843307     0.50189520     0.42111650
h     0.69881919     0.21367505     0.09221428
h     0.19881919     0.28632492     0.09221428
h     0.30118122     0.78632227     0.59221550
h     0.80118122     0.71367770     0.59221550
h     0.62840182     0.47724598     0.21994166
h     0.12840182     0.02275399     0.21994166
h     0.37159825     0.52275222     0.71994460
h     0.87159826     0.97724775     0.71994460
n     0.47377949     0.32932088     0.01861832
n     0.97377949     0.17067909     0.01861832
n     0.52622300     0.67067803     0.51861911
n     0.02622300     0.82932194     0.51861911
n     0.55375542     0.41165890     0.12861363
n     0.05375542     0.08834107     0.12861363
n     0.44624292     0.58834062     0.62861704
n     0.94624292     0.91165935     0.62861704
c     0.35304382     0.65393878     0.11994053
c     0.85304382     0.84606120     0.11994053
c     0.64696089     0.34603564     0.61992807
c     0.14696089     0.15396433     0.61992807
c     0.29620428     0.66999387     0.18014740
c     0.79620428     0.83000610     0.18014740
c     0.70379523     0.33001685     0.68015323
c     0.20379523     0.16998312     0.68015323
c     0.23484147     0.50743642     0.33493059
c     0.73484147     0.99256355     0.33493059
c     0.76515746     0.49256361     0.83492918
c     0.26515746     0.00743636     0.83492918
c     0.29099779     0.51904980     0.27424067
c     0.79099779     0.98095017     0.27424067
c     0.70900381     0.48093171     0.77423158
c     0.20900381     0.01906826     0.77423158
h     0.20260820     0.32497390     0.46827334
h     0.70260820     0.17502607     0.46827334
h     0.79739062     0.67502502     0.96827193
h     0.29739063     0.82497495     0.96827193
h     0.25812694     0.79873096     0.14309223
h     0.75812694     0.70126901     0.14309223
h     0.74187406     0.20126364     0.64308855
h     0.24187406     0.29873633     0.64308855
h     0.33001989     0.39327641     0.30870852
h     0.83001989     0.10672356     0.30870852
h     0.66997940     0.60671894     0.80870782
h     0.16997940     0.89328103     0.80870782
o     0.24294533     0.34976018     0.42675292
o     0.74294533     0.15023979     0.42675292
o     0.75705577     0.65024094     0.92675336
o     0.25705577     0.84975903     0.92675336
o     0.35193360     0.75953338     0.02571567
o     0.85193360     0.74046659     0.02571567
o     0.64806537     0.24046941     0.52572196
o     0.14806537     0.25953056     0.52572196
o     0.39907646     0.52929125     0.16433113
o     0.89907646     0.97070872     0.16433113
o     0.60092023     0.47071324     0.66433592
o     0.10092023     0.02928673     0.66433592
o     0.18715017     0.62657844     0.30303098
o     0.68715017     0.87342153     0.30303098
o     0.81285147     0.37341595     0.80302963
o     0.31285147     0.12658403     0.80302963

K_POINTS automatic
2 2 2 1 1 1

CELL_PARAMETERS cubic
   42.534045000000     0.000000000000    -0.000161000000
    0.000000000000     6.949444000000     0.000000000000
   -0.000071000000     0.000000000000    24.316990000000
