&control
 title='crystal',
 prefix='crystal',
 pseudo_dir='.',
 calculation='vc-relax',
/
&system
 ibrav=0,
 celldm(1)=1.0,
 nat=    56,
 ntyp=  4,
 ecutwfc=60.0,
 ecutrho=600.0,
 xdm=.true.,
 xdm_a1=0.4073,
 xdm_a2=2.4150,
/
&electrons
 conv_thr = 1d-8,
/
&ions
/
&cell
/
ATOMIC_SPECIES
h      1.007940 h.UPF
c     12.010700 c.UPF
n     14.006700 n.UPF
o     15.999400 o.UPF

ATOMIC_POSITIONS crystal
n     0.75246703     0.65280698     0.20385021
n     0.34719268     0.24752660     0.70384738
h     0.69812483     0.66088891     0.27525244
h     0.33911380     0.30187485     0.77525050
c     0.86884679     0.64449002     0.02123335
c     0.35551506     0.13116189     0.52123294
h     0.91867853     0.63791107     0.95029730
h     0.36208471     0.08132294     0.45029347
c     0.84679266     0.73214107     0.10632519
c     0.26786732     0.15320485     0.60632502
n     0.76310316     0.81237079     0.28557642
n     0.18763559     0.23689615     0.78557369
c     0.77216506     0.57169394     0.12343586
c     0.42831042     0.22784362     0.62343818
h     0.74348162     0.50846530     0.13492970
h     0.49153076     0.25651687     0.63492656
c     0.78799792     0.73395368     0.19957198
c     0.26603773     0.21201310     0.69956993
c     0.80197940     0.88681004     0.28146932
c     0.11318634     0.19801783     0.78146627
h     0.78783278     0.94487487     0.35146821
h     0.05512197     0.21217242     0.85146513
c     0.88090440     0.81847627     0.10524629
c     0.18151352     0.11909500     0.60524507
h     0.91812150     0.82719389     0.03449070
h     0.17280545     0.08188110     0.53448846
c     0.83183582     0.56423848     0.03032535
c     0.43574964     0.16815692     0.53032099
h     0.84843283     0.49355918     0.96782036
h     0.50644288     0.15156727     0.46781603
c     0.86029791     0.89404963     0.19319910
c     0.10595684     0.13970544     0.69319417
h     0.88815061     0.95884051     0.19560399
h     0.04116038     0.11184593     0.69560145
o     0.83755327     0.01245475     0.48421235
o     0.98754866     0.16244166     0.98421227
o     0.27311002     0.88733321     0.24044899
o     0.11266234     0.72689410     0.74044945
o     0.63184259     0.65611915     0.36623582
o     0.34388161     0.36815916     0.86623350
o     0.24129081     0.74330700     0.59777870
o     0.25668325     0.75871858     0.09777610
h     0.18621084     0.74234449     0.65473759
h     0.25765256     0.81379274     0.15473838
c     0.42765512     0.76326914     0.33642836
c     0.23673380     0.57233999     0.83642479
c     0.37072972     0.74215954     0.42525064
c     0.25787121     0.62922617     0.92525695
h     0.54535027     0.59380047     0.50542644
h     0.40619570     0.45465198     0.00542266
c     0.05156443     0.89079510     0.50055612
c     0.10921736     0.94842505     0.00056027
c     0.11455214     0.90249221     0.41165797
c     0.09746833     0.88549750     0.91164947
h     0.93672111     0.05272243     0.33203473
h     0.94728404     0.06327105     0.83203857

K_POINTS automatic
2 2 2 1 1 1

CELL_PARAMETERS cubic
   22.383822000000     0.135434000000     0.173896000000
   21.277152000000     6.952454000000    -0.173818000000
   -1.349189000000     8.310934000000    23.256479000000
