&control
 title='crystal',
 prefix='crystal',
 pseudo_dir='.',
 calculation='vc-relax',
/
&system
 ibrav=0,
 celldm(1)=1.0,
 nat=   112,
 ntyp=  4,
 ecutwfc=60.0,
 ecutrho=600.0,
 xdm=.true.,
 xdm_a1=0.4073,
 xdm_a2=2.4150,
/
&electrons
 conv_thr = 1d-8,
/
&ions
/
&cell
/
ATOMIC_SPECIES
h      1.007940 h.UPF
c     12.010700 c.UPF
n     14.006700 n.UPF
o     15.999400 o.UPF

ATOMIC_POSITIONS crystal
c     0.52919026     0.62753213     0.56526775
c     0.02918982     0.37246937     0.56526837
c     0.97081019     0.62753061     0.06526837
c     0.47080974     0.37246787     0.06526776
c     0.49144273     0.51429305     0.65480976
c     0.99144229     0.48570845     0.65481037
c     0.00855772     0.51429154     0.15481037
c     0.50855728     0.48570695     0.15480977
o     0.57515380     0.77299058     0.58286390
o     0.07515336     0.22701092     0.58286451
o     0.92484666     0.77298906     0.08286452
o     0.42484621     0.22700942     0.08286391
o     0.50879852     0.56230817     0.46649545
o     0.00879808     0.43769333     0.46649606
o     0.99120193     0.56230666     0.96649607
o     0.49120149     0.43769183     0.96649546
c     0.44421797     0.31930153     0.64006511
c     0.94421753     0.68069997     0.64006572
c     0.05578248     0.31930002     0.14006572
c     0.55578203     0.68069847     0.14006512
h     0.50471415     0.59977518     0.73529813
h     0.00471371     0.40022632     0.73529875
h     0.99528630     0.59977366     0.23529875
h     0.49528586     0.40022482     0.23529814
h     0.53694696     0.64600216     0.40844842
h     0.03694652     0.35399934     0.40844903
h     0.96305349     0.64600065     0.90844903
h     0.46305305     0.35399784     0.90844843
c     0.40393549     0.21596113     0.72796690
c     0.90393505     0.78404037     0.72796751
c     0.09606496     0.21595962     0.22796751
c     0.59606452     0.78403887     0.22796690
h     0.43227778     0.23679907     0.55863140
h     0.93227734     0.76320243     0.55863201
h     0.06772268     0.23679755     0.05863202
h     0.56772223     0.76320093     0.05863141
o     0.41849921     0.22736630     0.82617331
o     0.91849877     0.77263520     0.82617392
o     0.08150124     0.22736478     0.32617393
o     0.58150080     0.77263370     0.32617332
o     0.35495499     0.11887616     0.69551417
o     0.85495455     0.88112534     0.69551478
o     0.14504546     0.11887464     0.19551478
o     0.64504502     0.88112384     0.19551418
h     0.63189270     0.88806663     0.71681380
h     0.13189226     0.11193487     0.71681441
h     0.86810775     0.88806511     0.21681442
h     0.36810731     0.11193337     0.21681381
c     0.65508729     0.99041575     0.78687608
c     0.15508685     0.00958575     0.78687669
c     0.84491316     0.99041424     0.28687670
c     0.34491272     0.00958425     0.28687609
c     0.62445297     0.12088305     0.87703766
c     0.12445253     0.87911845     0.87703828
c     0.87554749     0.12088154     0.37703828
c     0.37554704     0.87911695     0.37703767
n     0.71108780     0.98492509     0.78082196
n     0.21108736     0.01507641     0.78082258
n     0.78891265     0.98492358     0.28082258
n     0.28891220     0.01507491     0.28082197
c     0.65347853     0.25391394     0.96492789
c     0.15347809     0.74608756     0.96492850
c     0.84652192     0.25391242     0.46492850
c     0.34652148     0.74608606     0.46492789
h     0.57854228     0.11538844     0.87601532
h     0.07854184     0.88461306     0.87601593
h     0.92145817     0.11538693     0.37601593
h     0.42145773     0.88461156     0.37601533
c     0.73931487     0.11915295     0.86685191
c     0.23931443     0.88084855     0.86685252
c     0.76068558     0.11915144     0.36685252
c     0.26068514     0.88084705     0.36685191
c     0.71304117     0.25925332     0.96173723
c     0.21304073     0.74074818     0.96173784
c     0.78695929     0.25925181     0.46173784
c     0.28695884     0.74074668     0.46173724
h     0.63247086     0.35297777     0.03718784
h     0.13247042     0.64702373     0.03718845
h     0.86752959     0.35297626     0.53718846
h     0.36752915     0.64702223     0.53718785
n     0.79699875     0.11566219     0.86156121
n     0.29699830     0.88433930     0.86156182
n     0.70300171     0.11566068     0.36156183
n     0.20300126     0.88433781     0.36156122
c     0.74707994     0.39530780     0.04665555
c     0.24707950     0.60469370     0.04665617
c     0.75292051     0.39530628     0.54665617
c     0.25292007     0.60469220     0.54665556
c     0.82894570     0.23931362     0.94234386
c     0.32894526     0.76068788     0.94234447
c     0.67105475     0.23931211     0.44234447
c     0.17105431     0.76068638     0.44234387
h     0.81874317     0.00576622     0.78939428
h     0.31874273     0.99423528     0.78939489
h     0.68125728     0.00576470     0.28939490
h     0.18125684     0.99423378     0.28939429
c     0.80492785     0.38535740     0.03638827
c     0.30492740     0.61464410     0.03638889
c     0.69507261     0.38535588     0.53638889
c     0.19507216     0.61464260     0.53638828
h     0.72695837     0.50814090     0.11851688
h     0.22695793     0.49186059     0.11851749
h     0.77304208     0.50813939     0.61851749
h     0.27304164     0.49185910     0.61851689
h     0.87414079     0.21304428     0.93057569
h     0.37414035     0.78695722     0.93057631
h     0.62585966     0.21304277     0.43057631
h     0.12585922     0.78695572     0.43057570
h     0.83287351     0.48710599     0.09886407
h     0.33287307     0.51289551     0.09886469
h     0.66712694     0.48710448     0.59886469
h     0.16712650     0.51289401     0.59886408

K_POINTS automatic
2 2 2 1 1 1

CELL_PARAMETERS cubic
   44.779577000000     0.000006000000     0.000000000000
    0.000001000000     6.907284000000     0.000000000000
    0.000000000000     0.000000000000    23.349602000000
