&control
 title='crystal',
 prefix='crystal',
 pseudo_dir='.',
 calculation='vc-relax',
/
&system
 ibrav=0,
 celldm(1)=1.0,
 nat=   112,
 ntyp=  4,
 ecutwfc=60.0,
 ecutrho=600.0,
 xdm=.true.,
 xdm_a1=0.4073,
 xdm_a2=2.4150,
/
&electrons
 conv_thr = 1d-8,
/
&ions
/
&cell
/
ATOMIC_SPECIES
h      1.007940 h.UPF
c     12.010700 c.UPF
n     14.006700 n.UPF
o     15.999400 o.UPF

ATOMIC_POSITIONS crystal
n     0.71040250     0.53015601     0.45568837
n     0.28959826     0.46983166     0.95569008
n     0.21040300     0.46984630     0.45568579
n     0.78959524     0.53015952     0.95568854
c     0.65438434     0.52287329     0.45000818
c     0.34561419     0.47712289     0.95000659
c     0.15438898     0.47714577     0.45000283
c     0.84561241     0.52285611     0.95000398
h     0.63125534     0.62523012     0.52006267
h     0.36874400     0.37475960     0.02006586
h     0.13125750     0.37478764     0.52006068
h     0.86874201     0.62521631     0.02006324
c     0.62371045     0.39027276     0.36027622
c     0.37629051     0.60971194     0.86028417
c     0.12371244     0.60974243     0.36027717
c     0.87628521     0.39026237     0.86028096
h     0.57778526     0.39389579     0.36159880
h     0.42221481     0.60609657     0.86160269
h     0.07778897     0.60613238     0.36159714
h     0.92221140     0.39387147     0.86159975
c     0.65270320     0.25781443     0.27240181
c     0.34729725     0.74218690     0.77239776
c     0.15270897     0.74220265     0.27239561
c     0.84729267     0.25779815     0.77239706
h     0.63162963     0.15712370     0.20050387
h     0.36837108     0.84286600     0.70050758
h     0.13163390     0.84289013     0.20050112
h     0.86836541     0.15711319     0.70050437
c     0.71229149     0.25490730     0.27514863
c     0.28770899     0.74508162     0.77515132
c     0.21229377     0.74509248     0.27514451
c     0.78770438     0.25491393     0.77514930
c     0.73858923     0.39618055     0.36970300
c     0.26140935     0.60381406     0.86969994
c     0.23859462     0.60381933     0.36969596
c     0.76140537     0.39618468     0.86969748
n     0.79628851     0.40112890     0.37474342
n     0.20371312     0.59885964     0.87474208
n     0.29629068     0.59885459     0.37473737
n     0.70371017     0.40115682     0.87474084
h     0.81799274     0.50957140     0.44700296
h     0.18200646     0.49042130     0.94700241
h     0.31799521     0.49041847     0.44699591
h     0.68200436     0.50959147     0.94699800
c     0.82824183     0.27838453     0.29396888
c     0.17175638     0.72160585     0.79396603
c     0.32824791     0.72158914     0.29396155
c     0.67175032     0.27842075     0.79396296
h     0.87344528     0.30571657     0.30553372
h     0.12655524     0.69427369     0.80553031
h     0.37344909     0.69424492     0.30552438
h     0.62655150     0.30576675     0.80552589
c     0.80420359     0.13188536     0.20014407
c     0.19579777     0.86810555     0.70014207
c     0.30420694     0.86809384     0.20013537
c     0.69579230     0.13191462     0.70013651
h     0.83211679     0.03102948     0.13756233
h     0.16788428     0.96896008     0.63755960
h     0.33212292     0.96893794     0.13755340
h     0.66787734     0.03107601     0.63755570
c     0.74633482     0.12002380     0.19018352
c     0.25366575     0.87996928     0.69018254
c     0.24634178     0.87996718     0.19017795
c     0.75365942     0.12003749     0.69017907
h     0.72617781     0.00659442     0.11854920
h     0.27382348     0.99339543     0.61854972
h     0.22618329     0.99339847     0.11854364
h     0.77381642     0.00661116     0.61854670
o     0.85418672     0.62829045     0.54148021
o     0.14581060     0.37170407     0.04147724
o     0.35418842     0.37171137     0.54147663
o     0.64581105     0.62829939     0.04147741
o     0.91741535     0.74661267     0.41119926
o     0.08258308     0.25338060     0.91118780
o     0.41741515     0.25336886     0.41119756
o     0.58258475     0.74663131     0.91119567
c     0.90315117     0.72672880     0.50930259
c     0.09685341     0.27327965     0.00931569
c     0.40315205     0.27326869     0.50929679
c     0.59684769     0.72673756     0.00929827
c     0.94375854     0.82169361     0.59740257
c     0.05624086     0.17830528     0.09740037
c     0.44375993     0.17831143     0.59739997
c     0.55624280     0.82168135     0.09740096
h     0.93180414     0.73530445     0.67835954
h     0.06819611     0.26470112     0.17835987
h     0.43180487     0.26471129     0.67835673
h     0.56819395     0.73529579     0.17835514
c     0.99124948     0.01445855     0.58334294
c     0.00875184     0.98554240     0.08334526
c     0.49124751     0.98554824     0.58334279
c     0.50874907     0.01447148     0.08333987
h     0.00448135     0.10333063     0.50326305
h     0.99551965     0.89666105     0.00326355
h     0.50448015     0.89665937     0.50326458
h     0.49552023     0.10334826     0.00326482
c     0.02936242     0.12090070     0.67294354
c     0.97064036     0.87910306     0.17294548
c     0.52936964     0.87907898     0.67294409
c     0.47062905     0.12092811     0.17294290
o     0.07547309     0.26469365     0.65556156
o     0.92452594     0.73529849     0.15556052
o     0.57546333     0.73532718     0.65556685
o     0.42453771     0.26467689     0.15556611
o     0.00911725     0.05179003     0.77146293
o     0.99088347     0.94820723     0.27146185
o     0.50911475     0.94823149     0.77146094
o     0.49088440     0.05176838     0.27146024
h     0.03750395     0.13183567     0.82948228
h     0.96249613     0.86815693     0.32948367
h     0.53750277     0.86818145     0.82948510
h     0.46249621     0.13181996     0.32948465

K_POINTS automatic
2 2 2 1 1 1

CELL_PARAMETERS cubic
   44.768178000000    -0.000111000000     0.000104000000
   -0.000019000000     6.909597000000    -0.000003000000
    0.000053000000    -0.000009000000    23.383200000000
