&control
 title='crystal',
 prefix='crystal',
 pseudo_dir='.',
 calculation='vc-relax',
/
&system
 ibrav=0,
 celldm(1)=1.0,
 nat=    56,
 ntyp=  4,
 ecutwfc=60.0,
 ecutrho=600.0,
 xdm=.true.,
 xdm_a1=0.4073,
 xdm_a2=2.4150,
/
&electrons
 conv_thr = 1d-8,
/
&ions
/
&cell
/
ATOMIC_SPECIES
h      1.007940 h.UPF
c     12.010700 c.UPF
n     14.006700 n.UPF
o     15.999400 o.UPF

ATOMIC_POSITIONS crystal
c     0.53545350     0.69361973     0.06390804
c     0.46454651     0.30638025     0.93609197
c     0.13672679     0.06879306     0.25398632
c     0.86327322     0.93120692     0.74601369
c     0.30622818     0.97180445     0.25310833
c     0.69377183     0.02819553     0.74689167
c     0.59798376     0.72903039     0.15129291
c     0.40201625     0.27096959     0.84870709
c     0.71358626     0.58995817     0.05590500
c     0.28641375     0.41004182     0.94409501
h     0.60853219     0.59361883     0.99649500
h     0.39146782     0.40638115     0.00350501
c     0.16838307     0.12697663     0.35652589
c     0.83161694     0.87302335     0.64347412
h     0.72638975     0.65375826     0.15256855
h     0.27361026     0.34624173     0.84743146
h     0.93671168     0.40260474     0.97540741
h     0.06328833     0.59739524     0.02459259
c     0.88286070     0.36022210     0.44954593
c     0.11713931     0.63977789     0.55045407
c     0.73554069     0.43713645     0.44067420
c     0.26445932     0.56286353     0.55932581
h     0.29144212     0.06012794     0.35834916
h     0.70855789     0.93987205     0.64165085
h     0.76872259     0.48554501     0.53031713
h     0.23127742     0.51445497     0.46968288
h     0.50782641     0.62023525     0.51669280
h     0.49217360     0.37976473     0.48330721
n     0.85678680     0.29699196     0.34561327
n     0.14321321     0.70300802     0.65438674
n     0.26084980     0.92264378     0.15838676
n     0.73915022     0.07735621     0.84161324
h     0.12373412     0.98693792     0.17264814
h     0.87626589     0.01306206     0.82735187
c     0.86753171     0.87700688     0.26250886
c     0.13246830     0.12299310     0.73749115
h     0.90932923     0.72089493     0.30830816
h     0.09067078     0.27910505     0.69169185
c     0.69409278     0.06969731     0.23387056
c     0.30590723     0.93030267     0.76612945
h     0.64931094     0.22745276     0.18889570
h     0.35068907     0.77254722     0.81110431
c     0.55593182     0.07627849     0.26365942
c     0.44406819     0.92372149     0.73634058
c     0.01849884     0.85809502     0.22874568
c     0.98150117     0.14190496     0.77125433
o     0.21601642     0.64864089     0.22934545
o     0.78398360     0.35135909     0.77065456
o     0.63116128     0.89215042     0.28263821
o     0.36883873     0.10784956     0.71736180
o     0.95017971     0.04609867     0.19739594
o     0.04982030     0.95390131     0.80260407
o     0.34258926     0.29341120     0.27083789
o     0.65741075     0.70658878     0.72916211
h     0.29223604     0.44093821     0.25474207
h     0.70776397     0.55906177     0.74525794

K_POINTS automatic
2 2 2 1 1 1

CELL_PARAMETERS cubic
   26.122484000000     0.720190000000     0.405945000000
   19.465036000000    10.936282000000     0.081056000000
   23.111635000000    -1.620849000000    13.498217000000
