&control
 title='crystal',
 prefix='crystal',
 pseudo_dir='.',
 calculation='vc-relax',
/
&system
 ibrav=0,
 celldm(1)=1.0,
 nat=    28,
 ntyp=  4,
 ecutwfc=60.0,
 ecutrho=600.0,
 xdm=.true.,
 xdm_a1=0.4073,
 xdm_a2=2.4150,
/
&electrons
 conv_thr = 1d-8,
/
&ions
/
&cell
/
ATOMIC_SPECIES
h      1.007940 h.UPF
c     12.010700 c.UPF
n     14.006700 n.UPF
o     15.999400 o.UPF

ATOMIC_POSITIONS crystal
c     0.96074594     0.80315983     0.12742619
c     0.08396468     0.69257032     0.22882946
o     0.83780180     0.71029780     0.04508506
o     0.98790370     0.01019389     0.13010864
c     0.03618149     0.48731433     0.24003195
h     0.21735750     0.78224356     0.29339420
h     0.08456435     0.07055362     0.20638642
c     0.17489255     0.36337343     0.33447324
h     0.90497209     0.40081258     0.17358197
o     0.25973295     0.45768892     0.42649996
o     0.20793324     0.16420316     0.31525773
h     0.72562847     0.96638218     0.92922177
c     0.62937761     0.08896345     0.87510926
c     0.49233620     0.28104096     0.92376974
c     0.64184837     0.05165929     0.75194146
c     0.36382869     0.43295244     0.85040007
h     0.48075816     0.31857094     0.01749642
c     0.50371066     0.21659781     0.68681699
c     0.78321831     0.86282008     0.69076826
n     0.36481030     0.40398665     0.73473183
h     0.25051937     0.58362550     0.89024241
n     0.50734348     0.18401188     0.56775971
c     0.78116367     0.83877072     0.57062122
h     0.89483458     0.73612731     0.73861883
c     0.63651609     0.00413560     0.51135331
h     0.39920430     0.30602778     0.51515058
h     0.89131340     0.69598229     0.52111233
h     0.61694384     0.99738291     0.41742936

K_POINTS automatic
2 2 2 1 1 1

CELL_PARAMETERS cubic
    6.933300000000    -0.034694000000     0.022021000000
    0.548555000000    12.033082000000     0.014635000000
    2.489775000000    -1.076137000000    21.472687000000
