&control
 title='crystal',
 prefix='crystal',
 pseudo_dir='.',
 calculation='vc-relax',
/
&system
 ibrav=0,
 celldm(1)=1.0,
 nat=   112,
 ntyp=  4,
 ecutwfc=60.0,
 ecutrho=600.0,
 xdm=.true.,
 xdm_a1=0.4073,
 xdm_a2=2.4150,
/
&electrons
 conv_thr = 1d-8,
/
&ions
/
&cell
/
ATOMIC_SPECIES
h      1.007940 h.UPF
c     12.010700 c.UPF
n     14.006700 n.UPF
o     15.999400 o.UPF

ATOMIC_POSITIONS crystal
h     0.31867256     0.49189962     0.70277795
h     0.68132742     0.50810046     0.20277795
h     0.81867211     0.50809934     0.70277748
h     0.18132787     0.49190073     0.20277748
n     0.29659387     0.38402083     0.77489491
n     0.70340611     0.61597924     0.27489491
n     0.79659337     0.61597932     0.77489506
n     0.20340662     0.38402075     0.27489506
c     0.23874981     0.38256133     0.77951954
c     0.76125017     0.61743875     0.27951954
c     0.73874936     0.61743828     0.77951909
c     0.26125062     0.38256179     0.27951909
c     0.21196364     0.24377188     0.87393320
c     0.78803634     0.75622819     0.37393320
c     0.71196325     0.75622978     0.87393450
c     0.28803673     0.24377030     0.37393450
n     0.21086828     0.51762723     0.69326400
n     0.78913170     0.48237284     0.19326400
n     0.71086711     0.48237478     0.69326491
n     0.28913287     0.51762529     0.19326491
o     0.85485524     0.38780086     0.60892685
o     0.14514475     0.61219922     0.10892685
o     0.35485494     0.61219676     0.60892607
o     0.64514504     0.38780332     0.10892607
o     0.07548098     0.73411079     0.49495645
o     0.92451900     0.26588929     0.99495645
o     0.57548126     0.26588237     0.49495743
o     0.42451872     0.73411770     0.99495743
o     0.91841948     0.27156715     0.73904220
o     0.08158051     0.72843292     0.23904220
o     0.41841841     0.72844501     0.73904237
o     0.58158157     0.27155506     0.23904237
o     0.00887253     0.94466528     0.37901517
o     0.99112746     0.05533479     0.87901517
o     0.50887360     0.05532891     0.37901532
o     0.49112638     0.94467117     0.87901532
h     0.03700913     0.85966626     0.32111163
h     0.96299086     0.14033381     0.82111163
h     0.53701012     0.14032539     0.32111210
h     0.46298986     0.85967468     0.82111210
c     0.15223807     0.25137796     0.87634936
c     0.84776191     0.74862211     0.37634936
c     0.65223798     0.74862402     0.87635019
c     0.34776200     0.25137605     0.37635019
h     0.13078623     0.15372535     0.94823068
h     0.86921376     0.84627473     0.44823068
h     0.63078617     0.84627800     0.94823235
h     0.36921381     0.15372207     0.44823235
c     0.30374960     0.11538984     0.94962377
c     0.69625038     0.88461023     0.44962377
c     0.80374937     0.88460769     0.94962393
c     0.19625061     0.11539238     0.44962393
h     0.33143374     0.01342847     0.01247340
h     0.66856624     0.98657161     0.51247340
h     0.83143394     0.98656665     0.01247297
h     0.16856604     0.01343342     0.51247297
c     0.02936709     0.87924499     0.47757306
c     0.97063289     0.12075509     0.97757306
c     0.52936759     0.12075007     0.47757385
c     0.47063239     0.87925001     0.97757385
c     0.24570908     0.10721163     0.95916607
c     0.75429090     0.89278845     0.45916607
c     0.74570954     0.89278675     0.95916626
c     0.25429045     0.10721332     0.45916626
h     0.22520512     0.99563010     0.03071707
h     0.77479486     0.00436997     0.53071707
h     0.72520529     0.00436929     0.03071798
h     0.27479469     0.99563078     0.53071798
c     0.15470664     0.51434993     0.69859836
c     0.84529334     0.48565015     0.19859836
c     0.65470631     0.48565253     0.69859930
c     0.34529367     0.51434754     0.19859930
h     0.13177857     0.61743828     0.62837337
h     0.86822142     0.38256180     0.12837337
h     0.63177748     0.38256447     0.62837472
h     0.36822250     0.61743560     0.12837472
c     0.32826615     0.25988235     0.85595185
c     0.67173383     0.74011772     0.35595185
c     0.82826606     0.74011504     0.85595100
c     0.17173392     0.25988503     0.35595100
h     0.37364273     0.28405177     0.84469646
h     0.62635725     0.71594830     0.34469646
h     0.87364229     0.71594469     0.84469541
h     0.12635769     0.28405538     0.34469541
c     0.99158146     0.99152929     0.56715709
c     0.00841852     0.00847078     0.06715709
c     0.49158156     0.00846933     0.56715711
c     0.50841842     0.99153074     0.06715711
h     0.00504843     0.90600649     0.64739704
h     0.99495156     0.09399358     0.14739704
h     0.50504825     0.09399229     0.64739727
h     0.49495173     0.90600778     0.14739727
c     0.90385463     0.28734062     0.64105730
c     0.09614535     0.71265945     0.14105730
c     0.40385405     0.71266351     0.64105617
c     0.59614593     0.28733656     0.14105617
c     0.94411343     0.18551086     0.55290818
c     0.05588655     0.81448921     0.05290818
c     0.44411324     0.81449039     0.55290809
c     0.55588674     0.18550968     0.05290809
h     0.93193566     0.26846247     0.47177630
h     0.06806432     0.73153760     0.97177630
h     0.43193571     0.73153812     0.47177592
h     0.56806427     0.26846195     0.97177592
c     0.12356976     0.38536462     0.78824302
c     0.87643022     0.61463545     0.28824302
c     0.62356898     0.61463977     0.78824514
c     0.37643100     0.38536030     0.28824514
h     0.07755625     0.39309376     0.78668089
h     0.92244373     0.60690632     0.28668089
h     0.57755562     0.60691107     0.78668286
h     0.42244436     0.39308900     0.28668286

K_POINTS automatic
2 2 2 1 1 1

CELL_PARAMETERS cubic
   44.663563000000     0.000022000000     0.000000000000
    0.000004000000     6.912920000000     0.000000000000
    0.000000000000     0.000000000000    23.390198000000
