&control
 title='crystal',
 prefix='crystal',
 pseudo_dir='.',
 calculation='vc-relax',
/
&system
 ibrav=0,
 celldm(1)=1.0,
 nat=    28,
 ntyp=  4,
 ecutwfc=60.0,
 ecutrho=600.0,
 xdm=.true.,
 xdm_a1=0.4073,
 xdm_a2=2.4150,
/
&electrons
 conv_thr = 1d-8,
/
&ions
/
&cell
/
ATOMIC_SPECIES
h      1.007940 h.UPF
c     12.010700 c.UPF
n     14.006700 n.UPF
o     15.999400 o.UPF

ATOMIC_POSITIONS crystal
n     0.16247269     0.31702436     0.02736578
n     0.17788324     0.12785403     0.86527447
c     0.06059683     0.31338821     0.13157143
c     0.87767630     0.12522671     0.18822132
c     0.80435676     0.93165970     0.13590063
c     0.85202720     0.73906689     0.96419508
c     0.96931964     0.75050852     0.85860234
c     0.12522747     0.94988330     0.80793245
c     0.08358775     0.12676218     0.97513271
c     0.90950663     0.92739825     0.02576439
h     0.24886636     0.27194612     0.81451956
h     0.12879527     0.46851196     0.17434262
h     0.79831109     0.13223441     0.27272801
h     0.66826005     0.78494905     0.17902415
h     0.70677246     0.58661901     0.00016778
h     0.93661324     0.60915828     0.81101798
h     0.20699878     0.97197836     0.72028927
c     0.83903523     0.34875628     0.62292075
c     0.72223147     0.36606710     0.47282434
c     0.89201623     0.49726902     0.39315110
c     0.25552189     0.66664804     0.42382823
o     0.61414741     0.23004827     0.67299394
o     0.16617720     0.45573961     0.69439241
o     0.34535850     0.76318025     0.32847420
o     0.47047489     0.70663971     0.54967211
h     0.34695217     0.59869438     0.61518947
h     0.45237986     0.25306340     0.42429881
h     0.74654323     0.48283675     0.28513064

K_POINTS automatic
2 2 2 1 1 1

CELL_PARAMETERS cubic
    8.428663000000    -0.168160000000    -0.740498000000
   -5.227209000000    11.955856000000     1.207891000000
   -5.486427000000    -1.747724000000    19.182464000000
