&control
 title='crystal',
 prefix='crystal',
 pseudo_dir='.',
 calculation='vc-relax',
/
&system
 ibrav=0,
 celldm(1)=1.0,
 nat=   112,
 ntyp=  4,
 ecutwfc=60.0,
 ecutrho=600.0,
 xdm=.true.,
 xdm_a1=0.4073,
 xdm_a2=2.4150,
/
&electrons
 conv_thr = 1d-8,
/
&ions
/
&cell
/
ATOMIC_SPECIES
h      1.007940 h.UPF
c     12.010700 c.UPF
n     14.006700 n.UPF
o     15.999400 o.UPF

ATOMIC_POSITIONS crystal
o     0.39835063     0.50927850     0.93325399
o     0.89835063     0.99072148     0.93325398
o     0.10164933     0.00927815     0.43325429
o     0.60164933     0.49072180     0.43325429
o     0.35229598     0.27976233     0.79314244
o     0.85229598     0.22023765     0.79314244
o     0.14770397     0.77976199     0.29314274
o     0.64770397     0.72023797     0.29314274
o     0.18714959     0.41704174     0.06877230
o     0.68714959     0.08295825     0.06877229
o     0.31285036     0.91704139     0.56877260
o     0.81285036     0.58295857     0.56877260
o     0.24196235     0.69312457     0.19413580
o     0.74196235     0.80687541     0.19413580
o     0.25803761     0.19312423     0.69413611
o     0.75803760     0.30687573     0.69413610
h     0.20170152     0.71687697     0.23542293
h     0.70170151     0.78312301     0.23542293
h     0.29829844     0.21687662     0.73542324
h     0.79829844     0.28312333     0.73542323
c     0.35273242     0.38767887     0.88761096
c     0.85273242     0.11232111     0.88761096
c     0.14726754     0.88767852     0.38761127
c     0.64726753     0.61232143     0.38761126
c     0.29581052     0.37727073     0.94664519
c     0.79581052     0.12272925     0.94664519
c     0.20418943     0.87727039     0.44664550
c     0.70418943     0.62272957     0.44664549
c     0.29043154     0.52429209     0.04166407
c     0.79043153     0.97570789     0.04166406
c     0.20956842     0.02429175     0.54166437
c     0.70956842     0.47570821     0.54166437
c     0.23434012     0.53620196     0.10164342
c     0.73434012     0.96379802     0.10164342
c     0.26565984     0.03620162     0.60164373
c     0.76565983     0.46379834     0.60164372
h     0.25783016     0.25470571     0.90823042
h     0.75783016     0.24529427     0.90823042
h     0.24216979     0.75470537     0.40823073
h     0.74216979     0.74529459     0.40823072
h     0.32922254     0.64483770     0.07771870
h     0.82922253     0.85516228     0.07771870
h     0.17077742     0.14483736     0.57771900
h     0.67077742     0.35516260     0.57771900
c     0.36755611     0.15762811     0.24698312
c     0.86755610     0.34237188     0.24698311
c     0.13244385     0.65762776     0.74698342
c     0.63244385     0.84237220     0.74698342
c     0.42865570     0.16355917     0.22466388
c     0.92865570     0.33644082     0.22466388
c     0.07134425     0.66355882     0.72466419
c     0.57134425     0.83644114     0.72466418
c     0.46630601     0.30004700     0.30462786
c     0.96630601     0.19995299     0.30462786
c     0.03369395     0.80004665     0.80462817
c     0.53369395     0.69995330     0.80462816
c     0.38964684     0.41856896     0.41454197
c     0.88964684     0.08143103     0.41454196
c     0.11035311     0.91856861     0.91454227
c     0.61035311     0.58143135     0.91454227
c     0.34821537     0.28540099     0.34164820
c     0.84821537     0.21459900     0.34164820
c     0.15178458     0.78540064     0.84164850
c     0.65178458     0.71459932     0.84164850
c     0.54966641     0.19813613     0.19796481
c     0.04966641     0.30186386     0.19796481
c     0.95033355     0.69813578     0.69796512
c     0.45033354     0.80186417     0.69796511
c     0.51441577     0.06373371     0.11688506
c     0.01441576     0.43626628     0.11688505
c     0.98558419     0.56373336     0.61688536
c     0.48558419     0.93626659     0.61688536
c     0.45410893     0.04410512     0.12986989
c     0.95410893     0.45589487     0.12986989
c     0.04589102     0.54410477     0.62987020
c     0.54589102     0.95589519     0.62987019
h     0.33642916     0.05153362     0.19016843
h     0.83642916     0.44846636     0.19016843
h     0.16357079     0.55153328     0.69016874
h     0.66357079     0.94846668     0.69016873
h     0.37407602     0.52307106     0.48917424
h     0.87407602     0.97692893     0.48917423
h     0.12592393     0.02307071     0.98917454
h     0.62592393     0.47692925     0.98917454
h     0.30168464     0.28382658     0.36141962
h     0.80168464     0.21617341     0.36141961
h     0.19831531     0.78382623     0.86141992
h     0.69831531     0.71617372     0.86141992
h     0.59739230     0.21786313     0.19227590
h     0.09739229     0.28213686     0.19227589
h     0.90260766     0.71786278     0.69227620
h     0.40260766     0.78213718     0.69227620
h     0.53480311     0.97546009     0.04461349
h     0.03480311     0.52453990     0.04461348
h     0.96519685     0.47545974     0.54461379
h     0.46519685     0.02454022     0.54461379
h     0.42632588     0.93805142     0.06736062
h     0.92632588     0.56194856     0.06736062
h     0.07367408     0.43805108     0.56736093
h     0.57367407     0.06194888     0.56736092
n     0.44739237     0.42636533     0.39762417
n     0.94739237     0.07363465     0.39762416
n     0.05260758     0.92636498     0.89762447
n     0.55260758     0.57363497     0.89762447
n     0.52580876     0.30843069     0.28762606
n     0.02580876     0.19156930     0.28762605
n     0.97419120     0.80843034     0.78762636
n     0.47419119     0.69156961     0.78762636
h     0.55501219     0.40336995     0.35046722
h     0.05501219     0.09663003     0.35046721
h     0.94498777     0.90336960     0.85046752
h     0.44498776     0.59663035     0.85046752

K_POINTS automatic
2 2 2 1 1 1

CELL_PARAMETERS cubic
   42.851148000000     0.000000000000     0.000011000000
    0.000000000000     6.925591000000     0.000000000000
    0.000006000000     0.000000000000    24.211264000000
