&control
 title='crystal',
 prefix='crystal',
 pseudo_dir='.',
 calculation='vc-relax',
/
&system
 ibrav=0,
 celldm(1)=1.0,
 nat=    56,
 ntyp=  4,
 ecutwfc=60.0,
 ecutrho=600.0,
 xdm=.true.,
 xdm_a1=0.4073,
 xdm_a2=2.4150,
/
&electrons
 conv_thr = 1d-8,
/
&ions
/
&cell
/
ATOMIC_SPECIES
h      1.007940 h.UPF
c     12.010700 c.UPF
n     14.006700 n.UPF
o     15.999400 o.UPF

ATOMIC_POSITIONS crystal
n     0.06862078     0.41603340     0.39372322
n     0.93137926     0.58396661     0.60627679
n     0.17914243     0.45304924     0.22775091
n     0.82085761     0.54695077     0.77224910
c     0.43578923     0.17242729     0.40214855
c     0.56421080     0.82757272     0.59785146
c     0.41204564     0.25426184     0.31239819
c     0.58795439     0.74573817     0.68760182
c     0.21954406     0.37410666     0.31371753
c     0.78045598     0.62589335     0.68628248
c     0.09926252     0.33639185     0.47630323
c     0.90073752     0.66360816     0.52369678
c     0.27556691     0.21330938     0.48400376
c     0.72443313     0.78669063     0.51599625
c     0.31764574     0.42303718     0.14357891
c     0.68235430     0.57696283     0.85642110
c     0.52004398     0.30841156     0.13897096
c     0.47995605     0.69158845     0.86102905
c     0.56486660     0.22376390     0.22315002
c     0.43513343     0.77623611     0.77684999
o     0.75871112     0.66738131     0.21067256
o     0.24128891     0.33261870     0.78932745
o     0.35794832     0.78726644     0.31825354
o     0.64205172     0.21273357     0.68174646
o     0.89894006     0.67395818     0.05183635
o     0.10105998     0.32604182     0.94816366
o     0.03032985     0.97104506     0.29918358
o     0.96967018     0.02895495     0.70081642
c     0.34358248     0.91675522     0.15831317
c     0.65641755     0.08324478     0.84168684
c     0.74826865     0.72078108     0.12150973
c     0.25173139     0.27921893     0.87849028
c     0.54755923     0.84762372     0.09990722
c     0.45244080     0.15237629     0.90009279
c     0.23635996     0.89177209     0.26442249
c     0.76364008     0.10822792     0.73557752
h     0.97933720     0.37036469     0.54130779
h     0.02066283     0.62963532     0.45869222
h     0.28013667     0.15422030     0.55483833
h     0.71986337     0.84577971     0.44516168
h     0.58110245     0.08006157     0.40340810
h     0.41889759     0.91993844     0.59659191
h     0.71994183     0.13310981     0.22350978
h     0.28005821     0.86689020     0.77649022
h     0.63931293     0.28942709     0.06928768
h     0.36068711     0.71057292     0.93071233
h     0.25708212     0.49309047     0.08095013
h     0.74291792     0.50690954     0.91904988
h     0.01851796     0.54035488     0.22717945
h     0.98148208     0.45964513     0.77282055
h     0.53236876     0.73292020     0.27597439
h     0.46763128     0.26707981     0.72402562
h     0.22152318     0.00752905     0.12505015
h     0.77847686     0.99247095     0.87494985
h     0.57602130     0.88685502     0.02315830
h     0.42397874     0.11314499     0.97684171

K_POINTS automatic
2 2 2 1 1 1

CELL_PARAMETERS cubic
    7.127830000000    -0.143546000000     0.043755000000
    1.652903000000    19.904620000000     0.146614000000
    3.118402000000     4.397067000000    26.321446000000
