&control
 title='crystal',
 prefix='crystal',
 pseudo_dir='.',
 calculation='vc-relax',
/
&system
 ibrav=0,
 celldm(1)=1.0,
 nat=   112,
 ntyp=  4,
 ecutwfc=60.0,
 ecutrho=600.0,
 xdm=.true.,
 xdm_a1=0.4073,
 xdm_a2=2.4150,
/
&electrons
 conv_thr = 1d-8,
/
&ions
/
&cell
/
ATOMIC_SPECIES
h      1.007940 h.UPF
c     12.010700 c.UPF
n     14.006700 n.UPF
o     15.999400 o.UPF

ATOMIC_POSITIONS crystal
n     0.95977795     0.82035585     0.15098328
n     0.04022205     0.17964416     0.65098328
n     0.45977674     0.17964729     0.15098128
n     0.54022326     0.82035272     0.65098128
h     0.93285756     0.92269791     0.21995918
h     0.06714244     0.07730210     0.71995918
h     0.43285683     0.07730183     0.21995869
h     0.56714317     0.92269818     0.71995869
c     0.02137247     0.53711435     0.97407245
c     0.97862753     0.46288566     0.47407245
c     0.52137257     0.46288365     0.97407309
c     0.47862743     0.53711637     0.47407309
h     0.04632888     0.42466899     0.90568292
h     0.95367112     0.57533103     0.40568292
h     0.54632842     0.57533066     0.90568277
h     0.45367158     0.42466935     0.40568277
c     0.05051350     0.70919221     0.06228020
c     0.94948650     0.29080780     0.56228020
c     0.55051229     0.29080928     0.06228020
c     0.44948771     0.70919073     0.56228020
n     0.04170405     0.02300121     0.24069532
n     0.95829595     0.97699881     0.74069532
n     0.54170496     0.97699593     0.24069707
n     0.45829504     0.02300408     0.74069707
c     0.93238136     0.65915535     0.06729847
c     0.06761864     0.34084466     0.56729847
c     0.43238217     0.34084378     0.06729967
c     0.56761783     0.65915624     0.56729967
h     0.88582813     0.64894517     0.07357518
h     0.11417187     0.35105484     0.57357518
h     0.38582720     0.35105501     0.07357530
h     0.61417280     0.64894500     0.57357530
c     0.01828646     0.85251526     0.15260223
c     0.98171354     0.14748476     0.65260223
c     0.51828564     0.14748774     0.15260167
c     0.48171436     0.85251227     0.65260167
c     0.09855085     0.05288564     0.24160625
c     0.90144915     0.94711438     0.74160625
c     0.59854892     0.94712067     0.24160428
c     0.40145108     0.05287934     0.74160428
h     0.11725992     0.19321634     0.31250195
h     0.88274008     0.80678368     0.81250195
h     0.61725971     0.80678522     0.31250370
h     0.38274029     0.19321479     0.81250370
c     0.11090143     0.74566744     0.06747411
c     0.88909857     0.25433257     0.56747411
c     0.61090117     0.25433858     0.06747017
c     0.38909883     0.74566143     0.56747017
h     0.13680835     0.63826699     0.00008752
h     0.86319165     0.36173302     0.50008752
h     0.63680742     0.36173040     0.00008904
h     0.36319258     0.63826962     0.50008904
c     0.96229145     0.51283515     0.97705552
c     0.03770855     0.48716487     0.47705552
c     0.46229060     0.48716333     0.97705647
c     0.53770940     0.51283668     0.47705647
h     0.93830951     0.38003241     0.91175074
h     0.06169049     0.61996760     0.41175074
h     0.43830901     0.61996777     0.91175105
h     0.56169099     0.38003224     0.41175105
c     0.13497315     0.91729555     0.15726009
c     0.86502685     0.08270446     0.65726009
c     0.63497329     0.08269836     0.15726467
c     0.36502671     0.91730166     0.65726467
h     0.18125647     0.95009107     0.16428639
h     0.81874353     0.04990895     0.66428639
h     0.68125596     0.04991063     0.16428682
h     0.31874404     0.95008938     0.66428682
o     0.66513975     0.36225605     0.41939866
o     0.33486025     0.63774396     0.91939866
o     0.16514245     0.63774393     0.41940068
o     0.83485755     0.36225608     0.91940068
o     0.88979883     0.98267641     0.31009894
o     0.11020117     0.01732360     0.81009894
o     0.38979811     0.01732537     0.31009928
o     0.61020189     0.98267464     0.81009928
o     0.81737935     0.02776699     0.18491638
o     0.18262065     0.97223302     0.68491638
o     0.31737839     0.97223942     0.18491735
o     0.68262161     0.02776060     0.68491735
o     0.74094489     0.41611555     0.53620828
o     0.25905511     0.58388446     0.03620828
o     0.24094426     0.58388644     0.53620815
o     0.75905574     0.41611357     0.03620815
h     0.71497363     0.28615990     0.58988813
h     0.28502637     0.71384012     0.08988813
h     0.21497241     0.71383917     0.58988800
h     0.78502759     0.28616084     0.08988800
c     0.83701109     0.95835905     0.28011627
c     0.16298891     0.04164096     0.78011627
c     0.33700900     0.04163690     0.28011177
c     0.66299100     0.95836311     0.78011177
c     0.79875370     0.81390681     0.37017909
c     0.20124630     0.18609320     0.87017909
c     0.29875513     0.18608597     0.37017982
c     0.70124487     0.81391404     0.87017982
h     0.81434375     0.84160270     0.45518427
h     0.18565625     0.15839731     0.95518427
h     0.31434282     0.15839567     0.45518270
h     0.68565718     0.84160435     0.95518270
c     0.71470218     0.46045741     0.43790090
c     0.28529782     0.53954260     0.93790090
c     0.21469778     0.53954763     0.43789912
c     0.78530222     0.46045239     0.93789912
c     0.75012594     0.63263542     0.35070390
c     0.24987406     0.36736459     0.85070390
c     0.25012474     0.36737093     0.35070003
c     0.74987526     0.63262908     0.85070003
h     0.73403044     0.60414960     0.26598548
h     0.26596956     0.39585041     0.76598548
h     0.23402986     0.39585594     0.26598506
h     0.76597014     0.60414407     0.76598506

K_POINTS automatic
2 2 2 1 1 1

CELL_PARAMETERS cubic
   43.977525000000    -0.000035000000     0.000000000000
   -0.000002000000     7.052532000000     0.000000000000
    0.000000000000     0.000000000000    22.669028000000
