&control
 title='crystal',
 prefix='crystal',
 pseudo_dir='.',
 calculation='vc-relax',
/
&system
 ibrav=0,
 celldm(1)=1.0,
 nat=    56,
 ntyp=  4,
 ecutwfc=60.0,
 ecutrho=600.0,
 xdm=.true.,
 xdm_a1=0.4073,
 xdm_a2=2.4150,
/
&electrons
 conv_thr = 1d-8,
/
&ions
/
&cell
/
ATOMIC_SPECIES
h      1.007940 h.UPF
c     12.010700 c.UPF
n     14.006700 n.UPF
o     15.999400 o.UPF

ATOMIC_POSITIONS crystal
c     0.73271606     0.42308419     0.67605802
c     0.26728394     0.57691576     0.32394200
c     0.81295009     0.27038159     0.59665134
c     0.18704991     0.72961836     0.40334868
c     0.83325099     0.29668645     0.47611057
c     0.16674901     0.70331351     0.52388945
c     0.78329996     0.51623941     0.31481588
c     0.21670004     0.48376054     0.68518414
c     0.72006244     0.69697132     0.28625149
c     0.27993757     0.30302864     0.71374853
c     0.64716265     0.83780845     0.37699588
c     0.35283735     0.16219150     0.62300414
c     0.69603718     0.62901019     0.51893861
c     0.30396283     0.37098976     0.48106141
c     0.77383689     0.47682198     0.43499454
c     0.22616311     0.52317797     0.56500548
h     0.60552039     0.70271582     0.70463304
h     0.39447961     0.29728413     0.29536698
h     0.70904272     0.41042044     0.77250655
h     0.29095729     0.58957951     0.22749347
h     0.85537419     0.13472168     0.63345502
h     0.14462581     0.86527827     0.36654500
h     0.89426661     0.18161500     0.41087093
h     0.10573339     0.81838496     0.58912909
h     0.84158396     0.40415319     0.24767433
h     0.15841604     0.59584677     0.75232569
h     0.72338571     0.73216880     0.19551876
h     0.27661429     0.26783116     0.80448126
h     0.59447659     0.98045918     0.35592510
h     0.40552341     0.01954077     0.64407492
n     0.67861333     0.59425865     0.63742631
n     0.32138667     0.40574130     0.36257371
n     0.63419940     0.80629713     0.49106656
n     0.36580060     0.19370282     0.50893346
c     0.37989543     0.72658498     0.90526071
c     0.62010457     0.27341497     0.09473931
c     0.25484974     0.83015704     0.01486448
c     0.74515027     0.16984291     0.98513554
c     0.15623034     0.13198638     0.13692341
c     0.84376966     0.86801357     0.86307661
c     0.27623442     0.03544684     0.02346796
c     0.72376558     0.96455312     0.97653206
h     0.25383709     0.41463892     0.03585463
h     0.74616291     0.58536103     0.96414539
h     0.14670937     0.73053157     0.09260702
h     0.85329063     0.26946838     0.90739300
h     0.38417074     0.13631552     0.94645447
h     0.61582927     0.86368443     0.05354555
o     0.16345332     0.33952692     0.12583269
o     0.83654668     0.66047303     0.87416733
o     0.37189523     0.52640120     0.91811569
o     0.62810477     0.47359875     0.08188433
o     0.48927529     0.83911411     0.80690413
o     0.51072472     0.16088585     0.19309589
o     0.05457293     0.02762410     0.23588387
o     0.94542707     0.97237585     0.76411615

K_POINTS automatic
2 2 2 1 1 1

CELL_PARAMETERS cubic
   15.133971000000     0.971489000000    -0.772808000000
   -1.472766000000    12.050849000000    -0.385275000000
   10.623119000000     3.538588000000    19.728994000000
