&control
 title='crystal',
 prefix='crystal',
 pseudo_dir='.',
 calculation='vc-relax',
/
&system
 ibrav=0,
 celldm(1)=1.0,
 nat=   112,
 ntyp=  4,
 ecutwfc=60.0,
 ecutrho=600.0,
 xdm=.true.,
 xdm_a1=0.4073,
 xdm_a2=2.4150,
/
&electrons
 conv_thr = 1d-8,
/
&ions
/
&cell
/
ATOMIC_SPECIES
h      1.007940 h.UPF
c     12.010700 c.UPF
n     14.006700 n.UPF
o     15.999400 o.UPF

ATOMIC_POSITIONS crystal
c     0.74877107     0.44837442     0.20739303
c     0.24877107     0.05162554     0.20739303
c     0.75122893     0.94837439     0.70739303
c     0.25122893     0.55162551     0.70739303
o     0.69709749     0.52071374     0.21047618
o     0.19709749     0.97928622     0.21047618
o     0.80290251     0.02071371     0.71047618
o     0.30290251     0.47928619     0.71047618
o     0.77127046     0.28958171     0.28837549
o     0.27127046     0.21041825     0.28837549
o     0.72872954     0.78958168     0.78837549
o     0.22872954     0.71041822     0.78837549
c     0.77621367     0.57694839     0.09705284
c     0.27621367     0.92305157     0.09705284
c     0.72378633     0.07694837     0.59705284
c     0.22378633     0.42305154     0.59705284
c     0.82844084     0.52840862     0.09072257
c     0.32844085     0.97159134     0.09072257
c     0.67155915     0.02840859     0.59072257
c     0.17155915     0.47159131     0.59072257
h     0.75391569     0.70575714     0.02608765
h     0.25391569     0.79424282     0.02608765
h     0.74608431     0.20575711     0.52608765
h     0.24608431     0.29424279     0.52608765
h     0.84653265     0.39675419     0.16702381
h     0.34653265     0.10324577     0.16702381
h     0.65346735     0.89675416     0.66702381
h     0.15346735     0.60324574     0.66702381
c     0.86770005     0.63779862     0.99724215
c     0.36770006     0.86220134     0.99724215
c     0.63229994     0.13779859     0.49724215
c     0.13229994     0.36220131     0.49724215
o     0.85509923     0.75659522     0.89608508
o     0.35509923     0.74340474     0.89608508
o     0.64490077     0.25659520     0.39608508
o     0.14490077     0.24340471     0.39608508
o     0.91530805     0.59474168     0.03484082
o     0.41530805     0.90525828     0.03484082
o     0.58469195     0.09474165     0.53484082
o     0.08469195     0.40525826     0.53484082
h     0.68206120     0.41979098     0.28724416
h     0.18206120     0.08020898     0.28724416
h     0.81793880     0.91979095     0.78724416
h     0.31793880     0.58020895     0.78724416
h     0.12653704     0.62970851     0.11261023
h     0.62653704     0.87029145     0.11261023
h     0.37346296     0.12970848     0.61261023
h     0.87346296     0.37029143     0.61261023
c     0.11140386     0.49662476     0.03310965
c     0.61140386     0.00337520     0.03310965
c     0.38859613     0.99662474     0.53310965
c     0.88859614     0.50337517     0.53310965
c     0.14708935     0.33157480     0.95433714
c     0.64708935     0.16842516     0.95433714
c     0.35291065     0.83157477     0.45433714
c     0.85291065     0.66842513     0.45433714
c     0.04071538     0.33560687     0.91899473
c     0.54071538     0.16439309     0.91899473
c     0.45928462     0.83560685     0.41899473
c     0.95928462     0.66439306     0.41899473
c     0.12790961     0.16034176     0.85490197
c     0.62790961     0.33965820     0.85490197
c     0.37209039     0.66034174     0.35490197
c     0.87209039     0.83965817     0.35490197
h     0.18914261     0.34028438     0.97238347
h     0.68914261     0.15971558     0.97238347
h     0.31085739     0.84028435     0.47238347
h     0.81085739     0.65971556     0.47238347
c     0.07288126     0.15779783     0.83401835
c     0.57288126     0.34220213     0.83401835
c     0.42711874     0.65779780     0.33401835
c     0.92711874     0.84220210     0.33401835
h     0.15467555     0.02327216     0.79488520
h     0.65467555     0.47672780     0.79488520
h     0.34532445     0.52327213     0.29488520
h     0.84532445     0.97672777     0.29488520
c     0.04831638     0.98683077     0.73632272
c     0.54831638     0.51316919     0.73632272
c     0.45168361     0.48683074     0.23632272
c     0.95168362     0.01316916     0.23632272
c     0.96440394     0.17533788     0.81071660
c     0.46440394     0.32466208     0.81071660
c     0.53559606     0.67533785     0.31071660
c     0.03559606     0.82466205     0.31071660
c     0.99415948     0.99545357     0.72534825
c     0.49415948     0.50454639     0.72534825
c     0.50584052     0.49545354     0.22534825
c     0.00584052     0.00454636     0.22534825
h     0.07164104     0.84273026     0.67088407
h     0.57164104     0.65726970     0.67088407
h     0.42835896     0.34273023     0.17088407
h     0.92835896     0.15726967     0.17088407
h     0.92152188     0.18770258     0.80864312
h     0.42152188     0.31229738     0.80864312
h     0.57847812     0.68770255     0.30864312
h     0.07847812     0.81229735     0.30864312
h     0.97423107     0.86057507     0.65279370
h     0.47423107     0.63942489     0.65279370
h     0.52576892     0.36057504     0.15279370
h     0.02576893     0.13942486     0.15279370
n     0.05945030     0.50188027     0.01696502
n     0.55945030     0.99811969     0.01696502
n     0.44054969     0.00188024     0.51696502
n     0.94054970     0.49811966     0.51696502
n     0.98725280     0.33775451     0.90271940
n     0.48725280     0.16224545     0.90271940
n     0.51274720     0.83775448     0.40271940
n     0.01274720     0.66224542     0.40271940
h     0.95992663     0.47838635     0.96299249
h     0.45992663     0.02161361     0.96299249
h     0.54007336     0.97838632     0.46299249
h     0.04007337     0.52161358     0.46299249

K_POINTS automatic
2 2 2 1 1 1

CELL_PARAMETERS cubic
   47.900132000000     0.000000000000     0.000000000000
    0.000000000000     7.277623000000     0.000000000000
    0.000000000000     0.000000000000    20.984389000000
