&control
 title='crystal',
 prefix='crystal',
 pseudo_dir='.',
 calculation='vc-relax',
/
&system
 ibrav=0,
 celldm(1)=1.0,
 nat=    28,
 ntyp=  4,
 ecutwfc=60.0,
 ecutrho=600.0,
 xdm=.true.,
 xdm_a1=0.4073,
 xdm_a2=2.4150,
/
&electrons
 conv_thr = 1d-8,
/
&ions
/
&cell
/
ATOMIC_SPECIES
h      1.007940 h.UPF
c     12.010700 c.UPF
n     14.006700 n.UPF
o     15.999400 o.UPF

ATOMIC_POSITIONS crystal
n     0.41292273     0.39282271     0.93771127
n     0.48590078     0.66751444     0.06804523
c     0.49975340     0.29301850     0.81593679
c     0.74741937     0.34068130     0.69978433
c     0.88648880     0.89121951     0.98502716
c     0.63154265     0.82998930     0.08735677
c     0.91624832     0.50062189     0.71093909
c     0.98788552     0.78400986     0.86028534
c     0.57697843     0.55228090     0.94667206
c     0.83345635     0.61352543     0.83770828
o     0.98250816     0.52290340     0.30444211
o     0.82100715     0.24283347     0.22090228
o     0.55581446     0.94890918     0.56318591
o     0.50807232     0.71573440     0.40965471
c     0.96159364     0.29554543     0.28609623
c     0.12391883     0.08385825     0.34695677
c     0.28481125     0.12128610     0.41677251
c     0.46257251     0.92289145     0.47010869
h     0.36659702     0.16618815     0.80670395
h     0.79758387     0.24989781     0.60482837
h     0.54404148     0.91139918     0.18617655
h     0.99195547     0.02510412     0.00950781
h     0.10972296     0.54325062     0.62375174
h     0.18400978     0.83051155     0.77633301
h     0.29919760     0.61883794     0.15010893
h     0.70196060     0.63790196     0.38286774
h     0.10479145     0.89514950     0.33064598
h     0.29470630     0.31062418     0.43522074

K_POINTS automatic
2 2 2 1 1 1

CELL_PARAMETERS cubic
   10.139555000000    -0.060931000000     0.898717000000
    1.295495000000    10.108012000000     0.103482000000
    5.276841000000     3.507116000000    17.408599000000
