&control
 title='crystal',
 prefix='crystal',
 pseudo_dir='.',
 calculation='vc-relax',
/
&system
 ibrav=0,
 celldm(1)=1.0,
 nat=    56,
 ntyp=  4,
 ecutwfc=60.0,
 ecutrho=600.0,
 xdm=.true.,
 xdm_a1=0.4073,
 xdm_a2=2.4150,
/
&electrons
 conv_thr = 1d-8,
/
&ions
/
&cell
/
ATOMIC_SPECIES
h      1.007940 h.UPF
c     12.010700 c.UPF
n     14.006700 n.UPF
o     15.999400 o.UPF

ATOMIC_POSITIONS crystal
n     0.14193961     0.90433057     0.33586462
n     0.14193959     0.09566942     0.83586462
c     0.14908854     0.79277254     0.33393218
c     0.14908853     0.20722746     0.83393218
h     0.27371911     0.75368205     0.26211907
h     0.27371910     0.24631795     0.76211906
c     0.00898080     0.72368911     0.41852861
c     0.00898079     0.27631089     0.91852860
h     0.02875394     0.63279601     0.41151672
h     0.02875393     0.36720398     0.91151672
c     0.85241339     0.77324935     0.50891738
c     0.85241338     0.22675065     0.00891738
h     0.73992324     0.72402123     0.57608161
h     0.73992322     0.27597877     0.07608160
c     0.83813742     0.89186707     0.51489495
c     0.83813741     0.10813292     0.01489494
c     0.98779536     0.95262713     0.42484216
c     0.98779534     0.04737287     0.92484215
n     0.98113944     0.06754496     0.42787906
n     0.98113943     0.93245503     0.92787906
h     0.08840662     0.11757261     0.35870634
h     0.08840661     0.88242739     0.85870634
c     0.84453978     0.12396141     0.51310924
c     0.84453977     0.87603858     0.01310924
h     0.85632511     0.21508037     0.50854109
h     0.85632509     0.78491963     0.00854109
c     0.69215216     0.06765563     0.60307143
c     0.69215215     0.93234436     0.10307142
h     0.58038729     0.11594618     0.67059673
h     0.58038728     0.88405382     0.17059673
c     0.68648483     0.95184178     0.60414947
c     0.68648481     0.04815821     0.10414947
h     0.56564373     0.90549397     0.67227773
h     0.56564371     0.09450603     0.17227772
o     0.18547472     0.19991689     0.26888943
o     0.18547471     0.80008311     0.76888943
o     0.37976126     0.31272974     0.40540858
o     0.37976124     0.68727025     0.90540857
c     0.30421811     0.29373949     0.30536825
c     0.30421809     0.70626051     0.80536825
c     0.35210833     0.38158767     0.21830335
c     0.35210831     0.61841233     0.71830335
h     0.23232621     0.36191157     0.13855171
h     0.23232619     0.63808842     0.63855171
c     0.53564566     0.47776628     0.22962399
c     0.53564564     0.52223372     0.72962399
h     0.65915367     0.50128798     0.30796117
h     0.65915366     0.49871201     0.80796116
c     0.57250541     0.56093679     0.13883262
c     0.57250539     0.43906321     0.63883262
o     0.69547410     0.65548649     0.15599148
o     0.69547409     0.34451351     0.65599148
o     0.45835243     0.52424456     0.04075228
o     0.45835241     0.47575544     0.54075227
h     0.44791864     0.58872886     0.98394840
h     0.44791862     0.41127113     0.48394840

K_POINTS automatic
2 2 2 1 1 1

CELL_PARAMETERS cubic
    7.022961000000     0.000000000000     0.155578000000
    0.000000000000    22.476400000000     0.000000000000
   -0.572646000000     0.000000000000    22.857240000000
