&control
 title='crystal',
 prefix='crystal',
 pseudo_dir='.',
 calculation='vc-relax',
/
&system
 ibrav=0,
 celldm(1)=1.0,
 nat=    56,
 ntyp=  4,
 ecutwfc=60.0,
 ecutrho=600.0,
 xdm=.true.,
 xdm_a1=0.4073,
 xdm_a2=2.4150,
/
&electrons
 conv_thr = 1d-8,
/
&ions
/
&cell
/
ATOMIC_SPECIES
h      1.007940 h.UPF
c     12.010700 c.UPF
n     14.006700 n.UPF
o     15.999400 o.UPF

ATOMIC_POSITIONS crystal
o     0.73089258     0.69601096     0.93661125
o     0.73089255     0.30398902     0.43661125
o     0.54076613     0.78571718     0.78390400
o     0.54076610     0.21428281     0.28390400
o     0.35697080     0.09753543     0.05805181
o     0.35697077     0.90246455     0.55805181
o     0.36027875     0.01876935     0.19812635
o     0.36027872     0.98123064     0.69812635
h     0.45753646     0.10047477     0.23198762
h     0.45753643     0.89952522     0.73198762
c     0.73408266     0.78227172     0.88480837
c     0.73408263     0.21772826     0.38480837
c     0.96882780     0.88772209     0.94442277
c     0.96882777     0.11227790     0.44442277
c     0.07716508     0.90854992     0.04423327
c     0.07716505     0.09145006     0.54423327
c     0.27869471     0.01803662     0.09954082
c     0.27869468     0.98196337     0.59954082
h     0.03237473     0.95210212     0.90131612
h     0.03237470     0.04789786     0.40131612
h     0.00615195     0.84547420     0.08678848
h     0.00615192     0.15452579     0.58678848
c     0.04084197     0.23178251     0.77059558
c     0.04084194     0.76821748     0.27059558
c     0.96357872     0.34953415     0.74486564
c     0.96357869     0.65046584     0.24486564
c     0.26226568     0.42810579     0.82274778
c     0.26226566     0.57189420     0.32274778
c     0.66629739     0.28578318     0.93814946
c     0.66629736     0.71421680     0.43814946
c     0.39318820     0.20000187     0.86699820
c     0.39318817     0.79999812     0.36699820
c     0.87526197     0.58332635     0.70973104
c     0.87526194     0.41667364     0.20973104
c     0.57027841     0.50968287     0.63106204
c     0.57027838     0.49031712     0.13106204
c     0.61419740     0.39308695     0.64825422
c     0.61419737     0.60691304     0.14825422
h     0.82099136     0.16803449     0.71458465
h     0.82099134     0.83196550     0.21458465
h     0.94605736     0.26000083     0.01453669
h     0.94605733     0.73999916     0.51453669
h     0.46607209     0.11094534     0.89033573
h     0.46607206     0.88905465     0.39033573
h     0.86408949     0.67593060     0.70140887
h     0.86408946     0.32406939     0.20140887
h     0.30060750     0.54393799     0.55731618
h     0.30060747     0.45606199     0.05731618
h     0.37824535     0.33553624     0.58684621
h     0.37824532     0.66446375     0.08684621
n     0.60823148     0.39710536     0.91765030
n     0.60823145     0.60289462     0.41765030
n     0.20326074     0.54274390     0.80133869
n     0.20326071     0.45725608     0.30133869
h     0.43725831     0.60411508     0.86104309
h     0.43725829     0.39588491     0.36104309

K_POINTS automatic
2 2 2 1 1 1

CELL_PARAMETERS cubic
    6.904726000000     0.000000000000    -0.016081000000
    0.000000000000    22.081453000000     0.000000000000
  -14.863149000000     0.000000000000    23.791052000000
