&control
 title='crystal',
 prefix='crystal',
 pseudo_dir='.',
 calculation='vc-relax',
/
&system
 ibrav=0,
 celldm(1)=1.0,
 nat=    72,
 ntyp=  3,
 ecutwfc=60.0,
 ecutrho=600.0,
 xdm=.true.,
 xdm_a1=0.4073,
 xdm_a2=2.4150,
/
&electrons
 conv_thr = 1d-8,
/
&ions
/
&cell
/
ATOMIC_SPECIES
h      1.007940 h.UPF
c     12.010700 c.UPF
o     15.999400 o.UPF

ATOMIC_POSITIONS crystal
c     0.92223804     0.80832154     0.22780831
c     0.07776202     0.19167848     0.77219169
c     0.92223805     0.69167849     0.72780832
c     0.07776199     0.30832153     0.27219169
c     0.57385998     0.85518056     0.36074129
c     0.42614007     0.14481946     0.63925872
c     0.57385999     0.64481947     0.86074129
c     0.42614005     0.35518054     0.13925871
c     0.72741857     0.98327372     0.34234132
c     0.27258148     0.01672629     0.65765868
c     0.72741858     0.51672630     0.84234133
c     0.27258146     0.48327371     0.15765868
c     0.89883297     0.96091906     0.23600296
c     0.10116709     0.03908096     0.76399704
c     0.89883298     0.53908097     0.73600296
c     0.10116707     0.46091905     0.26399704
c     0.75453263     0.99987276     0.13429630
c     0.24546743     0.00012726     0.86570370
c     0.75453264     0.50012727     0.63429631
c     0.24546740     0.49987275     0.36570370
c     0.74261621     0.88642910     0.06007353
c     0.25738385     0.11357091     0.93992647
c     0.74261622     0.61357092     0.56007354
c     0.25738383     0.38642909     0.43992647
c     0.88495256     0.76989718     0.10861013
c     0.11504749     0.23010283     0.89138988
c     0.88495257     0.73010284     0.60861013
c     0.11504747     0.26989717     0.39138987
o     0.69478375     0.75698403     0.29966687
o     0.30521630     0.24301598     0.70033313
o     0.69478376     0.74301599     0.79966688
o     0.30521628     0.25698402     0.20033313
o     0.37184846     0.83404716     0.42142989
o     0.62815159     0.16595286     0.57857012
o     0.37184847     0.66595287     0.92142989
o     0.62815157     0.33404715     0.07857011
o     0.49743683     0.92779431     0.12483204
o     0.50256322     0.07220570     0.87516796
o     0.49743684     0.57220572     0.62483204
o     0.50256320     0.42779430     0.37516796
h     0.11096467     0.76963082     0.25980026
h     0.88903538     0.23036920     0.74019975
h     0.11096469     0.73036921     0.75980026
h     0.88903536     0.26963081     0.24019974
h     0.58452790     0.06642398     0.34047025
h     0.41547216     0.93357604     0.65952976
h     0.58452791     0.43357605     0.84047025
h     0.41547214     0.56642397     0.15952975
h     0.85436552     0.99843984     0.41266800
h     0.14563453     0.00156018     0.58733201
h     0.85436553     0.50156019     0.91266800
h     0.14563451     0.49843983     0.08733200
h     0.10188679     0.00693089     0.23501324
h     0.89811327     0.99306912     0.76498676
h     0.10188680     0.49306913     0.73501325
h     0.89811325     0.50693088     0.26498676
h     0.74947607     0.10230660     0.10705024
h     0.25052399     0.89769341     0.89294977
h     0.74947608     0.39769342     0.60705024
h     0.25052397     0.60230659     0.39294976
h     0.72850684     0.89812702     0.97231385
h     0.27149321     0.10187299     0.02768615
h     0.72850685     0.60187300     0.47231385
h     0.27149319     0.39812701     0.52768615
h     0.77011983     0.67736889     0.10164793
h     0.22988023     0.32263113     0.89835207
h     0.77011984     0.82263114     0.60164794
h     0.22988020     0.17736888     0.39835207
h     0.08631980     0.75621670     0.06578225
h     0.91368025     0.24378331     0.93421775
h     0.08631981     0.74378332     0.56578226
h     0.91368023     0.25621669     0.43421775

K_POINTS automatic
2 2 2 1 1 1

CELL_PARAMETERS cubic
    9.213862000000     0.000000000000    -0.088944000000
    0.000000000000    19.130469000000     0.000000000000
    1.459574000000     0.000000000000    23.095248000000
