&control
 title='crystal',
 prefix='crystal',
 pseudo_dir='.',
 calculation='vc-relax',
/
&system
 ibrav=0,
 celldm(1)=1.0,
 nat=    64,
 ntyp=  4,
 ecutwfc=60.0,
 ecutrho=600.0,
 xdm=.true.,
 xdm_a1=0.4073,
 xdm_a2=2.4150,
/
&electrons
 conv_thr = 1d-8,
/
&ions
/
&cell
/
ATOMIC_SPECIES
h      1.007940 h.UPF
c     12.010700 c.UPF
o     15.999400 o.UPF
as    74.921600 as.UPF

ATOMIC_POSITIONS crystal
as    0.69821728     0.60570498     0.57536460
as    0.19821728     0.89429503     0.42463538
as    0.30178272     0.10570498     0.92463537
as    0.80178272     0.39429503     0.07536461
as    0.61616306     0.68548515     0.31310354
as    0.11616306     0.81451485     0.68689644
as    0.38383694     0.18548515     0.18689644
as    0.88383694     0.31451485     0.81310355
as    0.87300590     0.39882947     0.36251140
as    0.37300590     0.10117054     0.63748858
as    0.12699410     0.89882947     0.13748858
as    0.62699410     0.60117054     0.86251141
as    0.39044294     0.39321978     0.42061323
as    0.89044294     0.10678023     0.57938675
as    0.60955706     0.89321978     0.07938675
as    0.10955706     0.60678023     0.92061324
o     0.65762301     0.72542973     0.45765193
o     0.15762301     0.77457027     0.54234805
o     0.34237699     0.22542973     0.04234805
o     0.84237699     0.27457027     0.95765194
o     0.81135978     0.55606574     0.28332456
o     0.31135978     0.94393426     0.71667542
o     0.18864022     0.05606574     0.21667542
o     0.68864022     0.44393426     0.78332457
o     0.63280799     0.31397254     0.38186323
o     0.13280799     0.18602747     0.61813676
o     0.36719201     0.81397254     0.11813675
o     0.86719201     0.68602747     0.88186323
c     0.90736623     0.48583562     0.50970468
c     0.40736623     0.01416439     0.49029530
c     0.09263377     0.98583562     0.99029530
c     0.59263377     0.51416439     0.00970469
c     0.38543447     0.55603595     0.32089452
c     0.88543447     0.94396406     0.67910546
c     0.61456553     0.05603595     0.17910545
c     0.11456553     0.44396406     0.82089453
c     0.45897269     0.48739732     0.56053974
c     0.95897269     0.01260269     0.43946024
c     0.54102731     0.98739732     0.93946023
c     0.04102731     0.51260269     0.06053975
h     0.94055182     0.40125758     0.56737921
h     0.44055182     0.09874243     0.43262077
h     0.05944818     0.90125758     0.93262077
h     0.55944818     0.59874243     0.06737922
h     0.03788343     0.55432586     0.50448233
h     0.53788343     0.94567415     0.49551766
h     0.96211657     0.05432586     0.99551765
h     0.46211657     0.44567415     0.00448233
h     0.25478792     0.61925530     0.34263941
h     0.75478792     0.88074470     0.65736057
h     0.74521208     0.11925530     0.15736057
h     0.24521208     0.38074470     0.84263942
h     0.36315832     0.51674870     0.23684169
h     0.86315832     0.98325131     0.76315830
h     0.63684168     0.01674870     0.26315829
h     0.13684168     0.48325131     0.73684170
h     0.47016533     0.40797284     0.62486268
h     0.97016533     0.09202716     0.37513730
h     0.52983467     0.90797284     0.87513730
h     0.02983467     0.59202716     0.12486269
h     0.33284226     0.55602949     0.57961342
h     0.83284226     0.94397052     0.42038657
h     0.66715774     0.05602949     0.92038656
h     0.16715774     0.44397052     0.07961342

K_POINTS automatic
2 2 2 1 1 1

CELL_PARAMETERS cubic
   12.640033000000     0.000000000000     0.000000000000
    0.000000000000    18.224533000000     0.000000000000
    0.000000000000     0.000000000000    22.899717000000
