## FHIaims input file generated by critic2.
lattice_vector 3.6349999976       0.0000000000       0.0000000000       
lattice_vector -1.8175000012      3.1480023421       0.0000000000       
lattice_vector 0.0000000000       0.0000000000       5.5370000000       
atom_frac  0.3333320300       0.6666660100       0.2635452400       S 
atom_frac  0.6666672300       0.3333336100       0.7364547600       S 
atom_frac  0.0000000000       0.0000000000       0.0000000000       Hf
