&control
 title='crystal',
 prefix='crystal',
 pseudo_dir='.',
 calculation='vc-relax',
/
&system
 ibrav=0,
 celldm(1)=1.0,
 nat=    78,
 ntyp=  5,
 ecutwfc=60.0,
 ecutrho=600.0,
 xdm=.true.,
 xdm_a1=0.4073,
 xdm_a2=2.4150,
/
&electrons
 conv_thr = 1d-8,
/
&ions
/
&cell
/
ATOMIC_SPECIES
h      1.007940 h.UPF
c     12.010700 c.UPF
n     14.006700 n.UPF
o     15.999400 o.UPF
s     32.065000 s.UPF

ATOMIC_POSITIONS crystal
s     0.96400468     0.71881657     0.28288017
o     0.43348261     0.64704493     0.87609790
h     0.50242014     0.75088674     0.83251043
o     0.63837277     0.50759417     0.75548052
o     0.21653148     0.04551432     0.40810903
h     0.28116422     0.15647701     0.37009207
o     0.43113226     0.92427362     0.28362874
o     0.77489324     0.73038905     0.31494363
o     0.04945838     0.57363320     0.23051733
n     0.02927550     0.73498429     0.40586124
c     0.50608141     0.50661360     0.83795499
c     0.42581047     0.34831595     0.89522279
h     0.48484058     0.23607829     0.85861523
c     0.28829058     0.33920285     0.98714449
h     0.23373827     0.45626385     0.01917154
c     0.20583527     0.18548456     0.05067082
c     0.06105267     0.19984560     0.14336830
h     0.01381921     0.32429020     0.16399810
c     0.98190200     0.05735681     0.21017885
h     0.86997792     0.06868189     0.28139237
c     0.04918061     0.89893156     0.18595504
c     0.18984231     0.88110376     0.09256611
h     0.23889499     0.75647832     0.07439614
c     0.26657559     0.02403590     0.02469657
h     0.37594371     0.00964673     0.95209022
c     0.29594075     0.91452545     0.36120491
c     0.21251911     0.74379275     0.41228395
h     0.28318879     0.64795865     0.36050222
c     0.23307858     0.70640114     0.54080583
h     0.15674008     0.80253061     0.59003016
c     0.42383357     0.72500729     0.54844421
h     0.50782465     0.63562269     0.49794070
h     0.43416011     0.70026752     0.64029325
h     0.47550792     0.85191314     0.51630203
c     0.16302635     0.53168322     0.59349998
h     0.18239454     0.50611834     0.68365873
h     0.23142550     0.43369955     0.54292303
h     0.02361813     0.51912108     0.59623209
s     0.98524966     0.16078550     0.79136194
o     0.57987305     0.20502993     0.18736904
h     0.51832985     0.09652529     0.22973933
o     0.37123246     0.32781380     0.31623609
o     0.78420233     0.77905063     0.63839274
h     0.72041720     0.67263422     0.68528534
o     0.59900185     0.91889917     0.77044274
o     0.15307893     0.12168383     0.71936469
o     0.96530418     0.30245164     0.86162411
n     0.84435851     0.19546781     0.70557878
c     0.49955455     0.33924498     0.23151034
c     0.57001554     0.50274912     0.17525115
h     0.50690962     0.61117767     0.21468737
c     0.70431424     0.51983284     0.08123590
h     0.76453994     0.40635156     0.04665621
c     0.77707953     0.67833141     0.01841249
c     0.92217447     0.67373586     0.92491286
h     0.97828008     0.55293028     0.90280208
c     0.99131347     0.82133263     0.85883968
h     0.10382507     0.81828047     0.78688598
c     0.91397470     0.97493688     0.88557277
c     0.77290190     0.98336822     0.98015940
h     0.71644031     0.10430312     0.00168229
c     0.70572106     0.83593984     0.04631145
h     0.59680173     0.84265192     0.12015766
c     0.72408858     0.91740173     0.68615071
c     0.82276942     0.07628413     0.62431901
h     0.95369126     0.03813507     0.58119649
c     0.73055019     0.15553946     0.52626808
h     0.72859403     0.05350624     0.47010518
c     0.54236745     0.20866406     0.57185475
h     0.48374500     0.25437469     0.49742793
h     0.53678140     0.31322246     0.62600430
h     0.45988236     0.10687283     0.62355089
c     0.83720972     0.30291544     0.45308561
h     0.83606010     0.40985030     0.50449751
h     0.78014625     0.34698274     0.37756038
h     0.97332159     0.26949166     0.42030655
h     0.93812509     0.78319776     0.46953285
h     0.75279481     0.28599915     0.72909248

K_POINTS automatic
2 2 2 1 1 1

CELL_PARAMETERS cubic
   14.820530000000    -0.024546000000    -0.006571000000
    0.306275000000    15.082303000000    -0.023155000000
    4.678999000000     2.327984000000    21.529289000000
