&control
 title='crystal',
 prefix='crystal',
 pseudo_dir='.',
 calculation='vc-relax',
/
&system
 ibrav=0,
 celldm(1)=1.0,
 nat=   120,
 ntyp=  4,
 ecutwfc=60.0,
 ecutrho=600.0,
 xdm=.true.,
 xdm_a1=0.4073,
 xdm_a2=2.4150,
/
&electrons
 conv_thr = 1d-8,
/
&ions
/
&cell
/
ATOMIC_SPECIES
h      1.007940 h.UPF
c     12.010700 c.UPF
n     14.006700 n.UPF
o     15.999400 o.UPF

ATOMIC_POSITIONS crystal
o     0.12385020     0.45968098     0.58386496
o     0.62385020     0.04031902     0.41613506
o     0.87614980     0.95968098     0.91613507
o     0.37614980     0.54031901     0.08386495
c     0.94112991     0.45559357     0.61302712
c     0.44112991     0.04440643     0.38697291
c     0.05887009     0.95559357     0.88697291
c     0.55887009     0.54440642     0.11302711
c     0.89032554     0.56670739     0.68670173
c     0.39032554     0.93329260     0.31329829
c     0.10967446     0.06670739     0.81329830
c     0.60967446     0.43329260     0.18670172
h     0.74984201     0.56242493     0.70486634
h     0.24984201     0.93757507     0.29513368
h     0.25015799     0.06242493     0.79513369
h     0.75015799     0.43757506     0.20486633
h     0.91666947     0.65726301     0.64726630
h     0.41666947     0.84273698     0.35273373
h     0.08333053     0.15726301     0.85273374
h     0.58333053     0.34273698     0.14726629
h     0.96207319     0.56168506     0.76602254
h     0.46207319     0.93831494     0.23397749
h     0.03792681     0.06168506     0.73397750
h     0.53792681     0.43831493     0.26602253
c     0.91285729     0.33132049     0.67140371
c     0.41285729     0.16867951     0.32859631
c     0.08714271     0.83132049     0.82859632
c     0.58714271     0.66867950     0.17140371
h     0.77303957     0.31781746     0.68804357
h     0.27303957     0.18218254     0.31195645
h     0.22696043     0.81781746     0.81195646
h     0.72696043     0.68218253     0.18804356
h     0.98197773     0.33007390     0.75169057
h     0.48197773     0.16992610     0.24830946
h     0.01802227     0.83007390     0.74830947
h     0.51802227     0.66992609     0.25169056
h     0.95882464     0.25450940     0.61816969
h     0.45882464     0.24549059     0.38183033
h     0.04117536     0.75450940     0.88183034
h     0.54117536     0.74549059     0.11816968
o     0.83662667     0.45166521     0.51233465
o     0.33662667     0.04833478     0.48766537
o     0.16337333     0.95166521     0.98766538
o     0.66337333     0.54833478     0.01233464
c     0.87401575     0.55426077     0.43745741
c     0.37401575     0.94573923     0.56254262
c     0.12598425     0.05426077     0.06254262
c     0.62598425     0.44573922     0.93745740
h     0.84047726     0.64434107     0.47685879
h     0.34047726     0.85565892     0.52314123
h     0.15952274     0.14434107     0.02314124
h     0.65952274     0.35565892     0.97685878
h     0.78687043     0.54096900     0.36569608
h     0.28687043     0.95903100     0.63430394
h     0.21312957     0.04096900     0.13430395
h     0.71312957     0.45903099     0.86569607
c     0.06652038     0.55484258     0.40022173
c     0.56652038     0.94515741     0.59977829
c     0.93347962     0.05484258     0.09977830
c     0.43347962     0.44515741     0.90022172
c     0.10993736     0.43600390     0.33387881
c     0.60993736     0.06399609     0.66612121
c     0.89006264     0.93600390     0.16612122
c     0.39006264     0.56399609     0.83387880
h     0.24627970     0.43691138     0.30508404
h     0.74627970     0.06308862     0.69491598
h     0.75372030     0.93691138     0.19491599
h     0.25372030     0.56308861     0.80508403
h     0.08872265     0.35186996     0.38468939
h     0.58872265     0.14813003     0.61531063
h     0.91127735     0.85186996     0.11531064
h     0.41127735     0.64813003     0.88468938
h     0.02678785     0.42976662     0.25918536
h     0.52678785     0.07023337     0.74081466
h     0.97321215     0.92976662     0.24081467
h     0.47321215     0.57023337     0.75918535
c     0.09340383     0.67181184     0.32812267
c     0.59340383     0.82818816     0.67187735
c     0.90659617     0.17181184     0.17187736
c     0.40659617     0.32818815     0.82812266
h     0.99663022     0.67238576     0.25998313
h     0.49663022     0.82761423     0.74001690
h     0.00336978     0.17238576     0.24001690
h     0.50336978     0.32761423     0.75998312
h     0.07536720     0.75733626     0.37766867
h     0.57536720     0.74266374     0.62233135
h     0.92463280     0.25733626     0.12233136
h     0.42463280     0.24266373     0.87766866
h     0.22406432     0.67365151     0.29071452
h     0.72406432     0.82634849     0.70928551
h     0.77593568     0.17365151     0.20928551
h     0.27593568     0.32634848     0.79071451
c     0.17416923     0.56084902     0.51069076
c     0.67416923     0.93915097     0.48930926
c     0.82583077     0.06084902     0.98930927
c     0.32583077     0.43915097     0.01069075
h     0.14896190     0.65228855     0.55065097
h     0.64896190     0.84771145     0.44934905
h     0.85103810     0.15228855     0.94934906
h     0.35103810     0.34771144     0.05065096
c     0.37195710     0.55356956     0.49240057
c     0.87195710     0.94643043     0.50759945
c     0.62804290     0.05356956     0.00759946
c     0.12804290     0.44643043     0.99240056
o     0.45027160     0.64130894     0.44546270
o     0.95027160     0.85869106     0.55453732
o     0.54972840     0.14130894     0.05453733
o     0.04972840     0.35869105     0.94546269
n     0.45206792     0.44869285     0.52910780
n     0.95206792     0.05130714     0.47089223
n     0.54793208     0.94869285     0.97089223
n     0.04793208     0.55130714     0.02910779
h     0.58603035     0.44126507     0.52465297
h     0.08603035     0.05873492     0.47534705
h     0.41396965     0.94126507     0.97534706
h     0.91396965     0.55873492     0.02465296
h     0.37910529     0.38383233     0.57021906
h     0.87910529     0.11616767     0.42978096
h     0.62089471     0.88383233     0.92978097
h     0.12089471     0.61616766     0.07021905

K_POINTS automatic
2 2 2 1 1 1

CELL_PARAMETERS cubic
   14.424209000000     0.000000000000     0.000000000000
    0.000000000000    20.157159000000     0.000000000000
    0.000000000000     0.000000000000    22.555950000000
