&control
 title='crystal',
 prefix='crystal',
 pseudo_dir='.',
 calculation='vc-relax',
/
&system
 ibrav=0,
 celldm(1)=1.0,
 nat=   100,
 ntyp=  2,
 ecutwfc=60.0,
 ecutrho=600.0,
 xdm=.true.,
 xdm_a1=0.4073,
 xdm_a2=2.4150,
/
&electrons
 conv_thr = 1d-8,
/
&ions
/
&cell
/
ATOMIC_SPECIES
h      1.007940 h.UPF
c     12.010700 c.UPF

ATOMIC_POSITIONS crystal
c     0.49999881     0.57974320     0.25000602
c     0.99999865     0.07975298     0.25000601
c     0.50000117     0.42025680     0.74999398
c     0.00000101     0.92026658     0.74999397
c     0.50949146     0.32789224     0.30168579
c     0.00949130     0.82790201     0.30168578
c     0.50947637     0.67212091     0.80166008
c     0.00947621     0.17213069     0.80166007
c     0.49050852     0.67210776     0.69831421
c     0.99050835     0.17211754     0.69831420
c     0.49052361     0.32787909     0.19833992
c     0.99052345     0.82788887     0.19833992
c     0.45784424     0.20998607     0.36610664
c     0.95784407     0.70999585     0.36610663
c     0.45782680     0.79001724     0.86607724
c     0.95782664     0.29002701     0.86607724
c     0.54215574     0.79001393     0.63389337
c     0.04215558     0.29002371     0.63389336
c     0.54217318     0.20998276     0.13392276
c     0.04217302     0.70999254     0.13392275
c     0.59395038     0.20354560     0.39513800
c     0.09395021     0.70355538     0.39513799
c     0.59392961     0.79646113     0.89511021
c     0.09392944     0.29647090     0.89511021
c     0.40604961     0.79645439     0.60486200
c     0.90604944     0.29646417     0.60486199
c     0.40607038     0.20353887     0.10488979
c     0.90607021     0.70354865     0.10488978
c     0.37261685     0.28220578     0.41262963
c     0.87261668     0.78221556     0.41262962
c     0.37259895     0.71780200     0.91260462
c     0.87259879     0.21781177     0.91260461
c     0.62738314     0.71779422     0.58737037
c     0.12738297     0.21780400     0.58737036
c     0.62740103     0.28219799     0.08739539
c     0.12740087     0.78220777     0.08739538
c     0.35876846     0.02741051     0.35852454
c     0.85876830     0.52742028     0.35852454
c     0.35873880     0.97258805     0.85848478
c     0.85873864     0.47259783     0.85848477
c     0.64123152     0.97258949     0.64147546
c     0.14123136     0.47259927     0.64147545
c     0.64126118     0.02741195     0.14151522
c     0.14126102     0.52742173     0.14151521
h     0.58299265     0.69251638     0.26691943
h     0.08299248     0.19252616     0.26691942
h     0.58300006     0.30749932     0.76691390
h     0.08299989     0.80750910     0.76691389
h     0.41700734     0.30748362     0.73308057
h     0.91700717     0.80749340     0.73308056
h     0.41699992     0.69250068     0.23308610
h     0.91699976     0.19251046     0.23308609
h     0.63515466     0.02049844     0.38987201
h     0.13515449     0.52050822     0.38987200
h     0.63512717     0.97952918     0.88984025
h     0.13512701     0.47953896     0.88984024
h     0.36484533     0.97950156     0.61012799
h     0.86484516     0.47951134     0.61012798
h     0.36487281     0.02047082     0.11015975
h     0.86487264     0.52048059     0.11015974
h     0.65116735     0.32714819     0.45470829
h     0.15116718     0.82715797     0.45470828
h     0.65115251     0.67287458     0.95468079
h     0.15115235     0.17288436     0.95468078
h     0.34883264     0.67285181     0.54529172
h     0.84883247     0.17286159     0.54529171
h     0.34884747     0.32712542     0.04531921
h     0.84884730     0.82713519     0.04531921
h     0.30525395     0.43137222     0.37789666
h     0.80525378     0.93138200     0.37789665
h     0.30523461     0.56862405     0.87786868
h     0.80523444     0.06863383     0.87786867
h     0.69474604     0.56862777     0.62210335
h     0.19474587     0.06863755     0.62210334
h     0.69476538     0.43137594     0.12213132
h     0.19476522     0.93138571     0.12213131
h     0.40557162     0.27551645     0.49215265
h     0.90557145     0.77552622     0.49215264
h     0.40554802     0.72448673     0.99211982
h     0.90554785     0.22449650     0.99211981
h     0.59442837     0.72448355     0.50784736
h     0.09442820     0.22449333     0.50784735
h     0.59445197     0.27551327     0.00788019
h     0.09445180     0.77552305     0.00788018
h     0.28163938     0.00753867     0.28818804
h     0.78163921     0.50754844     0.28818803
h     0.28161724     0.99246768     0.78815573
h     0.78161708     0.49247745     0.78815572
h     0.71836061     0.99246133     0.71181196
h     0.21836044     0.49247111     0.71181195
h     0.71838274     0.00753232     0.21184427
h     0.21838257     0.50754210     0.21184426
h     0.38251967     0.85356800     0.40252765
h     0.88251950     0.35357778     0.40252764
h     0.38249225     0.14643789     0.90249402
h     0.88249208     0.64644766     0.90249401
h     0.61748032     0.14643200     0.59747236
h     0.11748015     0.64644177     0.59747235
h     0.61750774     0.85356211     0.09750598
h     0.11750757     0.35357189     0.09750597

K_POINTS automatic
2 2 2 1 1 1

CELL_PARAMETERS cubic
   22.475034000000     0.000193000000    -0.128911000000
    0.000085000000     9.850230000000     0.000133000000
  -10.968419000000     0.000249000000    25.860165000000
