%nprocs=4
%mem=4GB
#p pbepbe aug-cc-pvtz output=wfx scf=(conver=6) int=(grid=ultrafine)

title

0 1
c -1.413529136077892 0.064733126425522 0.234775368676445
c -0.720395314682417 0.112174503720930 1.374949672394267
c 0.720395314682417 -0.112174503720930 1.374949672394267
c 1.413529136077892 -0.064733126425522 0.234775368676445
c 0.720902785424485 0.247633434608124 -1.058141350006777
c -0.720902785424485 -0.247633434608124 -1.058141350006777
h -2.491086753986490 0.191819154854264 0.236248355349292
h -1.221750076490187 0.292588970641229 2.319813607258014
h 1.221750076490187 -0.292588970641229 2.319813607258014
h 2.491086753986490 -0.191819154854264 0.236248355349292
h 1.265838342307301 -0.178348123468955 -1.904132394220608
h 0.737372580750601 1.338670799763796 -1.203513259450638
h -1.265838342307301 0.178348123468955 -1.904132394220608
h -0.737372580750601 -1.338670799763796 -1.203513259450638

chdiene.wfx

