&control
 title='crystal',
 prefix='crystal',
 pseudo_dir='..',
 calculation='vc-relax',
 etot_conv_thr=1d-5,
/
&system
 ibrav=0,
 celldm(1)=1.0,
 nat=   164,
 ntyp=  3,
 ecutwfc=80.0,
 ecutrho=800.0,
 xdm=.true.,
 xdm_a1=0.6512,
 xdm_a2=1.4633,
/
&electrons
 conv_thr = 1d-8,
/
&ions
/
&cell
/
ATOMIC_SPECIES
h      1.007940 h.UPF
c     12.010700 c.UPF
n     14.006700 n.UPF

ATOMIC_POSITIONS crystal
c        0.957498575   0.511979289   0.615766510
c        0.542487469   0.488012716   0.115751703
c        0.042507065   0.011972387   0.884230621
c        0.457502700   0.988018854   0.384245962
c        0.799103790   0.514825728   0.662117818
c        0.700874051   0.485169487   0.162104364
c        0.200899677   0.014808678   0.837877716
c        0.299116314   0.985183187   0.337893082
c        0.638733430   0.475191622   0.632445539
c        0.861248521   0.524803175   0.132431479
c        0.361265639   0.975167760   0.867550457
c        0.138746675   0.024823825   0.367565703
c        0.788248667   0.434795324   0.507181229
c        0.711748766   0.565195241   0.007165259
c        0.211751496   0.934787619   0.992818925
c        0.288248853   0.065203384   0.492833239
c        0.630373438   0.432904604   0.556163186
c        0.869618875   0.567086525   0.056147385
c        0.369622582   0.932883786   0.943834675
c        0.130381140   0.067105830   0.443850040
c        0.468319232   0.382806756   0.529671453
c        0.031676113   0.617183641   0.029655174
c        0.531673422   0.882781922   0.970327241
c        0.968327960   0.117207068   0.470342513
c        0.469907692   0.325595559   0.462674783
c        0.030095374   0.674394376   0.962656960
c        0.530086296   0.825577810   0.037328224
c        0.969909555   0.174412533   0.537342558
c        0.779094270   0.387734742   0.430187647
c        0.720907304   0.612258288   0.930171908
c        0.220900818   0.887724419   0.069812977
c        0.279096648   0.112269137   0.569825575
c        0.627380856   0.322563700   0.413841979
c        0.872624660   0.677428155   0.913825882
c        0.372612597   0.822551427   0.086160656
c        0.127381828   0.177441276   0.586172526
c        0.634525049   0.250350093   0.350823722
c        0.865489824   0.749644497   0.850808531
c        0.365468967   0.750339053   0.149180744
c        0.134517724   0.249655542   0.649190305
c        0.792038244   0.237547981   0.309387329
c        0.707979201   0.762451251   0.809374926
c        0.207956347   0.737539841   0.190617742
c        0.292028143   0.262458027   0.690624123
c        0.923262114   0.392483758   0.372945426
c        0.576740744   0.607514151   0.872931379
c        0.076733625   0.892475808   0.127055918
c        0.423263477   0.107521622   0.627066042
c        0.940072656   0.307441237   0.319747984
c        0.559941242   0.692561097   0.819736325
c        0.059923265   0.807434116   0.180255281
c        0.440064377   0.192566810   0.680261482
c        0.104514518   0.293015010   0.277244597
c        0.395506120   0.706996263   0.777233418
c        0.895483457   0.793010521   0.222760588
c        0.604499271   0.206998524   0.722764712
c        0.246231703   0.361216988   0.285332329
c        0.253787882   0.638796199   0.785316576
c        0.753766815   0.861213265   0.214672914
c        0.746216939   0.138798123   0.714681088
c        0.053538691   0.475721351   0.365363927
c        0.446457485   0.524281110   0.865348175
c        0.946459924   0.975715533   0.134639060
c        0.553544261   0.024286343   0.634650757
c        0.222519398   0.455364962   0.327873169
c        0.277486434   0.544646197   0.827855337
c        0.777479257   0.955361016   0.172130917
c        0.722517191   0.044649233   0.672142506
c        0.366554812   0.529906864   0.331980263
c        0.133436197   0.470113856   0.831963268
c        0.633444047   0.029904168   0.168022746
c        0.866568214   0.970116581   0.668032124
c        0.339983334   0.625399568   0.364810639
c        0.159978870   0.374621860   0.864795842
c        0.660017504   0.125396739   0.135192511
c        0.840022773   0.874625817   0.635200360
c        0.162653165   0.655860305   0.389508976
c        0.337299673   0.344148483   0.889493465
c        0.837348626   0.155856022   0.110494395
c        0.662699917   0.844153768   0.610505294
c        0.016484303   0.582543659   0.387474460
c        0.483483952   0.417456310   0.887460021
c        0.983515925   0.082537341   0.112528530
c        0.516516156   0.917462691   0.612539827
c        0.810760141   0.710738857   0.420970828
c        0.689175490   0.289248089   0.920961789
c        0.189242847   0.210730072   0.079031099
c        0.310822701   0.789257468   0.579038407
c        0.947044845   0.786770718   0.429633540
c        0.552875237   0.213223340   0.929618555
c        0.052959553   0.286764247   0.070368843
c        0.447122159   0.713231468   0.570380980
c        0.123731386   0.758902912   0.412571130
c        0.376199341   0.241102196   0.912552501
c        0.876272714   0.258898359   0.087431500
c        0.623798501   0.741108444   0.587446239
c        0.951502840   0.473118244   0.540460179
c        0.548491640   0.526872062   0.040444761
c        0.048502013   0.973118939   0.959539736
c        0.451501304   0.026873035   0.459553934
h        0.086630891   0.539036385   0.639645835
h        0.413351314   0.460956152   0.139630973
h        0.913376944   0.039033902   0.860350963
h        0.586636554   0.960958307   0.360366708
h        0.802174086   0.547301476   0.720852721
h        0.697790089   0.452696693   0.220840513
h        0.197831133   0.047281469   0.779141519
h        0.302196790   0.952711343   0.279157055
h        0.515916693   0.474515624   0.668161106
h        0.984057531   0.525481107   0.168148671
h        0.484082019   0.974485848   0.831834662
h        0.015936993   0.025506470   0.331848927
h        0.347734142   0.385100154   0.566478494
h        0.152254433   0.614892784   0.066463191
h        0.652254949   0.885068916   0.933518217
h        0.847751722   0.114921123   0.433533572
h        0.351633495   0.280097420   0.445276534
h        0.148370226   0.719893092   0.945258602
h        0.648361132   0.780081147   0.054729007
h        0.851634439   0.219909942   0.554742648
h        0.517358199   0.200320100   0.340426813
h        0.982661121   0.799671027   0.840408067
h        0.482637003   0.700309717   0.159579183
h        0.017345963   0.299681861   0.659591401
h        0.805177147   0.175145891   0.266854502
h        0.694847394   0.824854653   0.766842950
h        0.194813478   0.675137228   0.233150363
h        0.305164889   0.324860991   0.733155143
h        0.116891119   0.224715312   0.239966019
h        0.383136781   0.775301796   0.739960086
h        0.883110451   0.724713332   0.260042762
h        0.616866598   0.275300997   0.760040441
h        0.376449556   0.346685308   0.257001105
h        0.123572377   0.653332271   0.756986497
h        0.623550663   0.846684359   0.243006518
h        0.876432254   0.153331365   0.743011859
h        0.499734138   0.508713065   0.309263146
h        0.000263767   0.491318322   0.809245803
h        0.500263536   0.008710543   0.190739407
h        0.999743089   0.991320496   0.690747397
h        0.450554462   0.681478314   0.368409562
h        0.049393860   0.318551418   0.868397565
h        0.549449186   0.181478563   0.131594350
h        0.950605804   0.818553230   0.631598161
h        0.668863262   0.732071136   0.430582545
h        0.831067058   0.267909523   0.930577841
h        0.331140444   0.232060625   0.069420031
h        0.168930505   0.767920224   0.569423835
h        0.912530570   0.865605605   0.447610908
h        0.587373504   0.134385286   0.947594663
h        0.087476374   0.365598554   0.052390197
h        0.412621674   0.634394729   0.552403679
h        0.233317084   0.815759101   0.414974597
h        0.266601795   0.184252392   0.914952183
h        0.766687239   0.315755604   0.085027672
h        0.733396174   0.684258025   0.585045777
h        0.076952956   0.469332348   0.507007482
h        0.423044608   0.530657146   0.006992368
h        0.923051880   0.969341003   0.992992658
h        0.576949479   0.030652891   0.493005483
n        0.841748773   0.612314921   0.401217447
n        0.658209716   0.387674453   0.901207114
n        0.158251702   0.112306242   0.098784345
n        0.341789924   0.887682839   0.598793137

K_POINTS automatic
4 4 4 1 1 1

CELL_PARAMETERS cubic
  13.885550232   0.000034347   0.000182186
   0.000060479  24.261292693   0.000101926
   0.000425306   0.000135431  32.367835917
