%nprocs=4
%mem=4GB
#p pbepbe aug-cc-pvtz output=wfx scf=(conver=6) int=(grid=ultrafine)

title

0 1
bi 0.000000000000000 0.000000000000000 -1.031913505157076
h -0.718721889545082 -1.244862829203992 -2.050206993066934
h -0.718721889545082 1.244862829203992 -2.050206993066934
h 1.437443779090169 0.000000000000000 -2.050206993066934
br 0.000000000000000 0.000000000000000 2.883660623618627
h 0.000000000000000 0.000000000000000 4.299422578110184

bih3_hbr.wfx

