%nprocs=4
%mem=4GB
#p pbepbe aug-cc-pvtz output=wfx scf=(conver=6) int=(grid=ultrafine)

title

0 1
o 0.000000000000000 0.000000000000000 -0.392195013665168
h 0.756100073456700 0.000000000000000 0.196097506832587
h -0.756100073456700 0.000000000000000 0.196097506832587

h2o.wfx

