%nprocs=4
%mem=4GB
#p pbepbe aug-cc-pvtz output=wfx scf=(conver=6) int=(grid=ultrafine)

title

0 1
br 0.000000000000000 0.000000000000000 -0.706848675532331
h 0.000000000000000 0.000000000000000 0.706848675532331

hbr.wfx

