%nprocs=4
%mem=4GB
#p pbepbe aug-cc-pvtz output=wfx scf=(conver=6) int=(grid=ultrafine)

title

0 1
i 0.000000000000000 0.000000000000000 -0.794927719880024
h 0.000000000000000 0.000000000000000 0.794927719880024

hi.wfx

