%nprocs=4
%mem=4GB
#p pbepbe aug-cc-pvtz output=wfx scf=(conver=6) int=(grid=ultrafine)

title

0 1
sb -0.722093516161554 1.884810841180790 0.000000000000000
h -0.220811210189869 2.948533538330051 1.203851081564504
h -0.220811210189869 2.948533538330051 -1.203851081564504
h 0.780130357499529 1.121129498190354 0.000000000000000
sb 0.789975456004110 -2.076131804527831 0.000000000000000
h -0.284379654510943 -1.594088395077460 1.202126728032813
h 0.162369432059528 -3.638698821348501 0.000000000000000
h -0.284379654510943 -1.594088395077460 -1.202126728032813

sbh3_2.wfx

