%nprocs=4
%mem=4GB
#p pbepbe aug-cc-pvtz output=wfx scf=(conver=6) int=(grid=ultrafine)

title

0 1
te 0.791379203619596 2.947161230388090 0.000000000000000
h 0.529235403574308 1.334136635856984 0.000000000000000
h -0.821275024713832 3.206620851458526 0.000000000000000
te -0.112730451326172 -1.729564678532245 0.000000000000000
h 0.961294901955034 -2.960110418809390 0.000000000000000
h -1.347904033108935 -2.798243620361977 0.000000000000000

teh2_2.wfx

