&control
 title='crystal',
 prefix='crystal',
 pseudo_dir='.',
 calculation='vc-relax',
/
&system
 ibrav=0,
 celldm(1)=1.0,
 nat=   108,
 ntyp=  4,
 ecutwfc=60.0,
 ecutrho=600.0,
 xdm=.true.,
 xdm_a1=0.4073,
 xdm_a2=2.4150,
/
&electrons
 conv_thr = 1d-8,
/
&ions
/
&cell
/
ATOMIC_SPECIES
h      1.007940 h.UPF
c     12.010700 c.UPF
n     14.006700 n.UPF
o     15.999400 o.UPF

ATOMIC_POSITIONS crystal
o     0.72641044     0.35880633     0.47689972
o     0.27358954     0.64119367     0.52310027
o     0.22641044     0.14119367     0.97689972
o     0.77358954     0.85880633     0.02310027
n     0.89665403     0.40254153     0.55649943
n     0.10334594     0.59745847     0.44350056
n     0.39665403     0.09745847     0.05649943
n     0.60334594     0.90254153     0.94350056
c     0.73825843     0.32109752     0.52283309
c     0.26174154     0.67890248     0.47716690
c     0.23825843     0.17890248     0.02283309
c     0.76174154     0.82109752     0.97716690
c     0.59023340     0.16040962     0.55241801
c     0.40976657     0.83959038     0.44758198
c     0.09023340     0.33959038     0.05241801
c     0.90976657     0.66040962     0.94758198
c     0.60138507     0.27518569     0.60392886
c     0.39861490     0.72481431     0.39607113
c     0.10138507     0.22481431     0.10392885
c     0.89861490     0.77518569     0.89607114
c     0.86602554     0.28986060     0.60493861
c     0.13397443     0.71013940     0.39506138
c     0.36602554     0.21013940     0.10493861
c     0.63397443     0.78986060     0.89506138
c     0.94519328     0.03988700     0.59714876
c     0.05480669     0.96011300     0.40285123
c     0.44519328     0.46011300     0.09714876
c     0.55480669     0.53988700     0.90285123
c     0.74464933     0.94985367     0.56226813
c     0.25535064     0.05014633     0.43773186
c     0.24464933     0.55014633     0.06226813
c     0.75535064     0.44985367     0.93773186
c     0.99502089     0.90119127     0.64343759
c     0.00497908     0.09880873     0.35656240
c     0.49502089     0.59880873     0.14343758
c     0.50497908     0.40119127     0.85656241
c     0.20308605     0.78172743     0.64787157
c     0.79691392     0.21827257     0.35212842
c     0.70308605     0.71827257     0.14787156
c     0.29691392     0.28172743     0.85212843
c     0.25600830     0.64889147     0.68971473
c     0.74399167     0.35110853     0.31028526
c     0.75600830     0.85110853     0.18971473
c     0.24399167     0.14889147     0.81028526
c     0.10185439     0.63407334     0.72851443
c     0.89814558     0.36592666     0.27148556
c     0.60185439     0.86592666     0.22851443
c     0.39814558     0.13407334     0.77148556
c     0.89390559     0.75112461     0.72458451
c     0.10609438     0.24887539     0.27541548
c     0.39390559     0.74887539     0.22458451
c     0.60609438     0.25112461     0.77541548
c     0.84097435     0.88160736     0.68243585
c     0.15902562     0.11839264     0.31756414
c     0.34097435     0.61839264     0.18243585
c     0.65902562     0.38160736     0.81756414
h     0.04440988     0.48856757     0.54641254
h     0.95559009     0.51143243     0.45358745
h     0.54440988     0.01143243     0.04641254
h     0.45559009     0.98856757     0.95358745
h     0.42196128     0.12569270     0.53504633
h     0.57803869     0.87430730     0.46495366
h     0.92196128     0.37430730     0.03504633
h     0.07803869     0.62569270     0.96495366
h     0.52038241     0.44154502     0.60346652
h     0.47961756     0.55845498     0.39653347
h     0.02038241     0.05845498     0.10346652
h     0.97961756     0.94154502     0.89653347
h     0.52982568     0.17233453     0.63356866
h     0.47017429     0.82766547     0.36643133
h     0.02982568     0.32766547     0.13356865
h     0.97017429     0.67233453     0.86643134
h     0.95228408     0.38018797     0.63578170
h     0.04771589     0.61981203     0.36421829
h     0.45228408     0.11981203     0.13578169
h     0.54771589     0.88018797     0.86421830
h     0.10433457     0.04459285     0.57631046
h     0.89566540     0.95540715     0.42368953
h     0.60433457     0.45540715     0.07631045
h     0.39566540     0.54459285     0.92368954
h     0.64521060     0.81911073     0.58063874
h     0.35478937     0.18088927     0.41936125
h     0.14521060     0.68088927     0.08063874
h     0.85478937     0.31911073     0.91936125
h     0.80864128     0.87540148     0.52798451
h     0.19135869     0.12459852     0.47201548
h     0.30864128     0.62459852     0.02798450
h     0.69135869     0.37540148     0.97201549
h     0.32180642     0.79006691     0.61724437
h     0.67819355     0.20993309     0.38275562
h     0.82180642     0.70993309     0.11724436
h     0.17819355     0.29006691     0.88275563
h     0.41826179     0.55728715     0.69227640
h     0.58173818     0.44271285     0.30772359
h     0.91826179     0.94271285     0.19227639
h     0.08173818     0.05728715     0.80772360
h     0.14469646     0.53195641     0.76127957
h     0.85530351     0.46804359     0.23872042
h     0.64469646     0.96804359     0.26127956
h     0.35530351     0.03195641     0.73872043
h     0.77062930     0.74104324     0.75429417
h     0.22937067     0.25895676     0.24570582
h     0.27062930     0.75895676     0.25429416
h     0.72937067     0.24104324     0.74570583
h     0.67562093     0.96713482     0.68011450
h     0.32437904     0.03286518     0.31988549
h     0.17562093     0.53286518     0.18011450
h     0.82437904     0.46713482     0.81988549

K_POINTS automatic
2 2 2 1 1 1

CELL_PARAMETERS cubic
   10.980685000000     0.000000000000    -0.004530000000
    0.000000000000    11.225902000000     0.000000000000
   -1.634492000000     0.000000000000    50.531419000000
