&control
 title='crystal',
 prefix='crystal',
 pseudo_dir='../..',
 forc_conv_thr=1.0D-4,
 etot_conv_thr=1.0D-5,
/
&system
 ibrav=0,
 nat=    28,
 ntyp=  2,
 ecutwfc=80.0,
 ecutrho=800.0,
 vdw_corr='xdm',
 nosym=.true.,
/
&electrons
 conv_thr = 1d-10,
/
&ions
/
&cell
 press_conv_thr=0.01,
/
ATOMIC_SPECIES
C    12.010700 c.UPF
H     1.007940 h.UPF

ATOMIC_POSITIONS crystal
C             0.0558104886        0.0183235758        0.0859606354
C             0.4441921852        0.5183225044        0.9140425812
C             0.2183847659        0.1137157342        0.1951508725
C             0.2816149764        0.6137154043        0.8048484493
C             0.1051914682       -0.0037665064        0.3046923818
C             0.3948085380        0.4962324281        0.6953064375
C             0.9441944826        0.9816356108        0.9140400834
C             0.5558031427        0.4816362067        0.0859556047
C             0.7816206961        0.8862456767        0.8048501764
C             0.7183804464        0.3862449885        0.1951495999
C             0.8948131025        1.0037349874        0.6953096433
C             0.6051874662        0.5037355255        0.3046912032
H             0.2495590814        0.3756940175        0.2039907693
H             0.2504410519        0.8756935071        0.7960082464
H             0.3137367059        0.9487897576        0.1915344425
H             0.1862638954        0.4487887352        0.8084657651
H             0.1266192516        0.7533460086        0.3762561096
H             0.3733808487        0.2533446027        0.6237437237
H             0.0621798662        0.1810139399        0.3871581400
H             0.4378200026        0.6810129374        0.6128410997
H             0.7504490044        0.6242645160        0.7960121094
H             0.7495512061        0.1242646351        0.2039871838
H             0.6862662068        0.0511640057        0.8084684819
H             0.8137336115        0.5511639172        0.1915300041
H             0.8733897467        0.2466324688        0.6237566040
H             0.6266104593        0.7466328648        0.3762426216
H             0.9378222703        0.8189671068        0.6128329831
H             0.5621783922        0.3189676833        0.3871668874

K_POINTS automatic
3 7 4  1 1 1

CELL_PARAMETERS bohr
  16.968471407  -0.000010084  -0.007601808
  -0.000004408   7.615272446   0.000004450
  -4.307362426   0.000009841  12.646863883
