&control
 title='crystal',
 prefix='crystal',
 pseudo_dir='.',
 calculation='vc-relax',
/
&system
 ibrav=0,
 celldm(1)=1.0,
 nat=    44,
 ntyp=  3,
 ecutwfc=60.0,
 ecutrho=600.0,
 xdm=.true.,
 xdm_a1=0.4073,
 xdm_a2=2.4150,
/
&electrons
 conv_thr = 1d-8,
/
&ions
/
&cell
/
ATOMIC_SPECIES
h      1.007940 h.UPF
c     12.010700 c.UPF
n     14.006700 n.UPF

ATOMIC_POSITIONS crystal
c     0.06334971     0.38976722     0.92785860
c     0.93665030     0.61023278     0.07214139
c     0.38976076     0.06334635     0.57214131
c     0.61023925     0.93665365     0.42785868
c     0.17671735     0.33753065     0.87375605
c     0.82328266     0.66246936     0.12624394
c     0.33752465     0.17671675     0.62624315
c     0.66247535     0.82328325     0.37375684
c     0.07425940     0.30075555     0.73127726
c     0.92574060     0.69924445     0.26872273
c     0.30076561     0.07427077     0.76872488
c     0.69923439     0.92572924     0.23127511
n     0.08011063     0.46138651     0.78573034
n     0.91988937     0.53861349     0.21426965
n     0.46137484     0.08009747     0.71426741
n     0.53862517     0.91990253     0.28573258
h     0.80711188     0.15810222     0.96949067
h     0.19288812     0.84189778     0.03050932
h     0.15810323     0.80710980     0.53051080
h     0.84189678     0.19289020     0.46948919
h     0.82199394     0.03686915     0.70216917
h     0.17800606     0.96313085     0.29783082
h     0.03687365     0.82199312     0.79782302
h     0.96312635     0.17800688     0.20217697
h     0.24596872     0.43225448     0.64543174
h     0.75403129     0.56774552     0.35456825
h     0.43226953     0.24598554     0.85456753
h     0.56773047     0.75401446     0.14543246
h     0.22503128     0.59243062     0.00196059
h     0.77496872     0.40756938     0.99803939
h     0.59243400     0.22503501     0.49804196
h     0.40756600     0.77496499     0.50195803
h     0.44698842     0.56319310     0.88259357
h     0.55301159     0.43680690     0.11740642
h     0.56319663     0.44699305     0.61740743
h     0.43680337     0.55300695     0.38259256
h     0.04692325     0.12401075     0.91305658
h     0.95307675     0.87598925     0.08694341
h     0.12399966     0.04691282     0.58693812
h     0.87600035     0.95308718     0.41306187
h     0.87584789     0.34183867     0.75911224
h     0.12415211     0.65816133     0.24088775
h     0.34184167     0.87584572     0.74088964
h     0.65815833     0.12415428     0.25911035

K_POINTS automatic
2 2 2 1 1 1

CELL_PARAMETERS cubic
   16.942548000000    -0.391149000000     1.804285000000
  -14.989836000000     7.906285000000    -1.804250000000
   -1.607586000000     0.417855000000    18.397982000000
