&control
 title='crystal',
 prefix='crystal',
 pseudo_dir='.',
 calculation='vc-relax',
/
&system
 ibrav=0,
 celldm(1)=1.0,
 nat=    44,
 ntyp=  3,
 ecutwfc=60.0,
 ecutrho=600.0,
 xdm=.true.,
 xdm_a1=0.4073,
 xdm_a2=2.4150,
/
&electrons
 conv_thr = 1d-8,
/
&ions
/
&cell
/
ATOMIC_SPECIES
h      1.007940 h.UPF
c     12.010700 c.UPF
n     14.006700 n.UPF

ATOMIC_POSITIONS crystal
c     0.00863346     0.21992808     0.10838722
c     0.99136439     0.78006798     0.89161273
c     0.99136226     0.71993896     0.39161140
c     0.00863559     0.28005710     0.60838854
n     0.90610939     0.22633545     0.19443015
n     0.09388846     0.77366062     0.80556980
n     0.09388926     0.72635005     0.30556783
n     0.90610859     0.27364602     0.69443211
c     0.64555761     0.30922837     0.16408555
c     0.35444024     0.69076770     0.83591440
c     0.35443407     0.80924750     0.33591570
c     0.64556378     0.19074856     0.66408425
c     0.72948525     0.19831560     0.07720843
c     0.27051260     0.80168047     0.92279152
c     0.27050772     0.69833077     0.42279072
c     0.72949014     0.30166530     0.57720923
h     0.13925406     0.02362169     0.09417570
h     0.86074379     0.97637437     0.90582425
h     0.86076289     0.52361142     0.40582270
h     0.13923497     0.47638465     0.59417725
h     0.10470696     0.44004333     0.08958902
h     0.89529089     0.55995273     0.91041093
h     0.89531237     0.94006668     0.41041141
h     0.10468548     0.05992939     0.58958854
h     0.98837419     0.39427633     0.23198892
h     0.01162366     0.60571974     0.76801102
h     0.01165530     0.89430205     0.26800916
h     0.98834255     0.10569401     0.73199079
h     0.60518913     0.56300041     0.16635235
h     0.39480872     0.43699565     0.83364760
h     0.39480265     0.06302636     0.33365176
h     0.60519520     0.93696971     0.66634819
h     0.48520124     0.18514482     0.19469840
h     0.51479661     0.81485125     0.80530154
h     0.51475626     0.68511798     0.30530417
h     0.48524160     0.31487809     0.69469578
h     0.67861718     0.34697706     0.02510857
h     0.32138067     0.65301901     0.97489138
h     0.32139162     0.84696955     0.47489116
h     0.67860623     0.15302652     0.52510879
h     0.67063616     0.95681084     0.06448792
h     0.32936169     0.04318523     0.93551203
h     0.32936511     0.45683575     0.43551492
h     0.67063274     0.54316031     0.56448502

K_POINTS automatic
2 2 2 1 1 1

CELL_PARAMETERS cubic
    9.787402000000    -0.000068000000     0.363129000000
   -0.000056000000     8.058533000000    -0.000006000000
   -0.570502000000    -0.000028000000    30.724645000000
