&control
 title='crystal',
 prefix='crystal',
 pseudo_dir='.',
 calculation='vc-relax',
/
&system
 ibrav=0,
 celldm(1)=1.0,
 nat=    88,
 ntyp=  3,
 ecutwfc=60.0,
 ecutrho=600.0,
 xdm=.true.,
 xdm_a1=0.4073,
 xdm_a2=2.4150,
/
&electrons
 conv_thr = 1d-8,
/
&ions
/
&cell
/
ATOMIC_SPECIES
h      1.007940 h.UPF
c     12.010700 c.UPF
n     14.006700 n.UPF

ATOMIC_POSITIONS crystal
c     0.38343227     0.25618571     0.27428258
c     0.15665859     0.20369894     0.61368274
c     0.82559431     0.39619887     0.15720142
c     0.71449656     0.06368578     0.73076390
n     0.23618368     0.25158742     0.29641891
n     0.30390719     0.20829723     0.59154641
n     0.06995454     0.51892409     0.14219466
n     0.47013632     0.94096056     0.74577066
c     0.19719987     0.25093197     0.22030906
c     0.34289099     0.20895269     0.66765626
c     0.10091141     0.52632969     0.22005991
c     0.43917945     0.93355497     0.66790540
c     0.25229281     0.15029339     0.20018672
c     0.28779805     0.30959126     0.68777860
c     0.91696336     0.48860551     0.23533496
c     0.62312751     0.97127914     0.65263036
h     0.31544054     0.10392433     0.30670926
h     0.22465033     0.35596032     0.58125605
h     0.59788992     0.14537539     0.15168141
h     0.94220095     0.31450927     0.73628391
h     0.63065011     0.48995298     0.27182152
h     0.90944076     0.96993167     0.61614379
h     0.85005886     0.51291868     0.12526212
h     0.69003200     0.94696597     0.76270320
h     0.37639741     0.44637589     0.32278047
h     0.16369345     0.01350876     0.56518484
h     0.41085984     0.70345576     0.06312155
h     0.12923103     0.75642889     0.82484377
h     0.37288940     0.48159894     0.19730230
h     0.16720146     0.97828572     0.69066302
h     0.33500190     0.74024404     0.23597431
h     0.20508897     0.71964061     0.65199101
h     0.97736749     0.09239877     0.20926813
h     0.56272338     0.36748588     0.67869719
h     0.98758664     0.32951061     0.24140664
h     0.55250423     0.13037404     0.64655868
h     0.39995498     0.26401419     0.15340981
h     0.14013588     0.19587047     0.73455551
h     0.05687855     0.70628742     0.24589553
h     0.48321232     0.75359723     0.64206979
h     0.04247518     0.90006529     0.19593362
h     0.49761568     0.55981936     0.69203170
h     0.73572813     0.31516458     0.27667494
h     0.80436273     0.14472008     0.61129037
c     0.74605698     0.81175411     0.04994874
c     0.79403388     0.64813054     0.83801658
c     0.64459120     0.94441758     0.38374753
c     0.89549967     0.51546707     0.50421778
n     0.88486004     0.07968155     0.06830316
n     0.65523083     0.38020310     0.81966216
n     0.66543830     0.81272531     0.37462414
n     0.87465256     0.64715934     0.51334118
c     0.60599884     0.81589555     0.06022435
c     0.93409203     0.64398910     0.82774097
c     0.63436492     0.76571603     0.45331589
c     0.90572594     0.69416862     0.43464942
c     0.22462413     0.38523112     0.89075569
c     0.31546673     0.07465353     0.99720963
c     0.50391257     0.79189422     0.45964235
c     0.03617830     0.66799043     0.42832297
h     0.73575181     0.72596456     0.09242895
h     0.80433905     0.73392010     0.79553637
h     0.50836593     0.87209387     0.34510661
h     0.03172494     0.58779078     0.54285871
h     0.80016347     0.82332227     0.99641641
h     0.73992739     0.63656238     0.89154891
h     0.86561196     0.19876009     0.38421428
h     0.67447891     0.26112456     0.50375103
h     0.99883943     0.36748739     0.11707376
h     0.54125144     0.09239727     0.77089156
h     0.86437535     0.95942914     0.35069534
h     0.67571551     0.50045551     0.53726998
h     0.20712369     0.36995486     0.94902471
h     0.33296718     0.08992979     0.93894061
h     0.85174418     0.95679514     0.47845574
h     0.68834669     0.50308952     0.40950958
h     0.02754265     0.25412672     0.87007054
h     0.51254822     0.20575793     0.01789478
h     0.49119241     0.54795155     0.47147367
h     0.04889846     0.91193310     0.41649165
h     0.42648003     0.62673505     0.87175626
h     0.11361083     0.83314960     0.01620906
h     0.58062484     0.92793401     0.50213677
h     0.95946603     0.53195064     0.38582855
h     0.23750727     0.29136287     0.87176219
h     0.30258359     0.16852178     0.01620313
h     0.25781243     0.56573186     0.46104211
h     0.28227844     0.89415279     0.42692321

K_POINTS automatic
2 2 2 1 1 1

CELL_PARAMETERS cubic
   18.324769000000     4.879534000000     0.206710000000
  -18.094869000000     3.662137000000     0.005185000000
    0.087123000000     0.924606000000    35.513261000000
