&control
 title='crystal',
 prefix='crystal',
 pseudo_dir='.',
 calculation='vc-relax',
/
&system
 ibrav=0,
 celldm(1)=1.0,
 nat=    22,
 ntyp=  3,
 ecutwfc=60.0,
 ecutrho=600.0,
 xdm=.true.,
 xdm_a1=0.4073,
 xdm_a2=2.4150,
/
&electrons
 conv_thr = 1d-8,
/
&ions
/
&cell
/
ATOMIC_SPECIES
h      1.007940 h.UPF
c     12.010700 c.UPF
n     14.006700 n.UPF

ATOMIC_POSITIONS crystal
c     0.35348199     0.58758115     0.67260985
c     0.64652054     0.08757709     0.32738868
n     0.08540759     0.62941912     0.61437865
n     0.91459150     0.12941850     0.38562115
c     0.98936897     0.60781922     0.78634123
c     0.01063086     0.10781517     0.21365927
c     0.26365519     0.67834813     0.84728808
c     0.73634501     0.17834303     0.15271136
h     0.49674506     0.73797163     0.61212807
h     0.50326281     0.23797957     0.38787185
h     0.42105672     0.34269255     0.66605287
h     0.57894734     0.84269005     0.33394697
h     0.01989025     0.45647660     0.53543920
h     0.98010513     0.95647458     0.46456043
h     0.92385603     0.37066638     0.82071237
h     0.07614096     0.87065485     0.17929083
h     0.83738094     0.77611947     0.81863862
h     0.16261502     0.27611471     0.18136433
h     0.33630587     0.53966541     0.94984111
h     0.66369322     0.03966310     0.05015721
h     0.29199512     0.92793728     0.87320369
h     0.70800416     0.42793277     0.12679404

K_POINTS automatic
2 2 2 1 1 1

CELL_PARAMETERS cubic
    9.827737000000    -0.000010000000     0.346837000000
   -0.000005000000     8.059683000000    -0.000016000000
   -0.422793000000    -0.000027000000    15.396202000000
