&control
 title='crystal',
 prefix='crystal',
 pseudo_dir='.',
 calculation='vc-relax',
/
&system
 ibrav=0,
 celldm(1)=1.0,
 nat=    44,
 ntyp=  3,
 ecutwfc=60.0,
 ecutrho=600.0,
 xdm=.true.,
 xdm_a1=0.4073,
 xdm_a2=2.4150,
/
&electrons
 conv_thr = 1d-8,
/
&ions
/
&cell
/
ATOMIC_SPECIES
h      1.007940 h.UPF
c     12.010700 c.UPF
n     14.006700 n.UPF

ATOMIC_POSITIONS crystal
c     0.28875674     0.42558227     0.10322842
c     0.71124323     0.57441777     0.89677151
c     0.28875673     0.07441775     0.60322840
c     0.71124323     0.92558228     0.39677154
c     0.13812819     0.46533374     0.26124816
c     0.86187178     0.53466630     0.73875178
c     0.13812818     0.03466629     0.76124814
c     0.86187178     0.96533375     0.23875181
n     0.19457566     0.65606645     0.33040608
n     0.80542430     0.34393359     0.66959385
n     0.19457566     0.84393357     0.83040606
n     0.80542431     0.15606646     0.16959388
c     0.34719215     0.58491895     0.25572292
c     0.65280781     0.41508109     0.74427701
c     0.34719214     0.91508107     0.75572290
c     0.65280782     0.08491897     0.24427704
h     0.33470252     0.28009196     0.10818354
h     0.66529745     0.71990808     0.89181639
h     0.33470251     0.21990807     0.60818352
h     0.66529745     0.78009197     0.39181642
h     0.29158417     0.47054952     0.91424337
h     0.70841580     0.52945052     0.08575657
h     0.29158416     0.02945050     0.41424335
h     0.70841580     0.97054954     0.58575660
h     0.11365659     0.36338858     0.41443984
h     0.88634338     0.63661146     0.58556009
h     0.11365658     0.13661144     0.91443982
h     0.88634338     0.86338860     0.08556012
h     0.04231909     0.47380081     0.16980816
h     0.95768087     0.52619923     0.83019177
h     0.04231909     0.02619921     0.66980814
h     0.95768088     0.97380083     0.33019180
h     0.16939368     0.69327737     0.51164929
h     0.83060628     0.30672267     0.48835065
h     0.16939367     0.80672265     0.01164927
h     0.83060629     0.19327739     0.98835068
h     0.39461509     0.52351608     0.40783218
h     0.60538488     0.47648395     0.59216776
h     0.39461508     0.97648394     0.90783216
h     0.60538488     0.02351610     0.09216778
h     0.42406705     0.69169394     0.16084509
h     0.57593291     0.30830610     0.83915484
h     0.42406705     0.80830609     0.66084507
h     0.57593292     0.19169395     0.33915487

K_POINTS automatic
2 2 2 1 1 1

CELL_PARAMETERS cubic
   17.516560000000     0.000000000000    -0.168247000000
    0.000000000000    13.046892000000     0.000000000000
    1.870938000000     0.000000000000    10.370145000000
