&control
 title='crystal',
 prefix='crystal',
 pseudo_dir='.',
 calculation='vc-relax',
/
&system
 ibrav=0,
 celldm(1)=1.0,
 nat=    44,
 ntyp=  3,
 ecutwfc=60.0,
 ecutrho=600.0,
 xdm=.true.,
 xdm_a1=0.4073,
 xdm_a2=2.4150,
/
&electrons
 conv_thr = 1d-8,
/
&ions
/
&cell
/
ATOMIC_SPECIES
h      1.007940 h.UPF
c     12.010700 c.UPF
n     14.006700 n.UPF

ATOMIC_POSITIONS crystal
n     0.31763224     0.70297387     0.47145062
n     0.68236768     0.29702614     0.52854939
n     0.31763223     0.79702615     0.97145063
n     0.68236768     0.20297386     0.02854936
c     0.60699887     0.65345918     0.69853188
c     0.39300106     0.34654083     0.30146812
c     0.60699885     0.84654084     0.19853190
c     0.39300106     0.15345917     0.80146810
c     0.40251812     0.57876598     0.71278041
c     0.59748180     0.42123403     0.28721959
c     0.40251810     0.92123403     0.21278042
c     0.59748181     0.07876598     0.78721957
c     0.13576942     0.61517109     0.41767768
c     0.86423051     0.38482892     0.58232233
c     0.13576940     0.88482893     0.91767769
c     0.86423051     0.11517109     0.08232230
h     0.31465315     0.72618656     0.30141033
h     0.68534678     0.27381345     0.69858967
h     0.31465313     0.77381346     0.80141034
h     0.68534678     0.22618655     0.19858965
h     0.74292382     0.62277835     0.62721978
h     0.25707610     0.37722166     0.37278022
h     0.74292381     0.87722167     0.12721979
h     0.25707610     0.12277835     0.87278020
h     0.76529157     0.69660450     0.88633799
h     0.23470836     0.30339551     0.11366201
h     0.76529155     0.80339552     0.38633801
h     0.23470836     0.19660449     0.61366199
h     0.36419303     0.59475814     0.87540966
h     0.63580689     0.40524187     0.12459034
h     0.36419302     0.90524188     0.37540968
h     0.63580690     0.09475813     0.62459032
h     0.47000531     0.50481577     0.72881940
h     0.52999461     0.49518424     0.27118060
h     0.47000530     0.99518425     0.22881942
h     0.52999461     0.00481576     0.77118058
h     0.90528308     0.62604716     0.37435453
h     0.09471684     0.37395285     0.62564547
h     0.90528307     0.87395285     0.87435454
h     0.09471685     0.12604716     0.12564545
h     0.10612192     0.57135993     0.24633131
h     0.89387800     0.42864008     0.75366869
h     0.10612191     0.92864009     0.74633133
h     0.89387800     0.07135992     0.25366867

K_POINTS automatic
2 2 2 1 1 1

CELL_PARAMETERS cubic
    9.939716000000     0.000000000000     0.379968000000
    0.000000000000    26.765785000000     0.000000000000
   -6.668515000000     0.000000000000     8.679861000000
