&control
 title='crystal',
 prefix='crystal',
 pseudo_dir='.',
 calculation='vc-relax',
/
&system
 ibrav=0,
 celldm(1)=1.0,
 nat=    44,
 ntyp=  3,
 ecutwfc=60.0,
 ecutrho=600.0,
 xdm=.true.,
 xdm_a1=0.4073,
 xdm_a2=2.4150,
/
&electrons
 conv_thr = 1d-8,
/
&ions
/
&cell
/
ATOMIC_SPECIES
h      1.007940 h.UPF
c     12.010700 c.UPF
n     14.006700 n.UPF

ATOMIC_POSITIONS crystal
n     0.57074637     0.02527101     0.22616337
n     0.42925360     0.97472902     0.77383660
n     0.57074634     0.47472900     0.72616336
n     0.42925363     0.52527102     0.27383661
c     0.47299085     0.90986408     0.10105158
c     0.52700912     0.09013595     0.89894839
c     0.47299083     0.59013594     0.60105157
c     0.52700914     0.40986409     0.39894840
c     0.75144736     0.01039868     0.20572674
c     0.24855261     0.98960134     0.79427323
c     0.75144733     0.48960133     0.70572672
c     0.24855263     0.51039869     0.29427325
c     0.85962708     0.02217512     0.34293631
c     0.14037289     0.97782491     0.65706366
c     0.85962705     0.47782489     0.84293630
c     0.14037291     0.52217513     0.15706367
h     0.53445891     0.86489005     0.25216721
h     0.46554106     0.13510997     0.74783276
h     0.53445889     0.63510996     0.75216719
h     0.46554108     0.36489007     0.24783278
h     0.43925239     0.64659679     0.08217208
h     0.56074758     0.35340324     0.91782789
h     0.43925236     0.85340323     0.58217207
h     0.56074760     0.14659680     0.41782790
h     0.28756687     0.03180981     0.98655558
h     0.71243310     0.96819022     0.01344439
h     0.28756684     0.46819020     0.48655557
h     0.71243312     0.53180982     0.51344440
h     0.74354218     0.24924743     0.17479081
h     0.25645779     0.75075260     0.82520916
h     0.74354215     0.25075259     0.67479080
h     0.25645781     0.74924744     0.32520917
h     0.85039147     0.83975624     0.21640704
h     0.14960850     0.16024379     0.78359293
h     0.85039144     0.66024378     0.71640702
h     0.14960852     0.33975625     0.28359294
h     0.98407543     0.23181986     0.42242528
h     0.01592454     0.76818016     0.57757469
h     0.98407540     0.26818015     0.92242527
h     0.01592457     0.73181988     0.07757470
h     0.97250277     0.80120019     0.41533894
h     0.02749720     0.19879984     0.58466103
h     0.97250274     0.69879983     0.91533893
h     0.02749722     0.30120020     0.08466104

K_POINTS automatic
2 2 2 1 1 1

CELL_PARAMETERS cubic
   18.998289000000     0.000000000000     0.426749000000
    0.000000000000     7.816039000000     0.000000000000
  -29.316450000000     0.000000000000    15.341899000000
