&control
 title='crystal',
 prefix='crystal',
 pseudo_dir='.',
 calculation='vc-relax',
/
&system
 ibrav=0,
 celldm(1)=1.0,
 nat=    88,
 ntyp=  3,
 ecutwfc=60.0,
 ecutrho=600.0,
 xdm=.true.,
 xdm_a1=0.4073,
 xdm_a2=2.4150,
/
&electrons
 conv_thr = 1d-8,
/
&ions
/
&cell
/
ATOMIC_SPECIES
h      1.007940 h.UPF
c     12.010700 c.UPF
n     14.006700 n.UPF

ATOMIC_POSITIONS crystal
n     0.37558732     0.53182608     0.63802383
n     0.62441270     0.46817393     0.36197617
n     0.37558732     0.96817393     0.13802384
n     0.62441271     0.03182607     0.86197615
c     0.33252464     0.60154318     0.48332703
c     0.66747538     0.39845682     0.51667297
c     0.33252464     0.89845682     0.98332704
c     0.66747539     0.10154318     0.01667296
c     0.24970947     0.73191407     0.52385284
c     0.75029055     0.26808594     0.47614716
c     0.24970947     0.76808594     0.02385284
c     0.75029056     0.23191406     0.97614715
c     0.24376089     0.62021446     0.64320895
c     0.75623913     0.37978555     0.35679105
c     0.24376089     0.87978555     0.14320896
c     0.75623914     0.12021445     0.85679104
n     0.34017105     0.19242033     0.60489978
n     0.65982897     0.80757968     0.39510022
n     0.34017105     0.30757968     0.10489978
n     0.65982898     0.69242032     0.89510021
c     0.30743006     0.14903023     0.44410049
c     0.69256996     0.85096978     0.55589951
c     0.30743006     0.35096978     0.94410050
c     0.69256996     0.64903022     0.05589950
c     0.12498557     0.14768836     0.39143570
c     0.87501445     0.85231164     0.60856430
c     0.12498557     0.35231164     0.89143570
c     0.87501445     0.64768836     0.10856429
c     0.17452781     0.14364869     0.56746048
c     0.82547221     0.85635131     0.43253952
c     0.17452781     0.35635131     0.06746049
c     0.82547222     0.64364869     0.93253951
h     0.36490003     0.41452187     0.63659319
h     0.63509999     0.58547814     0.36340681
h     0.36490003     0.08547814     0.13659319
h     0.63509999     0.91452186     0.86340680
h     0.43198438     0.13095496     0.69388025
h     0.56801565     0.86904504     0.30611975
h     0.43198437     0.36904504     0.19388026
h     0.56801565     0.63095496     0.80611973
h     0.43418832     0.62903860     0.46287781
h     0.56581171     0.37096141     0.53712219
h     0.43418831     0.87096141     0.96287782
h     0.56581171     0.12903859     0.03712218
h     0.24495416     0.53313071     0.38377832
h     0.75504586     0.46686930     0.61622168
h     0.24495416     0.96686930     0.88377832
h     0.75504586     0.03313070     0.11622167
h     0.33326573     0.82559900     0.58278044
h     0.66673429     0.17440101     0.41721956
h     0.33326573     0.67440101     0.08278044
h     0.66673430     0.32559899     0.91721955
h     0.13602919     0.77631911     0.43113317
h     0.86397083     0.22368090     0.56886683
h     0.13602919     0.72368090     0.93113318
h     0.86397084     0.27631910     0.06886682
h     0.27160576     0.66437934     0.75892860
h     0.72839426     0.33562067     0.24107140
h     0.27160576     0.83562067     0.25892860
h     0.72839426     0.16437933     0.74107139
h     0.12817221     0.55803320     0.59423092
h     0.87182781     0.44196680     0.40576908
h     0.12817221     0.94196680     0.09423093
h     0.87182782     0.05803320     0.90576907
h     0.35076864     0.23025819     0.38707213
h     0.64923138     0.76974181     0.61292787
h     0.35076864     0.26974181     0.88707213
h     0.64923138     0.73025819     0.11292786
h     0.35378257     0.03584622     0.43850014
h     0.64621745     0.96415379     0.56149986
h     0.35378257     0.46415379     0.93850014
h     0.64621746     0.53584621     0.06149985
h     0.06548981     0.25438755     0.33592145
h     0.93451021     0.74561245     0.66407855
h     0.06548981     0.24561245     0.83592145
h     0.93451022     0.75438755     0.16407854
h     0.05393369     0.05253842     0.31895841
h     0.94606633     0.94746159     0.68104159
h     0.05393369     0.44746159     0.81895842
h     0.94606633     0.55253841     0.18104157
h     0.11228689     0.22183122     0.60860967
h     0.88771314     0.77816879     0.39139033
h     0.11228688     0.27816879     0.10860968
h     0.88771314     0.72183121     0.89139031
h     0.16947151     0.02851387     0.60909530
h     0.83052851     0.97148613     0.39090470
h     0.16947151     0.47148613     0.10909530
h     0.83052852     0.52851387     0.89090469

K_POINTS automatic
2 2 2 1 1 1

CELL_PARAMETERS cubic
   17.841931000000     0.000000000000    -0.167128000000
    0.000000000000    16.644494000000     0.000000000000
   -8.623983000000     0.000000000000    16.227884000000
