&control
 title='crystal',
 prefix='crystal',
 pseudo_dir='.',
 calculation='vc-relax',
/
&system
 ibrav=0,
 celldm(1)=1.0,
 nat=    22,
 ntyp=  3,
 ecutwfc=60.0,
 ecutrho=600.0,
 xdm=.true.,
 xdm_a1=0.4073,
 xdm_a2=2.4150,
/
&electrons
 conv_thr = 1d-8,
/
&ions
/
&cell
/
ATOMIC_SPECIES
h      1.007940 h.UPF
c     12.010700 c.UPF
n     14.006700 n.UPF

ATOMIC_POSITIONS crystal
n     0.15190214     0.72181872     0.22820943
n     0.84809774     0.27818122     0.77179060
h     0.26450687     0.68136146     0.24758395
h     0.73549300     0.31863848     0.75241608
c     0.16308117     0.88897198     0.38749242
c     0.83691871     0.11102795     0.61250761
h     0.35485324     0.03730392     0.48599101
h     0.64514663     0.96269602     0.51400902
h     0.92535526     0.66937364     0.46416003
h     0.07464461     0.33062630     0.53584000
c     0.35370963     0.08779438     0.11330601
c     0.64629025     0.91220555     0.88669402
h     0.61993357     0.31279745     0.10636302
h     0.38006630     0.68720248     0.89363701
h     0.26312249     0.01891987     0.97402281
h     0.73687738     0.98108006     0.02597722
c     0.26958536     0.19090067     0.25516928
c     0.73041451     0.80909927     0.74483075
h     0.47433147     0.50376802     0.29713547
h     0.52566841     0.49623191     0.70286456
h     0.06170338     0.09069417     0.21625812
h     0.93829649     0.90930576     0.78374191

K_POINTS automatic
2 2 2 1 1 1

CELL_PARAMETERS cubic
   13.485876000000    -0.029790000000     0.077939000000
   -9.158894000000     6.292855000000     0.092265000000
    0.102364000000     0.140642000000    13.775168000000
