&control
 title='crystal',
 prefix='crystal',
 pseudo_dir='.',
 calculation='vc-relax',
/
&system
 ibrav=0,
 celldm(1)=1.0,
 nat=    22,
 ntyp=  3,
 ecutwfc=60.0,
 ecutrho=600.0,
 xdm=.true.,
 xdm_a1=0.4073,
 xdm_a2=2.4150,
/
&electrons
 conv_thr = 1d-8,
/
&ions
/
&cell
/
ATOMIC_SPECIES
h      1.007940 h.UPF
c     12.010700 c.UPF
n     14.006700 n.UPF

ATOMIC_POSITIONS crystal
n     0.23718952     0.16681315     0.11260978
n     0.76281043     0.83318687     0.88739029
h     0.44357934     0.03358177     0.17311743
h     0.55642062     0.96641825     0.82688264
c     0.96218652     0.17836474     0.17861809
c     0.03781344     0.82163528     0.82138197
h     0.03546767     0.04987080     0.32218413
h     0.96453229     0.95012922     0.67781593
h     0.74084899     0.21367112     0.98566790
h     0.25915096     0.78632890     0.01433216
c     0.27069522     0.29078161     0.31357277
c     0.72930473     0.70921841     0.68642730
h     0.48854653     0.21517555     0.52090424
h     0.51145342     0.78482447     0.47909582
h     0.27488189     0.40853296     0.21975596
h     0.72511806     0.59146706     0.78024411
c     0.94236263     0.33842854     0.33527980
c     0.05763732     0.66157148     0.66472026
h     0.95581652     0.31776445     0.55488705
h     0.04418343     0.68223558     0.44511302
h     0.73103611     0.47939285     0.21022332
h     0.26896384     0.52060717     0.78977675

K_POINTS automatic
2 2 2 1 1 1

CELL_PARAMETERS cubic
    9.463359000000     0.946145000000    -0.541072000000
    6.346671000000    14.434207000000    -0.777819000000
   -2.964209000000     1.985583000000     8.865792000000
