&control
 title='crystal',
 prefix='crystal',
 pseudo_dir='.',
 calculation='vc-relax',
/
&system
 ibrav=0,
 celldm(1)=1.0,
 nat=    22,
 ntyp=  3,
 ecutwfc=60.0,
 ecutrho=600.0,
 xdm=.true.,
 xdm_a1=0.4073,
 xdm_a2=2.4150,
/
&electrons
 conv_thr = 1d-8,
/
&ions
/
&cell
/
ATOMIC_SPECIES
h      1.007940 h.UPF
c     12.010700 c.UPF
n     14.006700 n.UPF

ATOMIC_POSITIONS crystal
n     0.50516273     0.19407394     0.48267492
n     0.49484709     0.69407939     0.51731400
h     0.59451670     0.09476705     0.38202140
h     0.40547628     0.59475754     0.61798659
c     0.21083069     0.15382241     0.45912811
c     0.78917629     0.65383486     0.54088277
h     0.15084065     0.00678935     0.38570899
h     0.84915940     0.50678360     0.61428991
h     0.07418828     0.26020187     0.33701943
h     0.92580562     0.76019478     0.66297558
c     0.56045942     0.15538386     0.77877894
c     0.43952957     0.65539866     0.22121529
h     0.64013063     0.00904506     0.83331460
h     0.35986812     0.50904066     0.16668349
h     0.69373460     0.26285808     0.90236308
h     0.30627209     0.76285291     0.09764441
c     0.25400277     0.16998570     0.76826250
c     0.74600131     0.66996237     0.23173214
h     0.16545196     0.05494813     0.86883478
h     0.83454181     0.55495916     0.13117109
h     0.19305512     0.31040522     0.83591463
h     0.80694757     0.81041592     0.16408371

K_POINTS automatic
2 2 2 1 1 1

CELL_PARAMETERS cubic
    9.558772000000     0.000081000000     0.374986000000
    0.000111000000    13.020254000000    -0.000088000000
   -2.543529000000    -0.000086000000     9.278949000000
