&control
 title='crystal',
 prefix='crystal',
 pseudo_dir='.',
 calculation='vc-relax',
/
&system
 ibrav=0,
 celldm(1)=1.0,
 nat=    22,
 ntyp=  3,
 ecutwfc=60.0,
 ecutrho=600.0,
 xdm=.true.,
 xdm_a1=0.4073,
 xdm_a2=2.4150,
/
&electrons
 conv_thr = 1d-8,
/
&ions
/
&cell
/
ATOMIC_SPECIES
h      1.007940 h.UPF
c     12.010700 c.UPF
n     14.006700 n.UPF

ATOMIC_POSITIONS crystal
c     0.80820964     0.10267140     0.15550497
c     0.10267050     0.80820979     0.84449470
c     0.79744017     0.35981706     0.22228427
c     0.35981616     0.79744032     0.77771541
h     0.01179109     0.20638173     0.07435388
h     0.20638083     0.01179124     0.92564580
h     0.55966056     0.87980398     0.10426189
h     0.87980308     0.55966071     0.89573779
h     0.58977491     0.35069763     0.17866018
h     0.35069674     0.58977506     0.82133949
h     0.04527491     0.62904046     0.21314940
h     0.62903956     0.04527506     0.78685028
n     0.74478956     0.19808433     0.38012250
n     0.19808344     0.74478971     0.61987718
c     0.86298403     0.03072982     0.32548758
c     0.03072892     0.86298418     0.67451210
h     0.70636737     0.76024951     0.36425451
h     0.76024861     0.70636752     0.63574516
h     0.13548187     0.17023635     0.35566492
h     0.17023546     0.13548202     0.64433476
h     0.90113327     0.37193940     0.46731192
h     0.37193850     0.90113342     0.53268775

K_POINTS automatic
2 2 2 1 1 1

CELL_PARAMETERS cubic
    9.932814000000     0.046656000000    -0.189325000000
   -6.741736000000     7.294665000000     0.189324000000
   -0.865307000000     0.376127000000    16.270473000000
