&control
 title='crystal',
 prefix='crystal',
 pseudo_dir='.',
 calculation='vc-relax',
/
&system
 ibrav=0,
 celldm(1)=1.0,
 nat=    44,
 ntyp=  3,
 ecutwfc=60.0,
 ecutrho=600.0,
 xdm=.true.,
 xdm_a1=0.4073,
 xdm_a2=2.4150,
/
&electrons
 conv_thr = 1d-8,
/
&ions
/
&cell
/
ATOMIC_SPECIES
h      1.007940 h.UPF
c     12.010700 c.UPF
n     14.006700 n.UPF

ATOMIC_POSITIONS crystal
c     0.47758948     0.49705278     0.81703776
c     0.52241061     0.50294722     0.18296229
c     0.49705305     0.47758961     0.68296246
c     0.50294704     0.52241039     0.31703759
c     0.24943530     0.73511389     0.66873473
c     0.75056479     0.26488611     0.33126532
c     0.73511647     0.24943818     0.83126507
c     0.26488363     0.75056182     0.16873498
h     0.68219043     0.61923923     0.81647219
h     0.31780966     0.38076077     0.18352786
h     0.61924119     0.68219093     0.68352838
h     0.38075890     0.31780907     0.31647167
h     0.29083212     0.20356196     0.84567624
h     0.70916797     0.79643804     0.15432381
h     0.20356293     0.29083382     0.65432364
h     0.79643716     0.70916618     0.34567641
h     0.94814137     0.65057757     0.57924178
h     0.05185872     0.34942243     0.42075827
h     0.65057600     0.94813948     0.92075838
h     0.34942409     0.05186052     0.07924167
h     0.39783243     0.04368695     0.60344140
h     0.60216767     0.95631305     0.39655866
h     0.04368571     0.39783082     0.89655867
h     0.95631438     0.60216918     0.10344138
n     0.31163315     0.62716583     0.78209072
n     0.68836694     0.37283417     0.21790933
n     0.62716414     0.31163325     0.71790886
n     0.37283596     0.68836676     0.28209119
c     0.63714530     0.52467237     0.91821527
c     0.36285479     0.47532763     0.08178478
c     0.52467207     0.63714611     0.58178431
c     0.47532802     0.36285389     0.41821574
h     0.65521042     0.26390496     0.03542042
h     0.34478967     0.73609504     0.96457963
h     0.26390560     0.65521096     0.46457982
h     0.73609449     0.34478904     0.53542023
h     0.91751519     0.76245323     0.93760073
h     0.08248490     0.23754677     0.06239932
h     0.76245403     0.91751614     0.56239931
h     0.23754606     0.08248386     0.43760074
h     0.39252978     0.85574213     0.75354137
h     0.60747032     0.14425788     0.24645868
h     0.85574237     0.39253070     0.74645822
h     0.14425772     0.60746930     0.25354183

K_POINTS automatic
2 2 2 1 1 1

CELL_PARAMETERS cubic
   19.568773000000    -0.008229000000    -0.313777000000
  -17.950912000000     7.791114000000     0.313772000000
  -46.892451000000     9.747682000000    16.271430000000
