&control
 title='crystal',
 prefix='crystal',
 pseudo_dir='.',
 calculation='vc-relax',
/
&system
 ibrav=0,
 celldm(1)=1.0,
 nat=    22,
 ntyp=  3,
 ecutwfc=60.0,
 ecutrho=600.0,
 xdm=.true.,
 xdm_a1=0.4073,
 xdm_a2=2.4150,
/
&electrons
 conv_thr = 1d-8,
/
&ions
/
&cell
/
ATOMIC_SPECIES
h      1.007940 h.UPF
c     12.010700 c.UPF
n     14.006700 n.UPF

ATOMIC_POSITIONS crystal
n     0.00008026     0.09058929     0.93553652
n     0.00008026     0.90941068     0.43553650
c     0.99992546     0.36733257     0.10735869
c     0.99992546     0.63266739     0.60735867
c     0.27018514     0.24522485     0.12197574
c     0.27018514     0.75477511     0.62197572
c     0.72979182     0.24510011     0.85183145
c     0.72979182     0.75489986     0.35183143
h     0.99997342     0.32650658     0.26607238
h     0.99997343     0.67349338     0.76607236
h     0.99981562     0.53525395     0.09148651
h     0.99981563     0.46474602     0.59148649
h     0.49398421     0.18124805     0.31181141
h     0.49398421     0.81875192     0.81181139
h     0.36196360     0.33345020     0.03812821
h     0.36196360     0.66654977     0.53812819
h     0.50610028     0.18101413     0.81796375
h     0.50610029     0.81898584     0.31796373
h     0.63786269     0.33328257     0.67614806
h     0.63786269     0.66671740     0.17614804
h     0.00008731     0.04614766     0.78836738
h     0.00008731     0.95385231     0.28836736

K_POINTS automatic
2 2 2 1 1 1

CELL_PARAMETERS cubic
    9.701880000000     0.000000000000     0.135930000000
    0.000000000000    12.251522000000     0.000000000000
   -8.366158000000     0.000000000000     9.475368000000
