&control
 title='crystal',
 prefix='crystal',
 pseudo_dir='.',
 calculation='vc-relax',
/
&system
 ibrav=0,
 celldm(1)=1.0,
 nat=    44,
 ntyp=  3,
 ecutwfc=60.0,
 ecutrho=600.0,
 xdm=.true.,
 xdm_a1=0.4073,
 xdm_a2=2.4150,
/
&electrons
 conv_thr = 1d-8,
/
&ions
/
&cell
/
ATOMIC_SPECIES
h      1.007940 h.UPF
c     12.010700 c.UPF
n     14.006700 n.UPF

ATOMIC_POSITIONS crystal
n     0.39138004     0.29494413     0.30235416
n     0.60861999     0.70505579     0.69764585
n     0.60861555     0.79494970     0.19764716
n     0.39138449     0.20505022     0.80235285
h     0.46542073     0.12630679     0.26174913
h     0.53457931     0.87369314     0.73825088
h     0.53459689     0.62624851     0.23822554
h     0.46540315     0.37375142     0.76177447
c     0.33306007     0.21396414     0.43385699
c     0.66693996     0.78603579     0.56614302
c     0.66693723     0.71397763     0.06614393
c     0.33306281     0.28602229     0.93385608
h     0.39495491     0.34085123     0.51584250
h     0.60504512     0.65914869     0.48415751
h     0.60503233     0.84085423     0.98416005
h     0.39496770     0.15914569     0.01583996
h     0.33821191     0.95885821     0.45497326
h     0.66178812     0.04114172     0.54502675
h     0.66177972     0.45886885     0.04503194
h     0.33822031     0.54113108     0.95496807
c     0.21901527     0.29736310     0.24766595
c     0.78098477     0.70263682     0.75233407
c     0.78098561     0.79737262     0.25233499
c     0.21901442     0.20262730     0.74766502
h     0.18123009     0.07377573     0.19984120
h     0.81876994     0.92622419     0.80015881
h     0.81876976     0.57378943     0.30016373
h     0.18123027     0.42621049     0.69983629
h     0.18930097     0.49254800     0.17970727
h     0.81069906     0.50745192     0.82029275
h     0.81070943     0.99254689     0.32029915
h     0.18929060     0.00745304     0.67970087
c     0.15925113     0.32376737     0.38799238
c     0.84074890     0.67623256     0.61200763
c     0.84074432     0.82376082     0.11200806
c     0.15925571     0.17623911     0.88799195
h     0.13422275     0.56786406     0.41609167
h     0.86577728     0.43213586     0.58390834
h     0.86576970     0.06785812     0.08390935
h     0.13423033     0.93214180     0.91609066
h     0.05610055     0.17471524     0.41310706
h     0.94389949     0.82528468     0.58689295
h     0.94389754     0.67469793     0.08689869
h     0.05610250     0.32530199     0.91310132

K_POINTS automatic
2 2 2 1 1 1

CELL_PARAMETERS cubic
   15.405962000000     0.000132000000    -1.035002000000
    0.000061000000     8.001652000000    -0.000060000000
    0.298653000000    -0.000157000000    19.330154000000
