&control
 title='crystal',
 prefix='crystal',
 pseudo_dir='.',
 calculation='vc-relax',
/
&system
 ibrav=0,
 celldm(1)=1.0,
 nat=    62,
 ntyp=  3,
 ecutwfc=60.0,
 ecutrho=600.0,
 xdm=.true.,
 xdm_a1=0.4073,
 xdm_a2=2.4150,
/
&electrons
 conv_thr = 1d-8,
/
&ions
/
&cell
/
ATOMIC_SPECIES
h      1.007940 h.UPF
c     12.010700 c.UPF
o     15.999400 o.UPF

ATOMIC_POSITIONS crystal
o     0.73057200     0.94258930     0.00676726
o     0.26942798     0.05741072     0.99323273
h     0.83173943     0.98273604     0.94086705
h     0.16826054     0.01726398     0.05913295
o     0.03960865     0.96131866     0.16872510
o     0.96039133     0.03868136     0.83127490
o     0.33089518     0.70393484     0.51481890
o     0.66910479     0.29606518     0.48518109
c     0.84049305     0.93031930     0.13667108
c     0.15950692     0.06968071     0.86332891
c     0.71224752     0.87701358     0.23946612
c     0.28775246     0.12298643     0.76053387
c     0.49341624     0.85598424     0.20574255
c     0.50658374     0.14401578     0.79425745
h     0.42028897     0.88370342     0.10402610
h     0.57971101     0.11629659     0.89597389
c     0.37165407     0.80090874     0.30087718
c     0.62834590     0.19909128     0.69912282
h     0.20320835     0.78599666     0.27558698
h     0.79679162     0.21400335     0.72441301
c     0.46554937     0.76366359     0.43203629
c     0.53445061     0.23633643     0.56796371
c     0.68521992     0.78710808     0.46859992
c     0.31478005     0.21289193     0.53140007
h     0.76203037     0.76270501     0.57114699
h     0.23796961     0.23729500     0.42885300
c     0.80624335     0.84370355     0.37248019
c     0.19375662     0.15629647     0.62751980
h     0.97588545     0.86122563     0.39967847
h     0.02411453     0.13877438     0.60032153
c     0.41609845     0.65561680     0.64638919
c     0.58390153     0.34438322     0.35361081
h     0.54866468     0.75990735     0.72708325
h     0.45133529     0.24009266     0.27291675
h     0.48188996     0.56988209     0.61315596
h     0.51811002     0.43011793     0.38684404
c     0.23454379     0.58153233     0.71531288
c     0.76545619     0.41846768     0.28468711
h     0.10506605     0.47888975     0.63039127
h     0.89493393     0.52111026     0.36960873
c     0.14035428     0.70007256     0.75978880
c     0.85964570     0.29992746     0.24021120
h     0.08096813     0.73810930     0.65917555
h     0.91903185     0.26189072     0.34082444
h     0.27477687     0.80605884     0.83660514
h     0.72522311     0.19394118     0.16339486
c     0.95928122     0.63708874     0.83302212
c     0.04071876     0.36291128     0.16697787
h     0.89091165     0.72364074     0.85557743
h     0.10908832     0.27635927     0.14442257
h     0.01864442     0.61047660     0.94054965
h     0.98135556     0.38952342     0.05945034
h     0.82601646     0.52798291     0.76094722
h     0.17398351     0.47201711     0.23905277
c     0.32749181     0.52502692     0.84987702
c     0.67250817     0.47497310     0.15012297
h     0.41676023     0.45580547     0.82016229
h     0.58323975     0.54419454     0.17983770
h     0.19930925     0.45023289     0.89170165
h     0.80069073     0.54976713     0.10829834
h     0.43904104     0.62614048     0.94262007
h     0.56095894     0.37385954     0.05737993

K_POINTS automatic
2 2 2 1 1 1

CELL_PARAMETERS cubic
   13.061136000000    -0.252941000000    -0.326434000000
   -6.159913000000    16.543829000000    -0.202726000000
   -3.604345000000    -3.543405000000    17.013964000000
