&control
 title='crystal',
 prefix='crystal',
 pseudo_dir='.',
 calculation='vc-relax',
/
&system
 ibrav=0,
 celldm(1)=1.0,
 nat=   100,
 ntyp=  4,
 ecutwfc=60.0,
 ecutrho=600.0,
 xdm=.true.,
 xdm_a1=0.4073,
 xdm_a2=2.4150,
/
&electrons
 conv_thr = 1d-8,
/
&ions
/
&cell
/
ATOMIC_SPECIES
h      1.007940 h.UPF
c     12.010700 c.UPF
n     14.006700 n.UPF
o     15.999400 o.UPF

ATOMIC_POSITIONS crystal
n     0.04972891     0.18289990     0.66892451
n     0.95027112     0.68289988     0.83107553
n     0.45028280     0.81709948     0.16893594
n     0.54971723     0.31709946     0.33106411
c     0.05682933     0.12155417     0.54768982
c     0.94317070     0.62155415     0.95231022
c     0.44316993     0.87845100     0.04770146
c     0.55683011     0.37845099     0.45229859
o     0.16599174     0.04810501     0.51106871
o     0.83400829     0.54810500     0.98893134
o     0.33403367     0.95190231     0.01108317
o     0.66596637     0.45190229     0.48891687
c     0.92573466     0.26973086     0.71938092
c     0.07426538     0.76973085     0.78061913
c     0.57428222     0.73029746     0.21939305
c     0.42571782     0.23029744     0.28060699
h     0.85393421     0.31197147     0.64176664
h     0.14606582     0.81197145     0.85823340
h     0.64606730     0.68802686     0.14177090
h     0.35393274     0.18802685     0.35822914
h     0.97157281     0.36248958     0.77388931
h     0.02842722     0.86248956     0.72611074
h     0.52847242     0.63755584     0.27394044
h     0.47152761     0.13755582     0.22605961
h     0.85598427     0.20572965     0.78679724
h     0.14401577     0.70572963     0.71320280
h     0.64405362     0.79432392     0.28676594
h     0.35594641     0.29432390     0.21323411
c     0.16889541     0.15444428     0.76311077
c     0.83110462     0.65444426     0.73688928
c     0.33108470     0.84553522     0.26311659
c     0.66891534     0.34553520     0.23688346
h     0.25951787     0.09542574     0.71529211
h     0.74048217     0.59542572     0.78470793
h     0.24048417     0.90456504     0.21531377
h     0.75951586     0.40456502     0.28468628
h     0.12742260     0.08971379     0.84556910
h     0.87257744     0.58971377     0.65443094
h     0.37255388     0.91023288     0.34559886
h     0.62744615     0.41023286     0.15440118
h     0.21162530     0.25804921     0.80129094
h     0.78837474     0.75804919     0.69870910
h     0.28835376     0.74191300     0.30127202
h     0.71164628     0.24191298     0.19872803
c     0.91974210     0.14124775     0.45766581
c     0.08025794     0.64124773     0.04233424
c     0.58028147     0.85875933     0.95767955
c     0.41971857     0.35875931     0.54232050
h     0.88321099     0.25523163     0.46063462
h     0.11678904     0.75523161     0.03936542
h     0.61682611     0.74478672     0.96064492
h     0.38317392     0.24478670     0.53935512
c     0.79142656     0.04138254     0.50052647
c     0.20857348     0.54138253     0.99947358
c     0.70857920     0.95864091     0.00053838
c     0.29142084     0.45864089     0.49946166
h     0.69771867     0.05194901     0.43192066
h     0.30228136     0.55194899     0.06807939
h     0.80229567     0.94809343     0.93192861
h     0.19770436     0.44809341     0.56807144
h     0.74944162     0.07040244     0.59742081
h     0.25055842     0.57040242     0.90257923
h     0.75055886     0.92961938     0.09743126
h     0.24944117     0.42961936     0.40256879
h     0.82779059     0.92738204     0.50120962
h     0.17220945     0.42738202     0.99879043
h     0.67219494     0.07263248     0.00123008
h     0.32780509     0.57263246     0.49876996
n     0.95863403     0.10835956     0.32333789
n     0.04136601     0.60835954     0.17666215
n     0.54139149     0.89163451     0.82334368
n     0.45860855     0.39163449     0.67665637
h     0.94752772     0.00207568     0.29097808
h     0.05247231     0.50207566     0.20902197
h     0.55250632     0.99791124     0.79097811
h     0.44749371     0.49791122     0.70902194
o     0.05444538     0.33286325     0.28411474
o     0.94555465     0.83286324     0.21588531
o     0.44554164     0.66713986     0.78413855
o     0.55445839     0.16713984     0.71586149
c     0.02187939     0.20755089     0.24447836
c     0.97812065     0.70755087     0.25552168
c     0.47814214     0.79245114     0.74449982
c     0.52185790     0.29245112     0.75550023
c     0.04669607     0.16235947     0.10460927
c     0.95330396     0.66235945     0.39539077
c     0.45337910     0.83761666     0.60461595
c     0.54662094     0.33761664     0.89538410
h     0.16601904     0.16860509     0.08039964
h     0.83398099     0.66860508     0.41960041
h     0.33406470     0.83136455     0.58038286
h     0.66593534     0.33136453     0.91961719
h     0.98616196     0.23918868     0.04170793
h     0.01383807     0.73918866     0.45829211
h     0.51392730     0.76076626     0.54174170
h     0.48607274     0.26076624     0.95825835
h     0.00858082     0.05132129     0.08542691
h     0.99141922     0.55132127     0.41457314
h     0.49150273     0.94864686     0.58542337
h     0.50849730     0.44864684     0.91457667

K_POINTS automatic
2 2 2 1 1 1

CELL_PARAMETERS cubic
   16.876351000000     0.000000000000     0.000146000000
    0.000000000000    17.358877000000     0.000000000000
    0.000169000000     0.000000000000    19.340179000000
