&control
 title='crystal',
 prefix='crystal',
 pseudo_dir='.',
 calculation='vc-relax',
/
&system
 ibrav=0,
 celldm(1)=1.0,
 nat=    76,
 ntyp=  4,
 ecutwfc=60.0,
 ecutrho=600.0,
 xdm=.true.,
 xdm_a1=0.4073,
 xdm_a2=2.4150,
/
&electrons
 conv_thr = 1d-8,
/
&ions
/
&cell
/
ATOMIC_SPECIES
h      1.007940 h.UPF
c     12.010700 c.UPF
o     15.999400 o.UPF
f     18.998403 f.UPF

ATOMIC_POSITIONS crystal
f     0.78502125     0.18806023     0.44815688
f     0.21497873     0.81193974     0.55184312
f     0.21498453     0.68799247     0.05186181
f     0.78501544     0.31200750     0.94813819
o     0.61599250     0.72303994     0.49472886
o     0.38400747     0.27696003     0.50527114
o     0.38400116     0.22302387     0.00527678
o     0.61599881     0.77697610     0.99472322
o     0.45958961     0.94705080     0.39949978
o     0.54041036     0.05294917     0.60050022
o     0.54044465     0.44701246     0.10049437
o     0.45955532     0.55298751     0.89950563
o     0.52584756     0.63759982     0.27971650
o     0.47415242     0.36240015     0.72028350
o     0.47418335     0.13757745     0.22028527
o     0.52581662     0.86242252     0.77971473
c     0.55139335     0.76634182     0.41993273
c     0.44860663     0.23365815     0.58006727
c     0.44861776     0.26632004     0.08006085
c     0.55138222     0.73367993     0.91993915
c     0.60003510     0.56967980     0.35809073
c     0.39996487     0.43032017     0.64190927
c     0.39997986     0.06966585     0.14190986
c     0.60002012     0.93033412     0.85809014
c     0.77949171     0.55648458     0.36151401
c     0.22050826     0.44351539     0.63848599
c     0.22052225     0.05646571     0.13849138
c     0.77947773     0.94353426     0.86150862
c     0.86537843     0.36547856     0.40628018
c     0.13462155     0.63452141     0.59371982
c     0.13463449     0.86543680     0.09373017
c     0.86536548     0.13456317     0.90626983
c     0.02896972     0.34713293     0.41151074
c     0.97103026     0.65286704     0.58848926
c     0.97103758     0.84710300     0.08850267
c     0.02896240     0.15289697     0.91149733
c     0.11131005     0.53154302     0.37079216
c     0.88868992     0.46845695     0.62920784
c     0.88870809     0.03153330     0.12920840
c     0.11129189     0.96846667     0.87079160
c     0.02981043     0.72719496     0.32564511
c     0.97018955     0.27280501     0.67435489
c     0.97020174     0.22720015     0.17435107
c     0.02979824     0.77279981     0.82564893
c     0.86514983     0.73871889     0.32105101
c     0.13485015     0.26128108     0.67894899
c     0.13487197     0.23872694     0.17894743
c     0.86512801     0.76127303     0.82105257
h     0.58415194     0.86301890     0.53491684
h     0.41584803     0.13698107     0.46508316
h     0.41582664     0.36301461     0.96508819
h     0.58417334     0.63698536     0.03491181
h     0.55589772     0.38149378     0.37712587
h     0.44410225     0.61850619     0.62287413
h     0.44411007     0.88147594     0.12287089
h     0.55588991     0.11852403     0.87712911
h     0.51660274     0.47747071     0.24670768
h     0.48339723     0.52252926     0.75329232
h     0.48344038     0.97746588     0.25328318
h     0.51655960     0.02253409     0.74671682
h     0.08896118     0.19366090     0.44764875
h     0.91103880     0.80633907     0.55235125
h     0.91104743     0.69359409     0.05237127
h     0.08895254     0.30640588     0.94762873
h     0.23972806     0.52314412     0.37463898
h     0.76027192     0.47685584     0.62536102
h     0.76028120     0.02314132     0.12535639
h     0.23971877     0.97685865     0.87464361
h     0.09429324     0.87110251     0.29398726
h     0.90570673     0.12889745     0.70601274
h     0.90572188     0.37114200     0.20599860
h     0.09427810     0.62885797     0.79400140
h     0.80123999     0.88943065     0.28517322
h     0.19875999     0.11056932     0.71482678
h     0.19878034     0.38945603     0.21481678
h     0.80121963     0.61054394     0.78518322

K_POINTS automatic
2 2 2 1 1 1

CELL_PARAMETERS cubic
   16.038141000000    -0.000121000000    -0.005066000000
   -0.000063000000     9.777586000000    -0.000129000000
   -3.169760000000    -0.000376000000    30.879327000000
