&control
 title='crystal',
 prefix='crystal',
 pseudo_dir='.',
 calculation='vc-relax',
/
&system
 ibrav=0,
 celldm(1)=1.0,
 nat=    88,
 ntyp=  3,
 ecutwfc=60.0,
 ecutrho=600.0,
 xdm=.true.,
 xdm_a1=0.4073,
 xdm_a2=2.4150,
/
&electrons
 conv_thr = 1d-8,
/
&ions
/
&cell
/
ATOMIC_SPECIES
h      1.007940 h.UPF
c     12.010700 c.UPF
o     15.999400 o.UPF

ATOMIC_POSITIONS crystal
c     0.09408099     0.29444200     0.46666727
c     0.90591904     0.70555801     0.53333275
c     0.90593877     0.79449503     0.03333966
c     0.09406127     0.20550498     0.96666036
h     0.97809360     0.36257830     0.42558942
h     0.02190643     0.63742170     0.57441060
h     0.02191809     0.86263332     0.07441250
h     0.97808194     0.13736668     0.92558752
c     0.49215950     0.37764152     0.66275113
c     0.50784053     0.62235849     0.33724889
c     0.50786894     0.87770147     0.83724737
c     0.49213110     0.12229853     0.16275265
h     0.43662673     0.46568672     0.70746582
h     0.56337330     0.53431329     0.29253420
h     0.56340165     0.96575645     0.79254433
h     0.43659839     0.03424356     0.20745569
c     0.24088361     0.40384206     0.46982969
c     0.75911642     0.59615794     0.53017033
c     0.75911892     0.90386935     0.03017533
c     0.24088111     0.09613066     0.96982468
h     0.23018695     0.42885667     0.37318142
h     0.76981309     0.57114334     0.62681860
h     0.76980365     0.92886118     0.12682272
h     0.23019639     0.07113882     0.87317730
h     0.22374779     0.51708462     0.51123589
h     0.77625225     0.48291539     0.48876413
h     0.77623467     0.01712706     0.98877560
h     0.22376536     0.98287294     0.01122442
c     0.09632382     0.24437578     0.59556262
c     0.90367622     0.75562423     0.40443739
c     0.90368978     0.74443201     0.90444576
c     0.09631026     0.25556800     0.09555426
c     0.48513196     0.22624892     0.48189974
c     0.51486807     0.77375108     0.51810028
c     0.51487929     0.72626504     0.01808613
c     0.48512074     0.27373497     0.98191389
h     0.42318447     0.19410890     0.38552730
h     0.57681556     0.80589111     0.61447271
h     0.57681461     0.69410239     0.11446077
h     0.42318543     0.30589762     0.88553925
c     0.40920665     0.33511821     0.53926569
c     0.59079338     0.66488180     0.46073433
c     0.59080764     0.83514173     0.96073491
c     0.40919240     0.16485827     0.03926511
c     0.71910907     0.20012946     0.67017205
c     0.28089096     0.79987055     0.32982797
c     0.28087855     0.70025548     0.82981669
c     0.71912149     0.29974453     0.17018333
h     0.83873343     0.14702439     0.72045606
h     0.16126660     0.85297562     0.27954396
h     0.16122619     0.64719859     0.77954101
h     0.83877385     0.35280141     0.22045901
c     0.63855907     0.15850223     0.54687256
c     0.36144097     0.84149778     0.45312746
c     0.36142353     0.65857584     0.95311441
c     0.63857651     0.34142417     0.04688561
h     0.69434538     0.07057584     0.50253649
h     0.30565466     0.92942416     0.49746353
h     0.30561926     0.57066678     0.99744865
h     0.69438077     0.42933322     0.00255137
c     0.64616223     0.31065308     0.72769391
c     0.35383781     0.68934693     0.27230611
c     0.35384181     0.81076405     0.77230398
c     0.64615823     0.18923595     0.22769604
h     0.70967329     0.34630713     0.82298484
h     0.29032674     0.65369287     0.17701518
h     0.29033557     0.84646603     0.67701878
h     0.70966447     0.15353397     0.32298124
o     0.09644464     0.15897088     0.39242259
o     0.90355539     0.84102912     0.60757743
o     0.90359277     0.65901348     0.10759155
o     0.09640726     0.34098653     0.89240847
o     0.09940185     0.36844524     0.66738015
o     0.90059818     0.63155476     0.33261987
o     0.90059907     0.86850126     0.83261521
o     0.09940097     0.13149875     0.16738481
o     0.09242804     0.10528179     0.62767008
o     0.90757199     0.89471821     0.37232993
o     0.90759277     0.60533979     0.87235338
o     0.09240727     0.39466022     0.12764664
h     0.02337546     0.07320780     0.40413538
h     0.97662457     0.92679221     0.59586464
h     0.97662820     0.57323533     0.09585455
h     0.02337184     0.42676467     0.90414547
h     0.09573353     0.33815168     0.75326436
h     0.90426650     0.66184833     0.24673566
h     0.90425004     0.83819715     0.74673075
h     0.09574999     0.16180286     0.25326927

K_POINTS automatic
2 2 2 1 1 1

CELL_PARAMETERS cubic
   16.031861000000     0.000116000000     0.063191000000
    0.000112000000    15.923237000000     0.000488000000
   -7.080559000000     0.000575000000    20.362771000000
