## FHIaims input file generated by critic2.
lattice_vector 3.7699999980       0.0000000000       0.0000000000       
lattice_vector -1.8850000010      3.2649157717       0.0000000000       
lattice_vector 0.0000000000       0.0000000000       6.4280000000       
atom_frac  0.3333347900       0.6666673900       0.2383323000       Se
atom_frac  0.6666665100       0.3333332500       0.7616677000       Se
atom_frac  0.0000000000       0.0000000000       0.0000000000       Zr
