&control
 title='crystal',
 prefix='crystal',
 pseudo_dir='.',
 calculation='vc-relax',
/
&system
 ibrav=0,
 celldm(1)=1.0,
 nat=    52,
 ntyp=  4,
 ecutwfc=60.0,
 ecutrho=600.0,
 xdm=.true.,
 xdm_a1=0.4073,
 xdm_a2=2.4150,
/
&electrons
 conv_thr = 1d-8,
/
&ions
/
&cell
/
ATOMIC_SPECIES
h      1.007940 h.UPF
c     12.010700 c.UPF
n     14.006700 n.UPF
o     15.999400 o.UPF

ATOMIC_POSITIONS crystal
o     0.03761461     0.68071870     0.03386141
o     0.96238542     0.18071869     0.96613861
o     0.96259613     0.83055193     0.49316224
o     0.03740390     0.33055193     0.50683778
n     0.76116731     0.80654837     0.82596550
n     0.23883271     0.30654837     0.17403452
n     0.94398701     0.03655378     0.66455655
n     0.05601302     0.53655377     0.33544347
h     0.98898453     0.13091867     0.60067247
h     0.01101550     0.63091867     0.39932755
h     0.92716346     0.07102753     0.76859101
h     0.07283657     0.57102752     0.23140901
c     0.85810077     0.76633576     0.97823491
c     0.14189925     0.26633576     0.02176511
c     0.71136717     0.84384797     0.06577372
c     0.28863286     0.34384796     0.93422631
h     0.70110097     0.75902011     0.15842455
h     0.29889906     0.25902011     0.84157547
h     0.79721172     0.96222865     0.12027351
h     0.20278831     0.46222864     0.87972651
c     0.48008536     0.87938978     0.94020274
c     0.51991466     0.37938977     0.05979729
h     0.36289952     0.77089863     0.93132685
h     0.63710051     0.27089862     0.06867318
h     0.39243975     0.99288523     0.96333585
h     0.60756028     0.49288522     0.03666418
c     0.54130431     0.89874033     0.79105599
c     0.45869572     0.39874032     0.20894403
h     0.41186610     0.84205598     0.68993936
h     0.58813393     0.34205597     0.31006066
h     0.56309287     0.03385111     0.76442259
h     0.43690716     0.53385111     0.23557743
c     0.92179382     0.87431328     0.61309632
c     0.07820620     0.37431328     0.38690370
c     0.84688270     0.73743012     0.70769256
c     0.15311733     0.23743011     0.29230746
h     0.00478709     0.66743261     0.77213640
h     0.99521294     0.16743261     0.22786363
c     0.67750078     0.60748504     0.60330407
c     0.32249925     0.10748503     0.39669596
h     0.52686745     0.67470328     0.52548833
h     0.47313258     0.17470328     0.47451169
h     0.76608343     0.54564030     0.53137689
h     0.23391660     0.04564030     0.46862313
c     0.60109647     0.47303721     0.69703045
c     0.39890356     0.97303720     0.30296957
h     0.74803031     0.40424831     0.77663613
h     0.25196972     0.90424830     0.22336390
h     0.48678761     0.37855663     0.62148778
h     0.51321242     0.87855662     0.37851224
h     0.50394884     0.53128081     0.76551267
h     0.49605119     0.03128080     0.23448736

K_POINTS automatic
2 2 2 1 1 1

CELL_PARAMETERS cubic
   11.607068000000     0.000000000000    -0.078774000000
    0.000000000000    14.722591000000     0.000000000000
   -5.556529000000     0.000000000000    16.387415000000
