&control
 title='crystal',
 prefix='crystal',
 pseudo_dir='.',
 calculation='vc-relax',
/
&system
 ibrav=0,
 celldm(1)=1.0,
 nat=    48,
 ntyp=  5,
 ecutwfc=60.0,
 ecutrho=600.0,
 xdm=.true.,
 xdm_a1=0.4073,
 xdm_a2=2.4150,
/
&electrons
 conv_thr = 1d-8,
/
&ions
/
&cell
/
ATOMIC_SPECIES
h      1.007940 h.UPF
c     12.010700 c.UPF
n     14.006700 n.UPF
o     15.999400 o.UPF
cl    35.453000 cl.UPF

ATOMIC_POSITIONS crystal
cl    0.31328612     0.94956362     0.51978731
cl    0.68671385     0.44956362     0.48021267
o     0.11380476     0.17173748     0.90220504
o     0.88619521     0.67173748     0.09779494
o     0.97448483     0.57822594     0.89665261
o     0.02551514     0.07822594     0.10334737
o     0.18505904     0.31237294     0.68566129
o     0.81494093     0.81237294     0.31433869
o     0.76543797     0.07720038     0.74305291
o     0.23456200     0.57720038     0.25694707
o     0.74007391     0.22435670     0.92737772
o     0.25992606     0.72435670     0.07262226
n     0.69909649     0.17005171     0.82138353
n     0.30090348     0.67005171     0.17861645
c     0.05797130     0.42499206     0.85478138
c     0.94202867     0.92499206     0.14521860
c     0.10450974     0.53816922     0.73792450
c     0.89549023     0.03816922     0.26207548
c     0.99479670     0.60401311     0.64459437
c     0.00520327     0.10401311     0.35540561
c     0.30870952     0.29612720     0.72339225
c     0.69129045     0.79612720     0.27660773
c     0.38347971     0.11890884     0.65031422
c     0.61652026     0.61890884     0.34968577
c     0.51116460     0.08013764     0.68118431
c     0.48883537     0.58013764     0.31881567
c     0.56522249     0.21685084     0.78718780
c     0.43477748     0.71685084     0.21281218
c     0.49432297     0.39379441     0.86082469
c     0.50567700     0.89379441     0.13917529
c     0.36657939     0.43579623     0.82837126
c     0.63342058     0.93579623     0.17162872
h     0.15740259     0.75719805     0.75890266
h     0.84259738     0.25719805     0.24109732
h     0.56838164     0.94289806     0.62544583
h     0.43161832     0.44289806     0.37455415
h     0.53976748     0.49841484     0.94241112
h     0.46023249     0.99841484     0.05758886
h     0.31194407     0.57217510     0.88667161
h     0.68805589     0.07217510     0.11332837
h     0.93159365     0.77456802     0.68054706
h     0.06840632     0.27456802     0.31945292
h     0.94170373     0.38676854     0.62265576
h     0.05829624     0.88676854     0.37734422
h     0.02953676     0.69974336     0.56377247
h     0.97046321     0.19974336     0.43622752
h     0.07683602     0.11102574     0.98014885
h     0.92316395     0.61102574     0.01985113

K_POINTS automatic
2 2 2 1 1 1

CELL_PARAMETERS cubic
   20.182834000000     0.000000000000     0.042576000000
    0.000000000000     7.995615000000     0.000000000000
   -2.180769000000     0.000000000000    21.107527000000
