&control
 title='crystal',
 prefix='crystal',
 pseudo_dir='.',
 calculation='vc-relax',
/
&system
 ibrav=0,
 celldm(1)=1.0,
 nat=    68,
 ntyp=  4,
 ecutwfc=60.0,
 ecutrho=600.0,
 xdm=.true.,
 xdm_a1=0.4073,
 xdm_a2=2.4150,
/
&electrons
 conv_thr = 1d-8,
/
&ions
/
&cell
/
ATOMIC_SPECIES
h      1.007940 h.UPF
c     12.010700 c.UPF
n     14.006700 n.UPF
o     15.999400 o.UPF

ATOMIC_POSITIONS crystal
c     0.02667666     0.25953604     0.13418014
c     0.47332337     0.74046398     0.63418013
c     0.52667643     0.24046423     0.86581861
c     0.97332359     0.75953579     0.36581860
c     0.05524402     0.29215964     0.41411996
c     0.44475601     0.70784038     0.91411995
c     0.55524433     0.20784019     0.58587918
c     0.94475570     0.79215983     0.08587917
c     0.15568408     0.40508952     0.43664392
c     0.34431595     0.59491050     0.93664391
c     0.65568404     0.09491126     0.56335590
c     0.84431599     0.90508876     0.06335589
c     0.26308050     0.30513284     0.40372986
c     0.23691953     0.69486718     0.90372985
c     0.76308079     0.19486862     0.59627105
c     0.73691924     0.80513139     0.09627104
c     0.23216227     0.16207410     0.55306721
c     0.26783776     0.83792592     0.05306720
c     0.73216355     0.33792714     0.44693353
c     0.76783648     0.66207288     0.94693352
h     0.97892208     0.33259134     0.51636964
h     0.52107795     0.66740868     0.01636963
h     0.47892224     0.16740821     0.48362861
h     0.02107778     0.83259181     0.98362860
h     0.15339582     0.45657773     0.62596697
h     0.34660421     0.54342228     0.12596696
h     0.65339600     0.04342194     0.37403427
h     0.84660403     0.95657808     0.87403426
h     0.14808106     0.49619094     0.29730734
h     0.35191897     0.50380908     0.79730733
h     0.64807988     0.00381043     0.70269417
h     0.85192014     0.99618959     0.20269416
h     0.34179721     0.35905131     0.47642974
h     0.15820282     0.64094871     0.97642973
h     0.84179738     0.14095046     0.52357164
h     0.65820265     0.85904956     0.02357163
h     0.27874501     0.27777777     0.20366821
h     0.22125502     0.72222225     0.70366820
h     0.77874521     0.22222378     0.79633263
h     0.72125481     0.77777624     0.29633262
h     0.25711533     0.17206135     0.75301020
h     0.24288470     0.82793867     0.25301019
h     0.75711607     0.32793867     0.24698972
h     0.74288396     0.67206135     0.74698971
h     0.26990219     0.05774171     0.47812964
h     0.23009784     0.94225831     0.97812963
h     0.76990458     0.44225969     0.52186843
h     0.73009545     0.55774033     0.02186842
h     0.07145269     0.14660081     0.73661809
h     0.42854734     0.85339921     0.23661808
h     0.57145396     0.35339976     0.26338241
h     0.92854606     0.64660026     0.76338240
h     0.07372300     0.05274740     0.45459267
h     0.42627703     0.94725261     0.95459266
h     0.57372438     0.44725318     0.54540815
h     0.92627565     0.55274684     0.04540814
n     0.10117405     0.15259908     0.54418118
n     0.39882598     0.84740094     0.04418117
n     0.60117550     0.34740154     0.45581914
n     0.89882452     0.65259848     0.95581913
o     0.06353519     0.13475617     0.04352220
o     0.43646483     0.86524385     0.54352219
o     0.56353523     0.36524145     0.95647812
o     0.93646480     0.63475857     0.45647811
o     0.97240765     0.36044502     0.01285860
o     0.52759238     0.63955500     0.51285859
o     0.47240483     0.13955251     0.98713833
o     0.02759520     0.86044751     0.48713832

K_POINTS automatic
2 2 2 1 1 1

CELL_PARAMETERS cubic
   21.811267000000    -0.000053000000     0.000000000000
   -0.000045000000    16.668153000000     0.000000000000
    0.000000000000     0.000000000000     9.958820000000
