&control
 title='crystal',
 prefix='crystal',
 pseudo_dir='../..',
 forc_conv_thr=1.0D-4,
 etot_conv_thr=1.0D-5,
/
&system
 ibrav=0,
 nat=    58,
 ntyp=  3,
 ecutwfc=80.0,
 ecutrho=800.0,
 vdw_corr='xdm',
 nosym=.true.,
/
&electrons
 conv_thr = 1d-10,
/
&ions
/
&cell
 press_conv_thr=0.01,
/
ATOMIC_SPECIES
C    12.010700 c.UPF
O    15.999400 o.UPF
H     1.007940 h.UPF

ATOMIC_POSITIONS crystal
C            -0.0000202331        0.7242127215        0.8616430721
C             0.9167661199        0.5203288992        0.7763990399
C             0.9667959789        0.3579442191        0.6935494674
C             0.8775735024        0.1408055799        0.6034941965
C             0.1022067955        0.3989204377        0.6932955773
C             0.1906892680        0.5955648365        0.7757577522
C             0.3381865798        0.6318865235        0.7750028388
C             0.3698945158        0.4281636069        0.6771324697
C             0.4041225819        0.7101321625        0.9828136350
C             0.3973771160        0.7916619676        0.6610066091
C             0.1351513275        0.7550748438        0.8607933574
C             0.1835540498        0.1157839942        0.0581291643
C             0.9563999872        0.9031742456        0.9527882539
C             0.0436712413        0.0966795472        0.0479675469
C             0.8165151609        0.8840596418        0.9426517722
C             0.0000911188        0.2756365557        0.1391220130
C             0.0833096644        0.4795109005        0.2243851667
C             0.8649213541        0.2447749881        0.1399878532
C             0.0332859583        0.6418986788        0.3072374818
C             0.8093885011        0.4042777734        0.2250728731
C             0.1225109527        0.8590419010        0.3972649985
C             0.8978755969        0.6009204101        0.3075259665
C             0.6618925124        0.3679592688        0.2258852185
C             0.6301931455        0.5716823083        0.3237866775
C             0.5959180681        0.2897063831        0.0180979956
C             0.6027301104        0.2081965185        0.3399051055
O             0.2196503603        0.9493201246        0.9489753410
O             0.2715832475        0.2636985925        0.1531571811
O             0.7804197238        0.0505335227        0.0517927481
O             0.7284814420        0.7361223782        0.8476705834
H             0.8126444238        0.4920241426        0.7770771597
H             0.8626694798        0.1103465404        0.4466589661
H             0.9183849612        0.0215942033        0.6301838311
H             0.7814718655        0.1183396425        0.6583001310
H             0.1397663266        0.2698148755        0.6269134699
H             0.3336462713        0.3070320704        0.7524320522
H             0.3307661983        0.3647762065        0.5254724147
H             0.4758378538        0.4620827216        0.6817838517
H             0.3904069310        0.8588494855        0.0625053842
H             0.3664990605        0.5929949425        0.0615505160
H             0.5088918256        0.7330064939        0.9770683507
H             0.3566867205        0.7311631596        0.5100486714
H             0.3808098035        0.9434069183        0.7217726695
H             0.5028174700        0.8173049351        0.6633877603
H             0.1874313197        0.5077967093        0.2237204319
H             0.1373556872        0.8895661643        0.5541144033
H             0.0817356311        0.9782453618        0.3704645820
H             0.2186331693        0.8814596586        0.3425321976
H             0.8603231746        0.7300206533        0.3739556084
H             0.6664066497        0.6928068205        0.2484689473
H             0.6693586603        0.6350780884        0.4754306142
H             0.5242502630        0.5377526452        0.3192041168
H             0.6096076129        0.1409686509        0.9384020145
H             0.6335324827        0.4068196793        0.9393340127
H             0.4911550143        0.2668637664        0.0239018278
H             0.6434453208        0.2687146328        0.4908493492
H             0.6192935735        0.0564494646        0.2791318552
H             0.4972900616        0.1825461056        0.3375728345

K_POINTS automatic
3 4 4  1 1 1

CELL_PARAMETERS bohr
  20.344806042   0.003302655  -0.006133009
  -3.740858151  12.533745528  -0.021850231
  -0.121251804  -3.720579875  13.123186629
