%nprocs=4
%mem=2GB
#P pbepbe aug-cc-pvtz SCF=(Conver=6) Int=(grid=ultrafine) output=wfx
 
title
 
0 1
C	-0.506865 0.000554 0.000000
C	0.199152 -1.206722 0.000000
C	1.590033 -1.199428 0.000000
C	2.291410 0.004274 0.000000
C	1.586387 1.205121 0.000000
C	0.194504 1.209167 0.000000
H	-0.339393 -2.148678 0.000000
H	2.126154 -2.142712 0.000000
H	3.375603 0.006222 0.000000
H	2.119272 2.150345 0.000000
H	-0.342494 2.151669 0.000000
S	-2.284539 -0.083506 0.000000
H	-2.514253 1.241449 0.000167

ArSH.wfx


