%nprocs=4
%mem=2GB
#P pbepbe aug-cc-pvtz SCF=(Conver=6) Int=(grid=ultrafine) output=wfx
 
title
 
0 2
C	0.000000 0.610510 0.000000
C	-0.387876 -0.856983 0.000000
F	-0.491461 1.200423 1.086703
F	1.331376 0.773296 0.000000
F	-0.491461 1.200423 -1.086703
F	-0.044935 -1.504913 1.094526
F	-0.044935 -1.504913 -1.094526

C2F5.wfx


