%nprocs=4
%mem=2GB
#P pbepbe aug-cc-pvtz SCF=(Conver=6) Int=(grid=ultrafine) output=wfx
 
title
 
0 1
C	0.000000 0.000000 0.774064
C	0.000000 0.000000 -0.774064
F	0.000000 1.251306 1.222131
F	-1.083663 -0.625653 1.222131
F	1.083663 -0.625653 1.222131
F	0.000000 -1.251306 -1.222131
F	-1.083663 0.625653 -1.222131
F	1.083663 0.625653 -1.222131

c2f6.wfx


