%nprocs=4
%mem=2GB
#P pbepbe aug-cc-pvtz SCF=(Conver=6) Int=(grid=ultrafine) output=wfx
 
title
 
0 2
C	0.048084 -0.585568 0.000000
C	0.048084 0.719975 0.000000
H	-0.878292 -1.168078 0.000000
H	0.966937 -1.169358 0.000000
H	-0.665657 1.530998 0.000000

c2h3.wfx


