%nprocs=4
%mem=2GB
#P pbepbe aug-cc-pvtz SCF=(Conver=6) Int=(grid=ultrafine) output=wfx
 
title
 
0 1
C	0.000000 0.000000 0.765057
C	0.000000 0.000000 -0.765057
H	0.000000 1.019538 1.164020
H	-0.882946 -0.509769 1.164020
H	0.882946 -0.509769 1.164020
H	0.000000 -1.019538 -1.164020
H	-0.882946 0.509769 -1.164020
H	0.882946 0.509769 -1.164020

c2h6.wfx


