%nprocs=4
%mem=2GB
#P pbepbe aug-cc-pvtz SCF=(Conver=6) Int=(grid=ultrafine) output=wfx
 
title
 
0 2
Si	0.036351 -0.586330 0.000000
C	0.036351 0.466294 1.569376
H	-0.847798 1.114860 1.603271
H	0.025034 -0.163142 2.463785
H	0.923461 1.104782 1.617902
C	0.036351 0.466294 -1.569376
H	0.025034 -0.163142 -2.463785
H	-0.847798 1.114860 -1.603271
H	0.923461 1.104782 -1.617902
H	-1.146524 -1.499902 0.000000

dimethylsilane_rad.wfx


