%nprocs=4
%mem=2GB
#P pbepbe aug-cc-pvtz SCF=(Conver=6) Int=(grid=ultrafine) output=wfx
 
title
 
0 2
N	-0.740657 -0.151357 0.026504
H	-1.142764 0.790681 -0.029532
N	0.597527 0.024977 -0.082362
H	1.021132 0.890733 0.237569
H	1.123545 -0.796754 0.182966

hydrazine_rad.wfx


