%nprocs=4
%mem=2GB
#P pbepbe aug-cc-pvtz SCF=(Conver=6) Int=(grid=ultrafine) output=wfx
 
title
 
0 2
N	-0.804673 0.153058 0.000000
H	-1.202576 -0.795209 0.000000
C	0.627193 -0.012058 0.000000
H	0.972250 -0.582482 -0.879285
H	1.127691 0.960928 0.000000
H	0.972186 -0.582300 0.879417

methylamine_rad.wfx


