%nprocs=4
%mem=2GB
#P pbepbe aug-cc-pvtz SCF=(Conver=6) Int=(grid=ultrafine) output=wfx
 
title
 
0 2
C	-0.011265 -0.203105 1.206051
C	-0.001978 0.522140 0.000000
C	-0.011265 -0.203105 -1.206051
C	-0.011265 -1.593495 -1.206351
C	-0.010963 -2.292621 0.000000
C	-0.011265 -1.593495 1.206351
H	-0.009682 0.327497 2.153972
H	-0.009682 0.327497 -2.153972
H	-0.009552 -2.133625 -2.147621
H	-0.011162 -3.377614 0.000000
H	-0.009552 -2.133625 2.147621
Si	-0.052647 2.377112 0.000000
H	0.567344 2.946193 1.226483
H	0.567344 2.946193 -1.226483

phenylsilane_rad_2.wfx


