%nprocs=4
%mem=2GB
#P pbepbe aug-cc-pvtz SCF=(Conver=6) Int=(grid=ultrafine) output=wfx
 
title
 
0 2
C	0.000000 0.000048 -1.704582
N	0.000000 1.208070 -1.110354
C	0.000000 1.214226 0.207102
C	0.000000 -0.000022 0.998193
C	0.000000 -1.214231 0.207038
N	0.000000 -1.208007 -1.110417
H	0.000000 2.170936 0.726489
H	0.000000 0.000075 -2.790855
H	0.000000 -2.170965 0.726379
O	0.000000 -0.000057 2.246794

pyrimidinol_rad.wfx


