%nprocs=4
%mem=2GB
#P pbepbe aug-cc-pvtz SCF=(Conver=6) Int=(grid=ultrafine) output=wfx
 
title
 
0 2
Si	0.000000 0.000000 0.080516
H	0.000000 1.413080 -0.375744
H	1.223764 -0.706540 -0.375744
H	-1.223764 -0.706540 -0.375744

sih3.wfx


