%nprocs=4
%mem=2GB
#P pbepbe aug-cc-pvtz SCF=(Conver=6) Int=(grid=ultrafine) output=wfx
 
title
 
0 1
Si	0.000000 0.000000 0.321423
H	0.000000 0.000000 1.782518
F	0.000000 1.474733 -0.232683
F	-1.277156 -0.737366 -0.232683
F	1.277156 -0.737366 -0.232683

trifluorosilane.wfx


