&control
 title='crystal',
 prefix='crystal',
 pseudo_dir='.',
 calculation='vc-relax',
/
&system
 ibrav=0,
 celldm(1)=1.0,
 nat=    96,
 ntyp=  3,
 ecutwfc=60.0,
 ecutrho=600.0,
 xdm=.true.,
 xdm_a1=0.4073,
 xdm_a2=2.4150,
/
&electrons
 conv_thr = 1d-8,
/
&ions
/
&cell
/
ATOMIC_SPECIES
h      1.007940 h.UPF
c     12.010700 c.UPF
o     15.999400 o.UPF

ATOMIC_POSITIONS crystal
c     0.46875676     0.23649396     0.99653221
c     0.53124321     0.73649395     0.00346778
c     0.55686248     0.29281191     0.11221510
c     0.44313749     0.79281191     0.88778490
c     0.82588561     0.28134180     0.18065385
c     0.17411436     0.78134180     0.81934615
c     0.87943855     0.20813864     0.25454078
c     0.12056142     0.70813864     0.74545921
c     0.52568126     0.36940628     0.04428823
c     0.47431871     0.86940627     0.95571176
c     0.68940374     0.39420416     0.94696101
c     0.31059623     0.89420416     0.05303898
c     0.66744596     0.46556121     0.89048979
c     0.33255401     0.96556121     0.10951020
c     0.47990632     0.51268863     0.92884727
c     0.52009365     0.01268863     0.07115272
c     0.31170936     0.48777943     0.02250499
c     0.68829061     0.98777943     0.97749500
c     0.33512930     0.41646049     0.07958985
c     0.66487067     0.91646048     0.92041015
c     0.57468499     0.54001053     0.53149554
c     0.42531498     0.04001052     0.46850445
c     0.61108879     0.48111346     0.41867613
c     0.38891118     0.98111345     0.58132387
c     0.80558971     0.50782291     0.32125631
c     0.19441026     0.00782291     0.67874369
c     0.73849727     0.58102378     0.25023103
c     0.26150270     0.08102377     0.74976896
c     0.68718705     0.40809292     0.49246386
c     0.31281292     0.90809291     0.50753613
c     0.52337458     0.34784206     0.47660305
c     0.47662539     0.84784205     0.52339694
c     0.59172094     0.27974365     0.53968308
c     0.40827903     0.77974365     0.46031691
c     0.82489602     0.27128488     0.62072018
c     0.17510395     0.77128487     0.37927981
c     0.98780742     0.33149352     0.63965833
c     0.01219255     0.83149351     0.36034166
c     0.92016135     0.39943268     0.57570748
c     0.07983862     0.89943267     0.42429252
o     0.64653596     0.20429275     0.93214516
o     0.35346401     0.70429274     0.06785483
o     0.24096301     0.22490079     0.96405797
o     0.75903696     0.72490078     0.03594203
o     0.12006195     0.20149263     0.30208538
o     0.87993801     0.70149263     0.69791462
o     0.71718437     0.16069071     0.26724410
o     0.28281560     0.66069070     0.73275590
o     0.33914665     0.54936484     0.55629747
o     0.66085332     0.04936484     0.44370252
o     0.75622947     0.57360049     0.59399505
o     0.24377050     0.07360048     0.40600495
o     0.90779357     0.60640876     0.17013028
o     0.09220640     0.10640875     0.82986971
o     0.54005785     0.61378384     0.26692753
o     0.45994212     0.11378383     0.73307246
h     0.42783455     0.28721963     0.19518161
h     0.57216542     0.78721963     0.80481838
h     0.87323731     0.32442667     0.26290565
h     0.12676266     0.82442666     0.73709434
h     0.95896627     0.28646012     0.09964253
h     0.04103370     0.78646011     0.90035746
h     0.83581873     0.35805539     0.91516555
h     0.16418124     0.85805539     0.08483444
h     0.79870513     0.48457584     0.81721870
h     0.20129484     0.98457583     0.18278129
h     0.46441404     0.56868117     0.88615425
h     0.53558593     0.06868116     0.11384574
h     0.16517499     0.52421464     0.05292878
h     0.83482498     0.02421464     0.94707121
h     0.20510225     0.39717805     0.15355764
h     0.79489772     0.89717804     0.84644236
h     0.43087710     0.47343018     0.35252477
h     0.56912287     0.97343017     0.64747522
h     0.99139584     0.51336554     0.38288413
h     0.00860413     0.01336553     0.61711587
h     0.82203955     0.46748676     0.23409487
h     0.17796042     0.96748676     0.76590512
h     0.33998926     0.35408768     0.41458272
h     0.66001071     0.85408768     0.58541727
h     0.46253261     0.23338950     0.52502574
h     0.53746736     0.73338949     0.47497425
h     0.87844422     0.21809661     0.66936462
h     0.12155575     0.71809660     0.33063537
h     0.16901732     0.32570247     0.70420149
h     0.83098265     0.82570247     0.29579851
h     0.04932644     0.44586865     0.59104389
h     0.95067353     0.94586864     0.40895611
h     0.56947241     0.16998012     0.85036536
h     0.43052756     0.66998012     0.14963463
h     0.16735801     0.15035871     0.34112809
h     0.83264196     0.65035870     0.65887191
h     0.31656244     0.59074536     0.62807045
h     0.68343753     0.09074536     0.37192954
h     0.84849369     0.65552500     0.12012110
h     0.15150628     0.15552499     0.87987889

K_POINTS automatic
2 2 2 1 1 1

CELL_PARAMETERS cubic
   10.148580000000     0.000000000000    -0.057601000000
    0.000000000000    34.206383000000     0.000000000000
   -1.863813000000     0.000000000000    17.399978000000
