&control
 title='crystal',
 prefix='crystal',
 pseudo_dir='..',
 calculation='vc-relax',
 etot_conv_thr=1.0D-5,
/
&system
 ibrav=0,
 celldm(1)=1.0,
 nat=    80,
 ntyp=  4,
 ecutwfc=80.0,
 ecutrho=800.0,
 xdm=.true.,
 xdm_a1=0.6512,
 xdm_a2=1.4633,
/
&electrons
 conv_thr = 1d-8,
/
&ions
/
&cell
/
ATOMIC_SPECIES
h      1.007940 h.UPF
c     12.010700 c.UPF
n     14.006700 n.UPF
o     15.999400 o.UPF

ATOMIC_POSITIONS crystal
c        0.492092512   0.590966868   0.740903538
c        0.992091355   0.909027916   0.259094996
c        0.507908645   0.090972084   0.759094996
c        0.007907488   0.409033132   0.240903538
c        0.408828974   0.670412211   0.641142644
c        0.908827251   0.829584983   0.358856613
c        0.591172749   0.170415017   0.858856613
c        0.091171026   0.329587789   0.141142644
c        0.340028154   0.532622067   0.627624384
c        0.840027800   0.967377170   0.372374584
c        0.659972200   0.032622830   0.872374584
c        0.159971846   0.467377933   0.127624384
c        0.364007834   0.379576035   0.456586427
c        0.864006200   0.120421196   0.543418837
c        0.635993800   0.879578804   0.043418837
c        0.135992166   0.620423965   0.956586427
c        0.300085721   0.235084943   0.463670834
c        0.800084150   0.264911970   0.536330237
c        0.699915850   0.735088030   0.036330237
c        0.199914279   0.764915057   0.963670834
h        0.455276070   0.676976334   0.248582414
h        0.955275100   0.823022056   0.751415580
h        0.544724900   0.176977944   0.251415580
h        0.044723930   0.323023666   0.748582414
h        0.327861890   0.489517650   0.829678728
h        0.827862375   0.010483327   0.170322474
h        0.672137625   0.989516673   0.670322474
h        0.172138110   0.510482350   0.329678728
h        0.281931192   0.592091090   0.553742712
h        0.781930023   0.907908022   0.446253842
h        0.718069977   0.092091978   0.946253842
h        0.218068808   0.407908910   0.053742712
h        0.271518510   0.010315181   0.264211714
h        0.771515142   0.489683286   0.735780190
h        0.728484858   0.510316714   0.235780190
h        0.228481490   0.989684819   0.764211714
h        0.356759491   0.124588971   0.138735969
h        0.856756370   0.375413833   0.861262905
h        0.643243630   0.624586167   0.361262905
h        0.143240509   0.875411029   0.638735969
h        0.375315908   0.417315413   0.250670323
h        0.875312046   0.082680248   0.749334944
h        0.624687954   0.917319752   0.249334944
h        0.124684092   0.582684587   0.750670323
h        0.363295748   0.779026315   0.290945760
h        0.863294278   0.720971562   0.709056271
h        0.636705722   0.279028438   0.209056271
h        0.136704252   0.220973685   0.790945760
h        0.423813231   0.323598079   0.524911548
h        0.923812466   0.176399906   0.475100666
h        0.576187534   0.823600094   0.975100666
h        0.076186769   0.676401921   0.024911548
h        0.453291551   0.873235165   0.409245496
h        0.953290779   0.626763986   0.590753746
h        0.546709221   0.373236014   0.090753746
h        0.046708449   0.126764835   0.909245496
h        0.389220277   0.771728400   0.778478462
h        0.889217941   0.728269530   0.221521616
h        0.610782059   0.271730470   0.721521616
h        0.110779723   0.228271600   0.278478462
n        0.421218472   0.755471797   0.378981443
n        0.921218998   0.744527216   0.621017307
n        0.578781002   0.255472784   0.121017307
n        0.078781528   0.244528203   0.878981443
n        0.307519593   0.119331602   0.269920943
n        0.807516658   0.380667112   0.730077318
n        0.692483342   0.619332888   0.230077318
n        0.192480407   0.880668398   0.769920943
o        0.552261005   0.570105688   0.583295227
o        0.052259974   0.929887236   0.416702230
o        0.447740026   0.070112764   0.916702230
o        0.947738995   0.429894312   0.083295227
o        0.244978794   0.225281308   0.641655931
o        0.744977131   0.274713209   0.358343081
o        0.755022869   0.725286791   0.858343081
o        0.255021206   0.774718692   0.141655931
o        0.490348985   0.544682717   0.983602212
o        0.990348042   0.955314255   0.016395850
o        0.509651958   0.044685745   0.516395850
o        0.009651015   0.455317283   0.483602212

K_POINTS automatic
4 4 4 1 1 1

CELL_PARAMETERS cubic
  29.931198789   0.000007713   0.000000000
   0.000002284  14.727893754   0.000000000
   0.000000000   0.000000000   9.570171506
