## FHIaims input file generated by critic2.
lattice_vector 3.9720000000       0.0000000000       0.0000000000       
lattice_vector 0.0000000000       3.9720000000       0.0000000000       
lattice_vector 0.0000000000       0.0000000000       8.0180000000       
atom_frac  0.0000000000       0.5000000000       0.1458206500       Pb
atom_frac  0.5000000000       0.0000000000       0.8541793500       Pb
atom_frac  0.0000000000       0.0000000000       0.0000000000       O 
atom_frac  0.5000000000       0.5000000000       0.0000000000       O 
