%nprocs=4
%mem=4GB
#p pbepbe aug-cc-pvtz output=wfx scf=(conver=6) int=(grid=ultrafine)

title

-1 1
C -1.006215463000000 -0.203566404000000 0.039323585000000
C 0.487100228000000 0.185923820000000 -0.030061282000000
O 1.301564189000000 -0.757785383000000 0.052857808000000
O 0.724973696000000 1.422331940000000 -0.159634962000000
H -1.223648142000000 -0.940991754000000 -0.733559633000000
H -1.208099576000000 -0.678638500000000 0.999935449000000
H -1.654410613000000 0.661570766000000 -0.082684221000000
H 2.243627951000000 1.943859266000000 -0.242072782000000
O 3.162113947000000 2.321573588000000 -0.300156730000000
C 4.040089465000000 1.230012326000000 -0.229782978000000
H 5.062988772000000 1.610838267000000 -0.289690314000000
H 3.942588429000000 0.664664831000000 0.701724979000000
H 3.896772641000000 0.515142258000000 -1.045636309000000

01acetatemethanol095.wfx

