%nprocs=4
%mem=4GB
#p pbepbe aug-cc-pvtz output=wfx scf=(conver=6) int=(grid=ultrafine)

title

-1 1
C -1.006215463000000 -0.203566404000000 0.039323585000000
C 0.487100228000000 0.185923820000000 -0.030061282000000
O 1.301564189000000 -0.757785383000000 0.052857808000000
O 0.724973696000000 1.422331940000000 -0.159634962000000
H -1.223648142000000 -0.940991754000000 -0.733559633000000
H -1.208099576000000 -0.678638500000000 0.999935449000000
H -1.654410613000000 0.661570766000000 -0.082684221000000
H 2.323552151000000 1.971306366000000 -0.246411344000000
O 3.242038147000000 2.349020688000000 -0.304495292000000
C 4.120013665000000 1.257459426000000 -0.234121540000000
H 5.142912972000000 1.638285367000000 -0.294028876000000
H 4.022512629000000 0.692111931000000 0.697386417000000
H 3.976696841000000 0.542589358000000 -1.049974871000000

01acetatemethanol100.wfx

