%nprocs=4
%mem=4GB
#p pbepbe aug-cc-pvtz output=wfx scf=(conver=6) int=(grid=ultrafine)

title

-1 1
C -0.808438821000000 -0.243062083000000 0.038574485000000
C 0.533554652000000 0.513743610000000 -0.070281243000000
O 1.560611869000000 -0.214420190000000 -0.027568739000000
O 0.465298866000000 1.764998179000000 -0.183236969000000
H -0.854283812000000 -1.014973034000000 -0.729785233000000
H -1.656064871000000 0.431570596000000 -0.062379061000000
H -0.857515936000000 -0.748947615000000 1.003461116000000
H 2.330873599000000 2.299655936000000 -0.273118900000000
O 3.242906407000000 1.967103125000000 -0.262282369000000
H 2.986031078000000 1.033395194000000 -0.172058392000000

02acetatewater095.wfx

