%nprocs=4
%mem=4GB
#p pbepbe aug-cc-pvtz output=wfx scf=(conver=6) int=(grid=ultrafine)

title

0 1
H 2.420729014000000 2.348323562000000 -0.279518048000000
O 3.332761822000000 2.015770751000000 -0.268681517000000
H 3.075886493000000 1.082062820000000 -0.178457540000000

02acetatewater_2.wfx

