%nprocs=4
%mem=4GB
#p pbepbe aug-cc-pvtz output=wfx scf=(conver=6) int=(grid=ultrafine)

title

-1 1
C -0.808438821000000 -0.243062083000000 0.038574485000000
C 0.533554652000000 0.513743610000000 -0.070281243000000
O 1.560611869000000 -0.214420190000000 -0.027568739000000
O 0.465298866000000 1.764998179000000 -0.183236969000000
H -0.854283812000000 -1.014973034000000 -0.729785233000000
H -1.656064871000000 0.431570596000000 -0.062379061000000
H -0.857515936000000 -0.748947615000000 1.003461116000000
H 2.599848358000000 2.445338453000000 -0.292274220000000
O 3.511881166000000 2.112785642000000 -0.281437689000000
H 3.255005837000000 1.179077711000000 -0.191213712000000

02acetatewater110.wfx

