%nprocs=4
%mem=4GB
#p pbepbe aug-cc-pvtz output=wfx scf=(conver=6) int=(grid=ultrafine)

title

-1 1
C -1.067681101000000 -0.271098200000000 0.098425590000000
C 0.361871421000000 0.290569279000000 -0.103737259000000
O 1.279845864000000 -0.562993045000000 -0.089531722000000
O 0.451018532000000 1.538347265000000 -0.258903660000000
H -1.274226455000000 -1.017247821000000 -0.669620680000000
H -1.122005113000000 -0.781585539000000 1.060825043000000
H -1.819051732000000 0.515321513000000 0.058342297000000
H 2.263305721000000 2.007376453000000 -0.561167247000000
N 3.229948818000000 2.353565807000000 -0.603022754000000
C 4.108478557000000 1.247578435000000 -0.228238451000000
H 5.152348202000000 1.572167665000000 -0.248998810000000
H 3.902658731000000 0.806415310000000 0.751930858000000
H 3.993542569000000 0.446467874000000 -0.954350826000000
H 3.271280037000000 3.049106752000000 0.132835839000000

03acetatemethylamine095.wfx

