%nprocs=4
%mem=4GB
#p pbepbe aug-cc-pvtz output=wfx scf=(conver=6) int=(grid=ultrafine)

title

-1 1
C -1.067681101000000 -0.271098200000000 0.098425590000000
C 0.361871421000000 0.290569279000000 -0.103737259000000
O 1.279845864000000 -0.562993045000000 -0.089531722000000
O 0.451018532000000 1.538347265000000 -0.258903660000000
H -1.274226455000000 -1.017247821000000 -0.669620680000000
H -1.122005113000000 -0.781585539000000 1.060825043000000
H -1.819051732000000 0.515321513000000 0.058342297000000
H 2.358591571000000 2.032036918000000 -0.577059564000000
N 3.325234668000000 2.378226272000000 -0.618915071000000
C 4.203764407000000 1.272238900000000 -0.244130768000000
H 5.247634052000000 1.596828130000000 -0.264891127000000
H 3.997944581000000 0.831075775000000 0.736038541000000
H 4.088828419000000 0.471128339000000 -0.970243143000000
H 3.366565887000000 3.073767217000000 0.116943522000000

03acetatemethylamine100.wfx

