%nprocs=4
%mem=4GB
#p pbepbe aug-cc-pvtz output=wfx scf=(conver=6) int=(grid=ultrafine)

title

1 1
C 0.687364580000000 -0.177705402000000 0.322869765000000
N -0.735021639000000 0.201185335000000 0.055690011000000
H -1.380118913000000 -0.452570111000000 0.496181898000000
H -0.945342769000000 1.128728697000000 0.420157622000000
H -0.914689681000000 0.199140171000000 -0.968987117000000
H 0.856655158000000 -1.164072485000000 -0.091484742000000
H 1.326952365000000 0.545866029000000 -0.167734951000000
H 0.859676716000000 -0.176826300000000 1.392473464000000
O -0.688387552000000 -0.006827961000000 -2.671205700000000
C -1.151543972000000 0.108573219000000 -3.793715602000000
H -0.570905471000000 -0.192905158000000 -4.669883563000000
H -2.154311482000000 0.514294330000000 -3.962474775000000

04methylammoniumformaldehyde100.wfx

