%nprocs=4
%mem=4GB
#p pbepbe aug-cc-pvtz output=wfx scf=(conver=6) int=(grid=ultrafine)

title

0 1
O -0.688387552000000 -0.006827961000000 -2.671205700000000
C -1.151543972000000 0.108573219000000 -3.793715602000000
H -0.570905471000000 -0.192905158000000 -4.669883563000000
H -2.154311482000000 0.514294330000000 -3.962474775000000

04methylammoniumformaldehyde_2.wfx

