%nprocs=4
%mem=4GB
#p pbepbe aug-cc-pvtz output=wfx scf=(conver=6) int=(grid=ultrafine)

title

1 1
C 0.744768151000000 -0.082282053000000 -0.019173554000000
N -0.728438635000000 0.112146543000000 0.091161198000000
H -1.127753599000000 -0.526162012000000 0.776374088000000
H -0.947980520000000 1.055774181000000 0.403402411000000
H -1.224663286000000 -0.064847586000000 -0.881903869000000
H 0.932732220000000 -1.093480816000000 -0.362003654000000
H 1.212925665000000 0.074803757000000 0.945875964000000
H 1.132071711000000 0.628965038000000 -0.739788431000000
N -1.901418293000000 -0.333737312000000 -2.412707091000000
C -1.056360984000000 0.190482865000000 -3.510372776000000
H -2.071518500000000 -1.320930096000000 -2.578485848000000
H -1.496897320000000 0.035449418000000 -4.492272914000000
H -0.902502456000000 1.256290493000000 -3.366063492000000
H -0.089385160000000 -0.304053602000000 -3.484740942000000
H -2.819108145000000 0.096303529000000 -2.477866847000000

05methylammoniummethylamine105.wfx

