%nprocs=4
%mem=4GB
#p pbepbe aug-cc-pvtz output=wfx scf=(conver=6) int=(grid=ultrafine)

title

1 1
C 0.744768151000000 -0.082282053000000 -0.019173554000000
N -0.728438635000000 0.112146543000000 0.091161198000000
H -1.127753599000000 -0.526162012000000 0.776374088000000
H -0.947980520000000 1.055774181000000 0.403402411000000
H -1.224663286000000 -0.064847586000000 -0.881903869000000
H 0.932732220000000 -1.093480816000000 -0.362003654000000
H 1.212925665000000 0.074803757000000 0.945875964000000
H 1.132071711000000 0.628965038000000 -0.739788431000000
N -1.869193765000000 -0.320933795000000 -2.339816000000000
C -1.024136456000000 0.203286382000000 -3.437481685000000
H -2.039293972000000 -1.308126579000000 -2.505594757000000
H -1.464672792000000 0.048252935000000 -4.419381823000000
H -0.870277928000000 1.269094010000000 -3.293172401000000
H -0.057160632000000 -0.291250085000000 -3.411849851000000
H -2.786883617000000 0.109107046000000 -2.404975756000000

05methylammoniummethylamine100.wfx

