%nprocs=4
%mem=4GB
#p pbepbe aug-cc-pvtz output=wfx scf=(conver=6) int=(grid=ultrafine)

title

1 1
C 0.744768151000000 -0.082282053000000 -0.019173554000000
N -0.728438635000000 0.112146543000000 0.091161198000000
H -1.127753599000000 -0.526162012000000 0.776374088000000
H -0.947980520000000 1.055774181000000 0.403402411000000
H -1.224663286000000 -0.064847586000000 -0.881903869000000
H 0.932732220000000 -1.093480816000000 -0.362003654000000
H 1.212925665000000 0.074803757000000 0.945875964000000
H 1.132071711000000 0.628965038000000 -0.739788431000000
N -1.836969237000000 -0.308130278000000 -2.266924909000000
C -0.991911928000000 0.216089899000000 -3.364590594000000
H -2.007069444000000 -1.295323062000000 -2.432703666000000
H -1.432448264000000 0.061056452000000 -4.346490732000000
H -0.838053400000000 1.281897527000000 -3.220281310000000
H -0.024936104000000 -0.278446568000000 -3.338958760000000
H -2.754659089000000 0.121910563000000 -2.332084665000000

05methylammoniummethylamine095.wfx

