%nprocs=4
%mem=4GB
#p pbepbe aug-cc-pvtz output=wfx scf=(conver=6) int=(grid=ultrafine)

title

1 1
C 0.687041485000000 -0.021348442000000 0.158244910000000
N -0.796548184000000 0.105617965000000 0.039344613000000
H -1.270243847000000 -0.509648168000000 0.698373151000000
H -1.103958172000000 1.055158108000000 0.241676877000000
H -1.110658397000000 -0.147584181000000 -0.934324277000000
H 0.958993985000000 -1.044759456000000 -0.070634654000000
H 0.990678267000000 0.235706496000000 1.166097459000000
H 1.144634560000000 0.652587758000000 -0.556167114000000
O -1.422346039000000 -0.606969526000000 -2.566740361000000
C -1.082847040000000 0.139518361000000 -3.751756184000000
H -2.012639330000000 -1.321959516000000 -2.823485243000000
H -1.968173635000000 0.586142780000000 -4.195394437000000
H -0.402996272000000 0.927315280000000 -3.445283931000000
H -0.581690292000000 -0.497356660000000 -4.474842406000000

06methylammoniummethanol105.wfx

