%nprocs=4
%mem=4GB
#p pbepbe aug-cc-pvtz output=wfx scf=(conver=6) int=(grid=ultrafine)

title

1 1
C 0.687041485000000 -0.021348442000000 0.158244910000000
N -0.796548184000000 0.105617965000000 0.039344613000000
H -1.270243847000000 -0.509648168000000 0.698373151000000
H -1.103958172000000 1.055158108000000 0.241676877000000
H -1.110658397000000 -0.147584181000000 -0.934324277000000
H 0.958993985000000 -1.044759456000000 -0.070634654000000
H 0.990678267000000 0.235706496000000 1.166097459000000
H 1.144634560000000 0.652587758000000 -0.556167114000000
O -1.377821815000000 -0.541346854000000 -2.333551588000000
C -1.038322816000000 0.205141033000000 -3.518567411000000
H -1.968115106000000 -1.256336844000000 -2.590296470000000
H -1.923649411000000 0.651765452000000 -3.962205664000000
H -0.358472048000000 0.992937952000000 -3.212095158000000
H -0.537166068000000 -0.431733988000000 -4.241653633000000

06methylammoniummethanol090.wfx

