%nprocs=4
%mem=4GB
#p pbepbe aug-cc-pvtz output=wfx scf=(conver=6) int=(grid=ultrafine)

title

1 1
C 0.687041485000000 -0.021348442000000 0.158244910000000
N -0.796548184000000 0.105617965000000 0.039344613000000
H -1.270243847000000 -0.509648168000000 0.698373151000000
H -1.103958172000000 1.055158108000000 0.241676877000000
H -1.110658397000000 -0.147584181000000 -0.934324277000000
H 0.958993985000000 -1.044759456000000 -0.070634654000000
H 0.990678267000000 0.235706496000000 1.166097459000000
H 1.144634560000000 0.652587758000000 -0.556167114000000
O -1.437187447000000 -0.628843750000000 -2.644469952000000
C -1.097688448000000 0.117644137000000 -3.829485775000000
H -2.027480738000000 -1.343833740000000 -2.901214834000000
H -1.983015043000000 0.564268556000000 -4.273124028000000
H -0.417837680000000 0.905441056000000 -3.523013522000000
H -0.596531700000000 -0.519230884000000 -4.552571997000000

06methylammoniummethanol110.wfx

