%nprocs=4
%mem=4GB
#p pbepbe aug-cc-pvtz output=wfx scf=(conver=6) int=(grid=ultrafine)

title

1 1
C 0.729910353000000 -0.067791535000000 0.057095373000000
N -0.757044007000000 0.087897962000000 0.041272775000000
H -1.200812907000000 -0.569235636000000 0.680770653000000
H -1.033508938000000 1.024135700000000 0.332440612000000
H -1.137879313000000 -0.081658460000000 -0.916293500000000
H 1.155255605000000 0.657321778000000 -0.626319371000000
H 1.094665015000000 0.102560205000000 1.062985612000000
H 0.969275613000000 -1.072917859000000 -0.268483642000000
O -1.742901055000000 -0.487003638000000 -2.919371324000000
H -1.545848484000000 0.022825428000000 -3.710759568000000
H -2.374607054000000 -1.151585693000000 -3.210125870000000

07methylammoniumwater125.wfx

