%nprocs=4
%mem=4GB
#p pbepbe aug-cc-pvtz output=wfx scf=(conver=6) int=(grid=ultrafine)

title

0 1
O 1.602569103000000 3.050868682000000 0.808678982000000
C 2.224226383000000 4.058749214000000 1.099297255000000
H 3.315952442000000 4.050092152000000 1.175259403000000
H 1.711178461000000 5.005655912000000 1.293917723000000

08guanidiniumformaldehyde_2.wfx

