%nprocs=4
%mem=4GB
#p pbepbe aug-cc-pvtz output=wfx scf=(conver=6) int=(grid=ultrafine)

title

1 1
C -0.105081656000000 0.282413741000000 0.022074441000000
N -0.785227591000000 -0.820652291000000 -0.288990507000000
N -0.745585479000000 1.421570007000000 0.253246903000000
N 1.219250263000000 0.252146159000000 0.103458752000000
H -1.744037401000000 1.479987848000000 0.172685895000000
H 1.727462291000000 -0.601259621000000 -0.038822645000000
H 1.721470076000000 1.097144758000000 0.339497536000000
H -0.216089211000000 2.249292326000000 0.491002112000000
H -1.787472355000000 -0.815092404000000 -0.340300985000000
H -0.312365218000000 -1.684834579000000 -0.480883846000000
O 1.899649459000000 3.532497360000000 0.945524737000000
C 2.521306739000000 4.540377892000000 1.236143010000000
H 3.613032798000000 4.531720830000000 1.312105158000000
H 2.008258817000000 5.487284590000000 1.430763478000000

08guanidiniumformaldehyde125.wfx

