%nprocs=4
%mem=4GB
#p pbepbe aug-cc-pvtz output=wfx scf=(conver=6) int=(grid=ultrafine)

title

1 1
C -0.022632781000000 0.158889311000000 -0.003491152000000
N -1.034258337000000 -0.697533791000000 0.152948303000000
N -0.072073363000000 1.381821873000000 0.487979803000000
N 1.062328053000000 -0.233142965000000 -0.675554069000000
H -0.920522620000000 1.713004355000000 0.912119915000000
H 1.204431006000000 -1.196369662000000 -0.918176231000000
H 1.826844953000000 0.406007458000000 -0.798617863000000
H -1.049138495000000 -1.576370701000000 -0.331757120000000
H 0.758041219000000 2.014066447000000 0.417577832000000
H -1.851470832000000 -0.438033553000000 0.674514141000000
N 2.067940642000000 3.093218309000000 0.364861808000000
C 1.560514484000000 4.194641063000000 1.210664554000000
H 2.303710644000000 3.473745601000000 -0.545350692000000
H 2.260609162000000 5.021252254000000 1.312941336000000
H 0.639417950000000 4.579308217000000 0.780210346000000
H 1.338634492000000 3.809338088000000 2.202518595000000
H 2.950344724000000 2.776743725000000 0.752180316000000

09guanidiniummethylamine095.wfx

