%nprocs=4
%mem=4GB
#p pbepbe aug-cc-pvtz output=wfx scf=(conver=6) int=(grid=ultrafine)

title

1 1
C -0.022632781000000 0.158889311000000 -0.003491152000000
N -1.034258337000000 -0.697533791000000 0.152948303000000
N -0.072073363000000 1.381821873000000 0.487979803000000
N 1.062328053000000 -0.233142965000000 -0.675554069000000
H -0.920522620000000 1.713004355000000 0.912119915000000
H 1.204431006000000 -1.196369662000000 -0.918176231000000
H 1.826844953000000 0.406007458000000 -0.798617863000000
H -1.049138495000000 -1.576370701000000 -0.331757120000000
H 0.758041219000000 2.014066447000000 0.417577832000000
H -1.851470832000000 -0.438033553000000 0.674514141000000
N 2.205816672000000 3.206806552000000 0.359313079000000
C 1.698390514000000 4.308229306000000 1.205115825000000
H 2.441586674000000 3.587333844000000 -0.550899421000000
H 2.398485192000000 5.134840497000000 1.307392607000000
H 0.777293980000000 4.692896460000000 0.774661617000000
H 1.476510522000000 3.922926331000000 2.196969866000000
H 3.088220754000000 2.890331968000000 0.746631587000000

09guanidiniummethylamine105.wfx

