%nprocs=4
%mem=4GB
#p pbepbe aug-cc-pvtz output=wfx scf=(conver=6) int=(grid=ultrafine)

title

1 1
C -0.022632781000000 0.158889311000000 -0.003491152000000
N -1.034258337000000 -0.697533791000000 0.152948303000000
N -0.072073363000000 1.381821873000000 0.487979803000000
N 1.062328053000000 -0.233142965000000 -0.675554069000000
H -0.920522620000000 1.713004355000000 0.912119915000000
H 1.204431006000000 -1.196369662000000 -0.918176231000000
H 1.826844953000000 0.406007458000000 -0.798617863000000
H -1.049138495000000 -1.576370701000000 -0.331757120000000
H 0.758041219000000 2.014066447000000 0.417577832000000
H -1.851470832000000 -0.438033553000000 0.674514141000000
N 2.136801513000000 3.149948876000000 0.362090548000000
C 1.629375355000000 4.251371630000000 1.207893294000000
H 2.372571515000000 3.530476168000000 -0.548121952000000
H 2.329470033000000 5.077982821000000 1.310170076000000
H 0.708278821000000 4.636038784000000 0.777439086000000
H 1.407495363000000 3.866068655000000 2.199747335000000
H 3.019205595000000 2.833474292000000 0.749409056000000

09guanidiniummethylamine100.wfx

