%nprocs=4
%mem=4GB
#p pbepbe aug-cc-pvtz output=wfx scf=(conver=6) int=(grid=ultrafine)

title

0 1
N 2.136801513000000 3.149948876000000 0.362090548000000
C 1.629375355000000 4.251371630000000 1.207893294000000
H 2.372571515000000 3.530476168000000 -0.548121952000000
H 3.019205595000000 2.833474292000000 0.749409056000000
H 2.329470033000000 5.077982821000000 1.310170076000000
H 0.708278821000000 4.636038784000000 0.777439086000000
H 1.407495363000000 3.866068655000000 2.199747335000000

09guanidiniummethylamine_2.wfx

