%nprocs=4
%mem=4GB
#p pbepbe aug-cc-pvtz output=wfx scf=(conver=6) int=(grid=ultrafine)

title

0 1
O 1.662952247000000 3.184748790000000 0.158770895000000
C 2.081912462000000 3.852481778000000 1.365617693000000
H 1.981926316000000 3.707541256000000 -0.584132688000000
H 3.165794687000000 3.907782802000000 1.424027822000000
H 1.658082817000000 4.851495416000000 1.425337117000000
H 1.711514317000000 3.260194559000000 2.195510760000000

10guanidiniummethanol_2.wfx

