%nprocs=4
%mem=4GB
#p pbepbe aug-cc-pvtz output=wfx scf=(conver=6) int=(grid=ultrafine)

title

1 1
C -0.081972325000000 0.353680588000000 0.028076102000000
N -0.781386068000000 -0.780045332000000 -0.011075941000000
N -0.700530775000000 1.527575229000000 0.063558364000000
N 1.245079059000000 0.328413353000000 0.036872021000000
H -1.701484618000000 1.589975232000000 0.033190952000000
H 1.750062669000000 -0.538343991000000 0.016503262000000
H 1.745755146000000 1.209639567000000 0.055791883000000
H -0.322300090000000 -1.672024252000000 -0.041041434000000
H -0.137793105000000 2.370660847000000 0.078458926000000
H -1.784932170000000 -0.770876464000000 -0.005828173000000
O 2.246559890000000 4.131628136000000 0.202483088000000
C 2.665520105000000 4.799361124000000 1.409329886000000
H 2.565533959000000 4.654420602000000 -0.540420495000000
H 3.749402330000000 4.854662148000000 1.467740015000000
H 2.241690460000000 5.798374762000000 1.469049310000000
H 2.295121960000000 4.207073905000000 2.239222953000000

10guanidiniummethanol150.wfx

