%nprocs=4
%mem=4GB
#p pbepbe aug-cc-pvtz output=wfx scf=(conver=6) int=(grid=ultrafine)

title

1 1
C -0.081972325000000 0.353680588000000 0.028076102000000
N -0.781386068000000 -0.780045332000000 -0.011075941000000
N -0.700530775000000 1.527575229000000 0.063558364000000
N 1.245079059000000 0.328413353000000 0.036872021000000
H -1.701484618000000 1.589975232000000 0.033190952000000
H 1.750062669000000 -0.538343991000000 0.016503262000000
H 1.745755146000000 1.209639567000000 0.055791883000000
H -0.322300090000000 -1.672024252000000 -0.041041434000000
H -0.137793105000000 2.370660847000000 0.078458926000000
H -1.784932170000000 -0.770876464000000 -0.005828173000000
O 1.785539065000000 3.383640849000000 0.167952643000000
C 2.204499280000000 4.051373837000000 1.374799441000000
H 2.104513134000000 3.906433315000000 -0.574950940000000
H 3.288381505000000 4.106674861000000 1.433209570000000
H 1.780669635000000 5.050387475000000 1.434518865000000
H 1.834101135000000 3.459086618000000 2.204692508000000

10guanidiniummethanol110.wfx

