%nprocs=4
%mem=4GB
#p pbepbe aug-cc-pvtz output=wfx scf=(conver=6) int=(grid=ultrafine)

title

1 1
C -0.081972325000000 0.353680588000000 0.028076102000000
N -0.781386068000000 -0.780045332000000 -0.011075941000000
N -0.700530775000000 1.527575229000000 0.063558364000000
N 1.245079059000000 0.328413353000000 0.036872021000000
H -1.701484618000000 1.589975232000000 0.033190952000000
H 1.750062669000000 -0.538343991000000 0.016503262000000
H 1.745755146000000 1.209639567000000 0.055791883000000
H -0.322300090000000 -1.672024252000000 -0.041041434000000
H -0.137793105000000 2.370660847000000 0.078458926000000
H -1.784932170000000 -0.770876464000000 -0.005828173000000
O 2.794428884000000 5.020523000000000 0.243518458000000
C 3.213389099000000 5.688255988000000 1.450365256000000
H 3.113402953000000 5.543315466000000 -0.499385125000000
H 4.297271324000000 5.743557012000000 1.508775385000000
H 2.789559454000000 6.687269626000000 1.510084680000000
H 2.842990954000000 5.095968769000000 2.280258323000000

10guanidiniummethanol200.wfx

