%nprocs=4
%mem=4GB
#p pbepbe aug-cc-pvtz output=wfx scf=(conver=6) int=(grid=ultrafine)

title

0 1
O 2.018670957000000 3.007993255000000 0.136861195000000
H 2.419466865000000 3.415761631000000 0.911181729000000
H 2.349723896000000 3.533314917000000 -0.598704323000000

11guanidiniumwater_2.wfx

