%nprocs=4
%mem=4GB
#p pbepbe aug-cc-pvtz output=wfx scf=(conver=6) int=(grid=ultrafine)

title

1 1
C -0.071100547000000 0.351296503000000 0.027408194000000
N -0.894833573000000 -0.694824870000000 -0.016588211000000
N -0.552894884000000 1.582189052000000 0.148368366000000
N 1.242556704000000 0.176740483000000 -0.048607484000000
H -1.539110307000000 1.749324362000000 0.227945668000000
H 1.640248335000000 -0.737740076000000 -0.159997553000000
H 0.091723707000000 2.360878453000000 0.177288781000000
H -0.541272484000000 -1.630581091000000 -0.099062272000000
H -1.890242352000000 -0.573671076000000 0.026661967000000
H 1.848157063000000 0.985745123000000 -0.011055350000000
O 2.166254828000000 3.195614528000000 0.144590987000000
H 2.567050736000000 3.603382904000000 0.918911521000000
H 2.497307767000000 3.720936190000000 -0.590974531000000

11guanidiniumwater110.wfx

