%nprocs=4
%mem=4GB
#p pbepbe aug-cc-pvtz output=wfx scf=(conver=6) int=(grid=ultrafine)

title

0 1
O 2.771227219000000 6.581015579000000 4.736846747000000
C 2.031585673000000 6.290675285000000 5.660647292000000
H 1.521615021000000 5.322491983000000 5.706176359000000
H 1.853805525000000 6.994950386000000 6.478785336000000

12imidazoliumformaldehyde_2.wfx

