%nprocs=4
%mem=4GB
#p pbepbe aug-cc-pvtz output=wfx scf=(conver=6) int=(grid=ultrafine)

title

1 1
C 4.999742982000000 5.656478915000000 0.500699101000000
C 4.164862142000000 5.017473257000000 1.379027829000000
N 3.939509304000000 5.868794127000000 2.428963225000000
C 4.608365297000000 6.999915738000000 2.218084680000000
N 5.256490848000000 6.884805521000000 1.050371362000000
H 3.728431744000000 4.037328478000000 1.328268100000000
H 3.316944545000000 5.657789713000000 3.312404450000000
H 4.631794200000000 7.858375587000000 2.863794077000000
H 5.416541405000000 5.343987339000000 -0.438462413000000
H 5.844006700000000 7.599873278000000 0.647217331000000
N 2.408179740000000 5.338046475000000 4.483691922000000
H 2.732410979000000 4.520534938000000 4.990200029000000
C 1.025574061000000 5.098586413000000 4.016913219000000
H 0.668446222000000 5.981055068000000 3.493721253000000
H 1.024439162000000 4.265950316000000 3.319113055000000
H 0.336851620000000 4.871207000000000 4.827253282000000
H 2.396232606000000 6.081317629000000 5.174436615000000

13imidazoliummethylamine095.wfx

