%nprocs=4
%mem=4GB
#p pbepbe aug-cc-pvtz output=wfx scf=(conver=6) int=(grid=ultrafine)

title

1 1
C 4.999742982000000 5.656478915000000 0.500699101000000
C 4.164862142000000 5.017473257000000 1.379027829000000
N 3.939509304000000 5.868794127000000 2.428963225000000
C 4.608365297000000 6.999915738000000 2.218084680000000
N 5.256490848000000 6.884805521000000 1.050371362000000
H 3.728431744000000 4.037328478000000 1.328268100000000
H 3.316944545000000 5.657789713000000 3.312404450000000
H 4.631794200000000 7.858375587000000 2.863794077000000
H 5.416541405000000 5.343987339000000 -0.438462413000000
H 5.844006700000000 7.599873278000000 0.647217331000000
N 2.456006312000000 5.354873956000000 4.422049278000000
H 2.780237551000000 4.537362419000000 4.928557385000000
C 1.073400633000000 5.115413894000000 3.955270575000000
H 0.716272794000000 5.997882549000000 3.432078609000000
H 1.072265734000000 4.282777797000000 3.257470411000000
H 0.384678192000000 4.888034481000000 4.765610638000000
H 2.444059178000000 6.098145110000000 5.112793971000000

13imidazoliummethylamine090.wfx

