%nprocs=4
%mem=4GB
#p pbepbe aug-cc-pvtz output=wfx scf=(conver=6) int=(grid=ultrafine)

title

0 1
O 2.287274462000000 4.997059418000000 4.277698675000000
H 2.537181293000000 4.540754240000000 5.086349443000000
C 0.852612058000000 5.085444264000000 4.230014684000000
H 0.600364555000000 5.592921938000000 3.305190746000000
H 0.401774603000000 4.096692297000000 4.227095080000000
H 0.472893936000000 5.665090054000000 5.066954029000000

14imidazoliummethanol_2.wfx

