%nprocs=4
%mem=4GB
#p pbepbe aug-cc-pvtz output=wfx scf=(conver=6) int=(grid=ultrafine)

title

1 1
C 5.149867812000000 5.781166695000000 0.454915895000000
C 4.310331875000000 4.996348260000000 1.199035769000000
N 3.949484344000000 5.726378549000000 2.300513163000000
C 4.535679925000000 6.921018621000000 2.255243186000000
N 5.268418880000000 6.964890399000000 1.136262329000000
H 3.954151378000000 3.997818400000000 1.027940865000000
H 3.315215265000000 5.411421924000000 3.069161162000000
H 4.439502186000000 7.706358470000000 2.982065199000000
H 5.654340822000000 5.595095678000000 -0.474727925000000
H 5.822762606000000 7.757809794000000 0.847037700000000
O 2.287274462000000 4.997059418000000 4.277698675000000
H 2.537181293000000 4.540754240000000 5.086349443000000
C 0.852612058000000 5.085444264000000 4.230014684000000
H 0.600364555000000 5.592921938000000 3.305190746000000
H 0.401774603000000 4.096692297000000 4.227095080000000
H 0.472893936000000 5.665090054000000 5.066954029000000

14imidazoliummethanol100.wfx

