%nprocs=4
%mem=4GB
#p pbepbe aug-cc-pvtz output=wfx scf=(conver=6) int=(grid=ultrafine)

title

0 1
O 2.273799414000000 5.176654089000000 4.427454544000000
H 2.504832168000000 4.716982810000000 5.239367142000000
H 1.322383844000000 5.303900651000000 4.477382132000000

15imidazoliumwater_2.wfx

