&control
 title='crystal',
 prefix='crystal',
 pseudo_dir='.',
 calculation='vc-relax',
/
&system
 ibrav=0,
 celldm(1)=1.0,
 nat=   104,
 ntyp=  4,
 ecutwfc=60.0,
 ecutrho=600.0,
 xdm=.true.,
 xdm_a1=0.4073,
 xdm_a2=2.4150,
/
&electrons
 conv_thr = 1d-8,
/
&ions
/
&cell
/
ATOMIC_SPECIES
h      1.007940 h.UPF
c     12.010700 c.UPF
n     14.006700 n.UPF
o     15.999400 o.UPF

ATOMIC_POSITIONS crystal
o     0.97299096     0.90750577     0.50522373
o     0.52700905     0.09249425     0.00522373
o     0.47299832     0.59250542     0.49478458
o     0.02700169     0.40749460     0.99478457
n     0.23069952     0.16959021     0.40934481
n     0.26930049     0.83040981     0.90934480
n     0.73069758     0.33044271     0.59065217
n     0.76930243     0.66955731     0.09065216
c     0.08234915     0.95191239     0.46815398
c     0.41765086     0.04808763     0.96815398
c     0.58233312     0.54811307     0.53184659
c     0.91766689     0.45188695     0.03184658
c     0.09736402     0.11138136     0.40745588
c     0.40263599     0.88861866     0.90745587
c     0.59736419     0.38863857     0.59254210
c     0.90263582     0.61136145     0.09254209
c     0.03572142     0.11796199     0.26401347
c     0.46427859     0.88203802     0.76401347
c     0.53572004     0.38203077     0.73598342
c     0.96427997     0.61796925     0.23598341
c     0.24372565     0.33648935     0.41236434
c     0.25627436     0.66351067     0.91236433
c     0.74372889     0.16354965     0.58763411
c     0.75627112     0.83645037     0.08763411
o     0.44973621     0.12580703     0.40819330
o     0.05026380     0.87419299     0.90819329
o     0.94972415     0.37424008     0.59180009
o     0.55027586     0.62575994     0.09180008
n     0.18932663     0.86407433     0.48010860
n     0.31067338     0.13592569     0.98010859
n     0.68932669     0.63595813     0.51989512
n     0.81067332     0.36404189     0.01989512
c     0.33631907     0.07727993     0.41022280
c     0.16368094     0.92272009     0.91022280
c     0.83633801     0.42275234     0.58977126
c     0.66366200     0.57724768     0.08977125
c     0.31254886     0.90458690     0.41382490
c     0.18745115     0.09541311     0.91382489
c     0.81254743     0.59544826     0.58617248
c     0.68745258     0.40455176     0.08617248
c     0.32677124     0.83322957     0.27039200
c     0.17322877     0.16677045     0.77039199
c     0.82677263     0.66678541     0.72961213
c     0.67322738     0.33321461     0.22961213
c     0.17574695     0.71110009     0.54070289
c     0.32425306     0.28889993     0.04070289
c     0.67574285     0.78893057     0.45930046
c     0.82425716     0.21106945     0.95930045
h     0.04139004     0.18734683     0.47558542
h     0.45860997     0.81265319     0.97558541
h     0.54139412     0.31267237     0.52440574
h     0.95860589     0.68732765     0.02440573
h     0.04258093     0.23390521     0.22096819
h     0.45741908     0.76609481     0.72096819
h     0.54258287     0.26608238     0.77901560
h     0.95741714     0.73391764     0.27901560
h     0.08293975     0.03783657     0.19303433
h     0.41706026     0.96216345     0.69303432
h     0.58293650     0.46214995     0.80697277
h     0.91706351     0.53785007     0.30697276
h     0.93305621     0.08720389     0.27166066
h     0.56694380     0.91279612     0.77166065
h     0.43305399     0.41277904     0.72834097
h     0.06694602     0.58722097     0.22834097
h     0.21332019     0.38711715     0.31404296
h     0.28667982     0.61288286     0.81404295
h     0.71332228     0.11291865     0.68595503
h     0.78667773     0.88708137     0.18595502
h     0.18129460     0.38218672     0.49380102
h     0.31870541     0.61781329     0.99380102
h     0.68129664     0.11784534     0.50619854
h     0.81870337     0.88215468     0.00619854
h     0.38991243     0.85672983     0.47792773
h     0.11008758     0.14327019     0.97792772
h     0.88990962     0.64331295     0.52206980
h     0.61009039     0.35668707     0.02206979
h     0.32444870     0.70772009     0.27775151
h     0.17555131     0.29227992     0.77775150
h     0.82445265     0.79229529     0.72226866
h     0.67554736     0.20770473     0.22226866
h     0.24964322     0.87233145     0.20122699
h     0.25035679     0.12766857     0.70122698
h     0.74964224     0.62766807     0.79876935
h     0.75035777     0.37233195     0.29876935
h     0.42084836     0.86471577     0.22666373
h     0.07915165     0.13528425     0.72666372
h     0.92084798     0.63529154     0.77333588
h     0.57915203     0.36470847     0.27333588
h     0.12726596     0.72034052     0.64049437
h     0.37273405     0.27965950     0.14049436
h     0.62726275     0.77968628     0.35950907
h     0.87273726     0.22031374     0.85950906
h     0.11667996     0.63604721     0.47542459
h     0.38332005     0.36395281     0.97542458
h     0.61667829     0.86398062     0.52457907
h     0.88332172     0.13601940     0.02457906
h     0.27211223     0.66060798     0.55188094
h     0.22788778     0.33939204     0.05188093
h     0.77211091     0.83942474     0.44812285
h     0.72788910     0.16057528     0.94812285
h     0.34435472     0.36855528     0.43128578
h     0.15564529     0.63144474     0.93128577
h     0.84435552     0.13148641     0.56871367
h     0.65564449     0.86851361     0.06871366

K_POINTS automatic
2 2 2 1 1 1

CELL_PARAMETERS cubic
   19.504366000000    -0.000124000000     0.000000000000
   -0.000105000000    16.452045000000     0.000000000000
    0.000000000000     0.000000000000    18.378809000000
