&control
 title='crystal',
 prefix='crystal',
 pseudo_dir='.',
 calculation='vc-relax',
/
&system
 ibrav=0,
 celldm(1)=1.0,
 nat=    22,
 ntyp=  3,
 ecutwfc=60.0,
 ecutrho=600.0,
 xdm=.true.,
 xdm_a1=0.4073,
 xdm_a2=2.4150,
/
&electrons
 conv_thr = 1d-8,
/
&ions
/
&cell
/
ATOMIC_SPECIES
h      1.007940 h.UPF
c     12.010700 c.UPF
n     14.006700 n.UPF

ATOMIC_POSITIONS crystal
c     0.50857797     0.99087196     0.21376795
c     0.49142363     0.49087130     0.78623157
c     0.23610593     0.06620577     0.15183696
c     0.76389514     0.56620478     0.84816437
c     0.14569713     0.98177629     0.32659477
c     0.85430142     0.48177915     0.67340565
n     0.41361893     0.02054577     0.38485197
n     0.58638291     0.52054933     0.61514991
h     0.57008691     0.74913777     0.18191359
h     0.42991119     0.24914015     0.81808655
h     0.07521930     0.73646822     0.33503680
h     0.92478014     0.23647511     0.66496324
h     0.00482713     0.13789819     0.38531758
h     0.99517244     0.63790110     0.61468239
h     0.66259477     0.15580763     0.18027499
h     0.33740633     0.65580350     0.81972340
h     0.21164375     0.31772398     0.12411178
h     0.78835673     0.81772361     0.87588907
h     0.16140304     0.92524125     0.05043706
h     0.83859606     0.42524242     0.94956480
h     0.47721366     0.84766381     0.46516676
h     0.52278476     0.34766916     0.53482862

K_POINTS automatic
2 2 2 1 1 1

CELL_PARAMETERS cubic
    9.852613000000    -0.000028000000     0.469485000000
   -0.000027000000     7.994734000000    -0.000035000000
   -0.683467000000    -0.000029000000    15.426979000000
