&control
 title='crystal',
 prefix='crystal',
 pseudo_dir='.',
 calculation='vc-relax',
/
&system
 ibrav=0,
 celldm(1)=1.0,
 nat=    44,
 ntyp=  3,
 ecutwfc=60.0,
 ecutrho=600.0,
 xdm=.true.,
 xdm_a1=0.4073,
 xdm_a2=2.4150,
/
&electrons
 conv_thr = 1d-8,
/
&ions
/
&cell
/
ATOMIC_SPECIES
h      1.007940 h.UPF
c     12.010700 c.UPF
n     14.006700 n.UPF

ATOMIC_POSITIONS crystal
c     0.72351120     0.76154459     0.60773059
c     0.27648886     0.23845541     0.39226943
c     0.27648877     0.26153920     0.89226982
c     0.72351130     0.73846080     0.10773020
c     0.38395921     0.80483829     0.57738925
c     0.61604085     0.19516171     0.42261077
c     0.61604324     0.30482456     0.92261187
c     0.38395683     0.69517544     0.07738814
c     0.47052574     0.70260787     0.66421905
c     0.52947432     0.29739213     0.33578097
c     0.52947636     0.20259910     0.83578129
c     0.47052370     0.79740090     0.16421873
n     0.79452765     0.76873259     0.69349473
n     0.20547241     0.23126741     0.30650529
n     0.20547099     0.26872845     0.80650480
n     0.79452907     0.73127155     0.19349522
h     0.77039701     0.53126484     0.58980935
h     0.22960306     0.46873516     0.41019067
h     0.22960173     0.03125766     0.91019027
h     0.77039833     0.96874234     0.08980975
h     0.42383687     0.45059620     0.66710495
h     0.57616319     0.54940380     0.33289507
h     0.57616207     0.95058354     0.83289545
h     0.42383799     0.04941646     0.16710457
h     0.37738106     0.83940980     0.69462738
h     0.62261900     0.16059020     0.30537264
h     0.62262437     0.33939656     0.80537398
h     0.37737569     0.66060344     0.19462604
h     0.83396624     0.94668099     0.59234213
h     0.16603382     0.05331901     0.40765789
h     0.16603558     0.44667555     0.90765884
h     0.83396448     0.55332445     0.09234118
h     0.31232454     0.05191362     0.56452330
h     0.68767552     0.94808638     0.43547672
h     0.68767796     0.55190199     0.93547786
h     0.31232210     0.44809801     0.06452216
h     0.22041460     0.65878205     0.52603100
h     0.77958546     0.34121795     0.47396902
h     0.77958277     0.15876789     0.97396897
h     0.22041729     0.84123211     0.02603105
h     0.94668874     0.59816312     0.73180473
h     0.05331132     0.40183688     0.26819529
h     0.05331186     0.09816729     0.76819521
h     0.94668820     0.90183271     0.23180481

K_POINTS automatic
2 2 2 1 1 1

CELL_PARAMETERS cubic
    9.757262000000     0.000016000000     0.552291000000
    0.000016000000     8.009383000000     0.000013000000
  -20.716714000000    -0.000072000000    29.780402000000
