&control
 title='crystal',
 prefix='crystal',
 pseudo_dir='.',
 calculation='vc-relax',
/
&system
 ibrav=0,
 celldm(1)=1.0,
 nat=    44,
 ntyp=  3,
 ecutwfc=60.0,
 ecutrho=600.0,
 xdm=.true.,
 xdm_a1=0.4073,
 xdm_a2=2.4150,
/
&electrons
 conv_thr = 1d-8,
/
&ions
/
&cell
/
ATOMIC_SPECIES
h      1.007940 h.UPF
c     12.010700 c.UPF
n     14.006700 n.UPF

ATOMIC_POSITIONS crystal
n     0.20740175     0.94846152     0.12592389
n     0.79259830     0.05153850     0.87407613
c     0.18782238     0.12963807     0.24615391
c     0.81217768     0.87036196     0.75384611
c     0.37386008     0.07316176     0.26560772
c     0.62613998     0.92683826     0.73439229
c     0.36441206     0.83214515     0.18483669
c     0.63558799     0.16785487     0.81516333
h     0.46686706     0.79460224     0.08950875
h     0.53313299     0.20539778     0.91049126
h     0.34587476     0.65282850     0.27381653
h     0.65412530     0.34717152     0.72618349
h     0.45504016     0.21887567     0.19023171
h     0.54495989     0.78112435     0.80976831
h     0.40479907     0.03953899     0.38851126
h     0.59520098     0.96046103     0.61148876
h     0.10414161     0.05918475     0.35804533
h     0.89585844     0.94081527     0.64195469
h     0.14641789     0.33018264     0.20106638
h     0.85358217     0.66981738     0.79893364
h     0.11110513     0.82357258     0.14042519
h     0.88889492     0.17642745     0.85957483
n     0.87573363     0.68955402     0.16930819
n     0.12426642     0.31044600     0.83069183
c     0.78818615     0.71721711     0.33374989
c     0.21181390     0.28278292     0.66625013
c     0.74695391     0.42726400     0.36338275
c     0.25304614     0.57273602     0.63661726
c     0.79461717     0.43893980     0.17917975
c     0.20538289     0.56106023     0.82082026
h     0.87787766     0.28257058     0.13606002
h     0.12212240     0.71742945     0.86394000
h     0.68445994     0.46056516     0.11567684
h     0.31554011     0.53943487     0.88432318
h     0.83405676     0.30199879     0.43249780
h     0.16594329     0.69800124     0.56750222
h     0.61883147     0.37910135     0.41575872
h     0.38116859     0.62089868     0.58424129
h     0.67594341     0.84924892     0.33243930
h     0.32405664     0.15075111     0.66756072
h     0.86765966     0.77748624     0.41312402
h     0.13234039     0.22251378     0.58687600
h     0.83916992     0.83131088     0.07855718
h     0.16083013     0.16868914     0.92144283

K_POINTS automatic
2 2 2 1 1 1

CELL_PARAMETERS cubic
   15.301062000000     0.276828000000     0.634832000000
    0.558457000000     9.851158000000    -0.095589000000
    1.785656000000     2.808506000000    15.707762000000
