&control
 title='crystal',
 prefix='crystal',
 pseudo_dir='.',
 calculation='vc-relax',
/
&system
 ibrav=0,
 celldm(1)=1.0,
 nat=    22,
 ntyp=  3,
 ecutwfc=60.0,
 ecutrho=600.0,
 xdm=.true.,
 xdm_a1=0.4073,
 xdm_a2=2.4150,
/
&electrons
 conv_thr = 1d-8,
/
&ions
/
&cell
/
ATOMIC_SPECIES
h      1.007940 h.UPF
c     12.010700 c.UPF
n     14.006700 n.UPF

ATOMIC_POSITIONS crystal
n     0.08500732     0.54348101     0.11594904
n     0.91499333     0.04347588     0.88405164
c     0.99045253     0.50631352     0.28648076
c     0.00954982     0.00631917     0.71351823
c     0.26215850     0.58411988     0.34920468
c     0.73784142     0.08412019     0.65079600
c     0.35339222     0.50690060     0.17399441
c     0.64660523     0.00689501     0.82600651
h     0.49262727     0.66731599     0.11681016
h     0.50737288     0.16730596     0.88319119
h     0.42631241     0.26275995     0.16352190
h     0.57368665     0.76274862     0.83647697
h     0.28396103     0.83526138     0.37912986
h     0.71603975     0.33526169     0.62087181
h     0.33844487     0.44103063     0.44930803
h     0.66155516     0.94103266     0.55069195
h     0.93167163     0.26225749     0.31596205
h     0.06832821     0.76226102     0.68403586
h     0.83460099     0.66756738     0.32134416
h     0.16539849     0.16757713     0.67865591
h     0.02338983     0.37180672     0.03431722
h     0.97661051     0.87180705     0.96568186

K_POINTS automatic
2 2 2 1 1 1

CELL_PARAMETERS cubic
    9.857951000000    -0.000052000000     0.278505000000
   -0.000046000000     7.987399000000    -0.000013000000
   -0.402655000000    -0.000009000000    15.455083000000
