&control
 title='crystal',
 prefix='crystal',
 pseudo_dir='.',
 calculation='vc-relax',
/
&system
 ibrav=0,
 celldm(1)=1.0,
 nat=    44,
 ntyp=  3,
 ecutwfc=60.0,
 ecutrho=600.0,
 xdm=.true.,
 xdm_a1=0.4073,
 xdm_a2=2.4150,
/
&electrons
 conv_thr = 1d-8,
/
&ions
/
&cell
/
ATOMIC_SPECIES
h      1.007940 h.UPF
c     12.010700 c.UPF
n     14.006700 n.UPF

ATOMIC_POSITIONS crystal
n     0.08403943     0.28691110     0.43240699
n     0.08403973     0.71308896     0.93240739
c     0.35454330     0.23797298     0.41071289
c     0.35454247     0.76202663     0.91071189
c     0.26313439     0.09467809     0.32538295
c     0.26313148     0.90532112     0.82538341
c     0.99579073     0.13446530     0.40732236
c     0.99579026     0.86553444     0.90732598
h     0.83350302     0.12244774     0.31996090
h     0.83349937     0.87755287     0.81996716
h     0.94990233     0.07686575     0.53552711
h     0.94990562     0.92313387     0.03553194
h     0.27164664     0.09796132     0.17742541
h     0.27164005     0.90203775     0.67742560
h     0.34972248     0.99330993     0.37014421
h     0.34972125     0.00668978     0.87014327
h     0.44550111     0.21917798     0.53999582
h     0.44550278     0.78082143     0.03999390
h     0.47946837     0.30945622     0.32690422
h     0.47946724     0.69054312     0.82690155
h     0.03278347     0.33293242     0.55694175
h     0.03278511     0.66706659     0.05694324
n     0.93701436     0.41560943     0.79445735
n     0.93701520     0.58439064     0.29445799
c     0.01647449     0.30054943     0.92274474
c     0.01647693     0.69945092     0.42274413
c     0.74258275     0.23829777     0.92459756
c     0.74258519     0.76170281     0.42459854
c     0.66520600     0.38923302     0.85323962
c     0.66520790     0.61076717     0.35324223
h     0.52902851     0.39437363     0.74504494
h     0.52902860     0.60562634     0.24504802
h     0.59748347     0.46172692     0.96406560
h     0.59748688     0.53827383     0.46406851
h     0.72319402     0.15236677     0.82332551
h     0.72319396     0.84763348     0.32332690
h     0.65609872     0.20219884     0.05411421
h     0.65610300     0.79780235     0.55411600
h     0.06407440     0.34345011     0.05585405
h     0.06407967     0.65655124     0.55585295
h     0.17277883     0.23047464     0.87047407
h     0.17278044     0.76952587     0.37047162
h     0.99934281     0.51964804     0.82309796
h     0.99934474     0.48035175     0.32309850

K_POINTS automatic
2 2 2 1 1 1

CELL_PARAMETERS cubic
    9.899414000000     0.000005000000    -0.268882000000
    0.000011000000    17.342080000000    -0.000012000000
    1.027629000000    -0.000007000000    13.954763000000
