&control
 title='crystal',
 prefix='crystal',
 pseudo_dir='.',
 calculation='vc-relax',
/
&system
 ibrav=0,
 celldm(1)=1.0,
 nat=    44,
 ntyp=  3,
 ecutwfc=60.0,
 ecutrho=600.0,
 xdm=.true.,
 xdm_a1=0.4073,
 xdm_a2=2.4150,
/
&electrons
 conv_thr = 1d-8,
/
&ions
/
&cell
/
ATOMIC_SPECIES
h      1.007940 h.UPF
c     12.010700 c.UPF
n     14.006700 n.UPF

ATOMIC_POSITIONS crystal
c     0.39311595     0.08825938     0.20742944
c     0.60688414     0.91174061     0.79257058
c     0.39311598     0.41174062     0.70742945
c     0.60688412     0.58825937     0.29257058
c     0.10615679     0.10651443     0.23547220
c     0.89384330     0.89348557     0.76452782
c     0.10615682     0.39348557     0.73547221
c     0.89384328     0.60651442     0.26452782
n     0.21811511     0.19899609     0.35618234
n     0.78188498     0.80100390     0.64381768
n     0.21811514     0.30100391     0.85618235
n     0.78188496     0.69899608     0.14381768
c     0.51656665     0.16565776     0.42528263
c     0.48343344     0.83434223     0.57471739
c     0.51656668     0.33434223     0.92528264
c     0.48343342     0.66565776     0.07471739
h     0.48724560     0.01890179     0.25727981
h     0.51275449     0.98109820     0.74272021
h     0.48724563     0.48109821     0.75727982
h     0.51275447     0.51890179     0.24272021
h     0.38446372     0.10955283     0.00500443
h     0.61553637     0.89044716     0.99499559
h     0.38446374     0.39044717     0.50500444
h     0.61553635     0.60955282     0.49499559
h     0.07262576     0.05817953     0.38248343
h     0.92737433     0.94182046     0.61751659
h     0.07262579     0.44182046     0.88248344
h     0.92737431     0.55817953     0.11751659
h     0.90941311     0.10831001     0.04571171
h     0.09058698     0.89168998     0.95428831
h     0.90941314     0.39168999     0.54571172
h     0.09058696     0.60831001     0.45428831
h     0.17639482     0.22067499     0.52321895
h     0.82360527     0.77932500     0.47678107
h     0.17639485     0.27932500     0.02321896
h     0.82360525     0.72067499     0.97678107
h     0.61981629     0.13714279     0.63619061
h     0.38018380     0.86285720     0.36380941
h     0.61981631     0.36285721     0.13619062
h     0.38018378     0.63714279     0.86380941
h     0.66250011     0.21686874     0.39666308
h     0.33749998     0.78313125     0.60333694
h     0.66250013     0.28313126     0.89666309
h     0.33749996     0.71686874     0.10333694

K_POINTS automatic
2 2 2 1 1 1

CELL_PARAMETERS cubic
    9.585863000000     0.000000000000     0.338320000000
    0.000000000000    27.189038000000     0.000000000000
   -4.284410000000     0.000000000000     9.004931000000
