&control
 title='crystal',
 prefix='crystal',
 pseudo_dir='.',
 calculation='vc-relax',
/
&system
 ibrav=0,
 celldm(1)=1.0,
 nat=    22,
 ntyp=  3,
 ecutwfc=60.0,
 ecutrho=600.0,
 xdm=.true.,
 xdm_a1=0.4073,
 xdm_a2=2.4150,
/
&electrons
 conv_thr = 1d-8,
/
&ions
/
&cell
/
ATOMIC_SPECIES
h      1.007940 h.UPF
c     12.010700 c.UPF
n     14.006700 n.UPF

ATOMIC_POSITIONS crystal
c     0.24301027     0.09145511     0.11158072
c     0.90854569     0.75698987     0.61157934
c     0.93845364     0.34747854     0.07792725
c     0.65252327     0.06154448     0.57792485
n     0.97336432     0.12748695     0.95316330
n     0.87251291     0.02663617     0.45315796
c     0.30216886     0.87833635     0.89276581
c     0.12166302     0.69783136     0.39276468
h     0.39678918     0.08348946     0.06744963
h     0.91651394     0.60320691     0.56745087
h     0.21541601     0.07485127     0.31039959
h     0.92514839     0.78458247     0.81039785
h     0.94569418     0.43824063     0.93599076
h     0.56176101     0.05430308     0.43599013
h     0.73762825     0.53564088     0.26230792
h     0.46435905     0.26237232     0.76230594
h     0.91450851     0.14259046     0.78479205
h     0.85741109     0.08548952     0.28478748
h     0.43121277     0.81219530     0.68799715
h     0.18781003     0.56878273     0.18799652
h     0.40484486     0.67587861     0.92059606
h     0.32412129     0.59515721     0.42059442

K_POINTS automatic
2 2 2 1 1 1

CELL_PARAMETERS cubic
   14.085985000000     0.086639000000    -0.064751000000
   10.737895000000     9.116969000000     0.064824000000
    1.395674000000    -3.764311000000     9.254892000000
