&control
 title='crystal',
 prefix='crystal',
 pseudo_dir='.',
 calculation='vc-relax',
/
&system
 ibrav=0,
 celldm(1)=1.0,
 nat=    44,
 ntyp=  3,
 ecutwfc=60.0,
 ecutrho=600.0,
 xdm=.true.,
 xdm_a1=0.4073,
 xdm_a2=2.4150,
/
&electrons
 conv_thr = 1d-8,
/
&ions
/
&cell
/
ATOMIC_SPECIES
h      1.007940 h.UPF
c     12.010700 c.UPF
n     14.006700 n.UPF

ATOMIC_POSITIONS crystal
n     0.59370918     0.67174074     0.70228897
n     0.40628841     0.32825803     0.29771104
n     0.40628635     0.17174139     0.79770620
n     0.59371124     0.82825738     0.20229381
c     0.50314987     0.76863811     0.60599253
c     0.49684772     0.23136066     0.39400748
c     0.49684588     0.26863858     0.89400300
c     0.50315171     0.73136020     0.10599701
c     0.79280899     0.79135299     0.57967786
c     0.20718860     0.20864578     0.42032215
c     0.20718609     0.29135449     0.92031853
c     0.79281151     0.70864428     0.07968149
c     0.85605814     0.60812737     0.66604031
c     0.14393946     0.39187140     0.33395971
c     0.14393820     0.10812863     0.83395538
c     0.85605939     0.89187014     0.16604463
h     0.49552426     0.50559565     0.72651561
h     0.50447333     0.49440312     0.27348441
h     0.50446777     0.00559392     0.77348023
h     0.49552983     0.99440486     0.22651978
h     0.39377347     0.61706164     0.56314387
h     0.60622412     0.38293713     0.43685614
h     0.60621736     0.11705934     0.93685037
h     0.39378023     0.88293943     0.06314964
h     0.38662408     0.95358092     0.60622093
h     0.61337352     0.04641785     0.39377909
h     0.61337890     0.45357738     0.89377674
h     0.38661870     0.54642139     0.10622328
h     0.87107539     0.99399579     0.59006052
h     0.12892221     0.00600298     0.40993950
h     0.12892700     0.49399978     0.90993492
h     0.87107059     0.50599899     0.09006509
h     0.84394991     0.71864144     0.50968079
h     0.15604769     0.28135733     0.49031923
h     0.15604305     0.21863707     0.99031503
h     0.84395454     0.78136170     0.00968499
h     0.02412463     0.66014062     0.71421074
h     0.97587296     0.33985815     0.28578927
h     0.97587775     0.16014317     0.78578377
h     0.02411985     0.83985560     0.21421625
h     0.87558947     0.39651152     0.64502562
h     0.12440812     0.60348725     0.35497439
h     0.12440020     0.89651066     0.85496739
h     0.87559739     0.10348811     0.14503262

K_POINTS automatic
2 2 2 1 1 1

CELL_PARAMETERS cubic
    9.624525000000     0.000029000000     0.340111000000
    0.000038000000     9.436345000000     0.000011000000
   -2.281206000000    -0.000036000000    26.509620000000
