&control
 title='crystal',
 prefix='crystal',
 pseudo_dir='.',
 calculation='vc-relax',
/
&system
 ibrav=0,
 celldm(1)=1.0,
 nat=    44,
 ntyp=  3,
 ecutwfc=60.0,
 ecutrho=600.0,
 xdm=.true.,
 xdm_a1=0.4073,
 xdm_a2=2.4150,
/
&electrons
 conv_thr = 1d-8,
/
&ions
/
&cell
/
ATOMIC_SPECIES
h      1.007940 h.UPF
c     12.010700 c.UPF
n     14.006700 n.UPF

ATOMIC_POSITIONS crystal
c     0.93330575     0.55911635     0.57657057
c     0.06669417     0.44088358     0.42342944
c     0.55911743     0.93330631     0.92342957
c     0.44088249     0.06669362     0.07657045
c     0.95548297     0.78246885     0.61062139
c     0.04451694     0.21753108     0.38937862
c     0.78246993     0.95548353     0.88937875
c     0.21752999     0.04451640     0.11062127
h     0.10309229     0.70356509     0.53690960
h     0.89690763     0.29643484     0.46309042
h     0.70356617     0.10309285     0.96309054
h     0.29643375     0.89690708     0.03690948
h     0.65998608     0.36554479     0.54927153
h     0.34001384     0.63445514     0.45072848
h     0.36554588     0.65998664     0.95072861
h     0.63445404     0.34001329     0.04927141
h     0.72794734     0.79597136     0.58829573
h     0.27205258     0.20402857     0.41170428
h     0.79597245     0.72794790     0.91170441
h     0.20402747     0.27205203     0.08829561
h     0.20124563     0.05562352     0.60697074
h     0.79875429     0.94437640     0.39302928
h     0.05562461     0.20124618     0.89302940
h     0.94437531     0.79875374     0.10697061
n     0.97227836     0.53986372     0.68961481
n     0.02772156     0.46013621     0.31038521
n     0.53986481     0.97227891     0.81038533
n     0.46013511     0.02772101     0.18961469
c     0.06104913     0.39710140     0.66206706
c     0.93895079     0.60289853     0.33793296
c     0.39710249     0.06104968     0.83793308
c     0.60289743     0.93895024     0.16206694
h     0.91684565     0.10681497     0.68061003
h     0.08315427     0.89318496     0.31938999
h     0.10681606     0.91684620     0.81939011
h     0.89318386     0.08315373     0.18060991
h     0.34740091     0.51701742     0.67818710
h     0.65259901     0.48298251     0.32181292
h     0.51701851     0.34740147     0.82181304
h     0.48298142     0.65259846     0.17818698
h     0.17036128     0.66899812     0.73394725
h     0.82963864     0.33100181     0.26605277
h     0.66899921     0.17036183     0.76605289
h     0.33100072     0.82963810     0.23394713

K_POINTS automatic
2 2 2 1 1 1

CELL_PARAMETERS cubic
    9.954804000000     0.012400000000    -0.206012000000
   -6.761049000000     7.306610000000     0.206013000000
  -17.708435000000     7.727341000000    32.748844000000
