&control
 title='crystal',
 prefix='crystal',
 pseudo_dir='.',
 calculation='vc-relax',
/
&system
 ibrav=0,
 celldm(1)=1.0,
 nat=    44,
 ntyp=  3,
 ecutwfc=60.0,
 ecutrho=600.0,
 xdm=.true.,
 xdm_a1=0.4073,
 xdm_a2=2.4150,
/
&electrons
 conv_thr = 1d-8,
/
&ions
/
&cell
/
ATOMIC_SPECIES
h      1.007940 h.UPF
c     12.010700 c.UPF
n     14.006700 n.UPF

ATOMIC_POSITIONS crystal
c     0.21570632     0.37575624     0.96188681
c     0.78429362     0.62424369     0.03811319
c     0.37575310     0.21570324     0.53811390
c     0.62424683     0.78429670     0.46188610
c     0.05946704     0.28851705     0.03034142
c     0.94053290     0.71148289     0.96965858
c     0.28851372     0.05946434     0.46965840
c     0.71148622     0.94053560     0.53034160
n     0.10112891     0.48397540     0.83228738
n     0.89887103     0.51602454     0.16771262
n     0.48397366     0.10112633     0.66771345
n     0.51602627     0.89887361     0.33228655
c     0.15634642     0.48370915     0.74253506
c     0.84365351     0.51629079     0.25746494
c     0.48371080     0.15634791     0.75746556
c     0.51628913     0.84365202     0.24253444
h     0.89405322     0.36488939     0.75773637
h     0.10594671     0.63511055     0.24226363
h     0.36489032     0.89405492     0.74226327
h     0.63510962     0.10594501     0.25773673
h     0.35901160     0.72094456     0.65470528
h     0.64098834     0.27905537     0.34529472
h     0.72094542     0.35901211     0.84529550
h     0.27905452     0.64098782     0.15470450
h     0.93649564     0.29635951     0.64441705
h     0.06350429     0.70364043     0.35558295
h     0.29635981     0.93649617     0.85558313
h     0.70364012     0.06350376     0.14441687
h     0.47597339     0.57930464     0.02885841
h     0.52402654     0.42069530     0.97114159
h     0.57930241     0.47597051     0.47114232
h     0.42069753     0.52402943     0.52885768
h     0.09143357     0.17538354     0.98197750
h     0.90856637     0.82461639     0.01802250
h     0.17538221     0.09143293     0.51802242
h     0.82461772     0.90856700     0.48197758
h     0.80058535     0.02460689     0.04533943
h     0.19941458     0.97539304     0.95466057
h     0.02460296     0.80058190     0.45466055
h     0.97539698     0.19941804     0.54533945
h     0.18826680     0.37372915     0.16994898
h     0.81173313     0.62627079     0.83005102
h     0.37372419     0.18826211     0.33005121
h     0.62627574     0.81173783     0.66994879

K_POINTS automatic
2 2 2 1 1 1

CELL_PARAMETERS cubic
   24.918383000000    -0.083023000000    -0.513185000000
  -23.631522000000     7.904697000000     0.513169000000
  -13.144310000000     2.162552000000    12.494988000000
