&control
 title='crystal',
 prefix='crystal',
 pseudo_dir='.',
 calculation='vc-relax',
/
&system
 ibrav=0,
 celldm(1)=1.0,
 nat=    44,
 ntyp=  3,
 ecutwfc=60.0,
 ecutrho=600.0,
 xdm=.true.,
 xdm_a1=0.4073,
 xdm_a2=2.4150,
/
&electrons
 conv_thr = 1d-8,
/
&ions
/
&cell
/
ATOMIC_SPECIES
h      1.007940 h.UPF
c     12.010700 c.UPF
n     14.006700 n.UPF

ATOMIC_POSITIONS crystal
c     0.98681331     0.60459542     0.57702013
c     0.01318668     0.39540464     0.42297987
c     0.60459209     0.98681045     0.92297908
c     0.39540790     0.01318961     0.07702092
c     0.03449914     0.37729100     0.66056105
c     0.96550086     0.62270905     0.33943895
c     0.37729287     0.03450005     0.83943814
c     0.62270713     0.96550001     0.16056186
n     0.08161311     0.61421417     0.69181849
n     0.91838689     0.38578589     0.30818151
n     0.61421401     0.08161183     0.80818066
n     0.38578599     0.91838822     0.19181934
c     0.93612824     0.76452799     0.61193184
c     0.06387176     0.23547207     0.38806816
c     0.76452868     0.93612976     0.88806778
c     0.23547132     0.06387029     0.11193222
h     0.92237428     0.46843092     0.73054783
h     0.07762572     0.53156914     0.26945217
h     0.46843042     0.92237229     0.76945116
h     0.53156958     0.07762776     0.23054884
h     0.09252418     0.06053332     0.59628229
h     0.90747581     0.93946673     0.40371771
h     0.06053497     0.09252157     0.90371833
h     0.93946503     0.90747848     0.09628167
h     0.64943925     0.64272980     0.60078107
h     0.35056074     0.35727026     0.39921893
h     0.64272853     0.64943933     0.89921852
h     0.35727147     0.35056072     0.10078148
h     0.23471855     0.80559604     0.55565800
h     0.76528145     0.19440402     0.44434200
h     0.80559615     0.23471814     0.94434184
h     0.19440385     0.76528192     0.05565816
h     0.75987494     0.45656272     0.53219802
h     0.24012506     0.54343734     0.46780198
h     0.45655949     0.75987401     0.96780156
h     0.54344051     0.24012604     0.03219844
h     0.78868965     0.09560725     0.67004667
h     0.21131035     0.90439281     0.32995333
h     0.09560616     0.78869048     0.82995213
h     0.90439384     0.21130957     0.17004787
h     0.26790557     0.37524444     0.68257808
h     0.73209443     0.62475562     0.31742192
h     0.37524052     0.26790310     0.81742105
h     0.62475948     0.73209696     0.18257895

K_POINTS automatic
2 2 2 1 1 1

CELL_PARAMETERS cubic
   10.023312000000    -0.065265000000    -0.124203000000
   -6.955097000000     7.217875000000     0.124208000000
  -18.314862000000     7.856423000000    32.685108000000
