&control
 title='crystal',
 prefix='crystal',
 pseudo_dir='.',
 calculation='vc-relax',
/
&system
 ibrav=0,
 celldm(1)=1.0,
 nat=    22,
 ntyp=  3,
 ecutwfc=60.0,
 ecutrho=600.0,
 xdm=.true.,
 xdm_a1=0.4073,
 xdm_a2=2.4150,
/
&electrons
 conv_thr = 1d-8,
/
&ions
/
&cell
/
ATOMIC_SPECIES
h      1.007940 h.UPF
c     12.010700 c.UPF
n     14.006700 n.UPF

ATOMIC_POSITIONS crystal
c     0.27759148     0.67772154     0.15455934
c     0.67772037     0.27759119     0.84544009
c     0.36116218     0.54778242     0.32405879
c     0.54778331     0.36116370     0.67594172
n     0.58035502     0.37240403     0.37893529
n     0.37240393     0.58035540     0.62106446
c     0.59418643     0.58761121     0.22279850
c     0.58761020     0.59418418     0.77720115
h     0.84264025     0.44031140     0.46718588
h     0.44031153     0.84264182     0.53281416
h     0.53113394     0.41892021     0.17802119
h     0.41891582     0.53112754     0.82197776
h     0.86513216     0.84193848     0.21676437
h     0.84194023     0.86513263     0.78323531
h     0.99627706     0.49044868     0.09699985
h     0.49044480     0.99627312     0.90299979
h     0.32022532     0.97130072     0.07836457
h     0.97129936     0.32022310     0.92163624
h     0.53403942     0.78680220     0.35841308
h     0.78680294     0.53404200     0.64158812
h     0.11772454     0.34724301     0.35850670
h     0.34723909     0.11772156     0.64149350

K_POINTS automatic
2 2 2 1 1 1

CELL_PARAMETERS cubic
    9.914266000000    -0.033696000000     0.313099000000
   -6.780552000000     7.233094000000    -0.313099000000
  -16.025168000000     6.975316000000    15.698843000000
