&control
 title='crystal',
 prefix='crystal',
 pseudo_dir='.',
 calculation='vc-relax',
/
&system
 ibrav=0,
 celldm(1)=1.0,
 nat=    88,
 ntyp=  3,
 ecutwfc=60.0,
 ecutrho=600.0,
 xdm=.true.,
 xdm_a1=0.4073,
 xdm_a2=2.4150,
/
&electrons
 conv_thr = 1d-8,
/
&ions
/
&cell
/
ATOMIC_SPECIES
h      1.007940 h.UPF
c     12.010700 c.UPF
n     14.006700 n.UPF

ATOMIC_POSITIONS crystal
n     0.99196165     0.27569846     0.15106483
n     0.00803830     0.72430153     0.84893518
n     0.99196162     0.22430153     0.65106483
n     0.00803833     0.77569845     0.34893518
h     0.15524669     0.26664269     0.19538495
h     0.84475326     0.73335729     0.80461506
h     0.15524666     0.23335730     0.69538496
h     0.84475329     0.76664269     0.30461505
c     0.05878837     0.19779390     0.07836855
c     0.94121158     0.80220609     0.92163146
c     0.05878834     0.30220609     0.57836856
c     0.94121161     0.69779389     0.42163145
h     0.91566949     0.10688268     0.07058001
h     0.08433046     0.89311730     0.92942000
h     0.91566947     0.39311731     0.57058002
h     0.08433048     0.60688268     0.42942000
h     0.30673629     0.16991926     0.07216941
h     0.69326366     0.83008072     0.92783060
h     0.30673626     0.33008073     0.57216941
h     0.69326369     0.66991926     0.42783060
c     0.02250174     0.40360579     0.10617082
c     0.97749821     0.59639420     0.89382919
c     0.02250171     0.09639420     0.60617083
c     0.97749824     0.90360578     0.39382919
h     0.25710556     0.44872576     0.10981235
h     0.74289439     0.55127422     0.89018766
h     0.25710553     0.05127423     0.60981236
h     0.74289442     0.94872576     0.39018765
h     0.84965030     0.48134020     0.12138432
h     0.15034965     0.51865978     0.87861569
h     0.84965027     0.01865979     0.62138433
h     0.15034968     0.98134020     0.37861568
c     0.97567559     0.32377200     0.02946659
c     0.02432436     0.67622798     0.97053342
c     0.97567556     0.17622799     0.52946660
c     0.02432439     0.82377200     0.47053341
h     0.73207751     0.32358708     0.01038954
h     0.26792244     0.67641290     0.98961047
h     0.73207748     0.17641290     0.51038955
h     0.26792247     0.82358708     0.48961047
h     0.12656548     0.34852263     0.97965536
h     0.87343447     0.65147735     0.02034466
h     0.12656546     0.15147736     0.47965536
h     0.87343449     0.84852262     0.52034465
n     0.48997842     0.19537763     0.76826917
n     0.51002153     0.80462235     0.23173085
n     0.48997840     0.30462236     0.26826917
n     0.51002155     0.69537763     0.73173084
h     0.65013264     0.21122542     0.72339415
h     0.34986731     0.78877457     0.27660586
h     0.65013262     0.28877457     0.22339416
h     0.34986733     0.71122541     0.77660585
c     0.58781838     0.25411752     0.84442617
c     0.41218157     0.74588246     0.15557384
c     0.58781835     0.24588247     0.34442618
c     0.41218160     0.75411752     0.65557383
h     0.46400952     0.34685041     0.86137903
h     0.53599043     0.65314958     0.13862098
h     0.46400949     0.15314958     0.36137904
h     0.53599046     0.84685040     0.63862097
h     0.84086614     0.27328356     0.84745913
h     0.15913381     0.72671642     0.15254088
h     0.84086611     0.22671643     0.34745913
h     0.15913384     0.77328355     0.65254088
c     0.50044119     0.05758378     0.80320641
c     0.49955876     0.94241620     0.19679361
c     0.50044116     0.44241621     0.30320641
c     0.49955879     0.55758377     0.69679360
h     0.72117372     0.00401332     0.79136983
h     0.27882623     0.99598666     0.20863018
h     0.72117369     0.49598667     0.29136984
h     0.27882626     0.50401331     0.70863017
h     0.30616122     0.99114552     0.78693062
h     0.69383873     0.00885446     0.21306939
h     0.30616119     0.50885447     0.28693063
h     0.69383876     0.49114552     0.71306938
c     0.49212376     0.12177561     0.88576144
c     0.50787619     0.87822438     0.11423858
c     0.49212374     0.37822438     0.38576144
c     0.50787621     0.62177560     0.61423857
h     0.25523898     0.12656827     0.91002717
h     0.74476097     0.87343172     0.08997284
h     0.25523895     0.37343172     0.41002718
h     0.74476100     0.62656826     0.58997283
h     0.64964339     0.08114122     0.93013417
h     0.35035656     0.91885876     0.06986584
h     0.64964336     0.41885877     0.43013418
h     0.35035659     0.58114122     0.56986583

K_POINTS automatic
2 2 2 1 1 1

CELL_PARAMETERS cubic
    8.098339000000     0.000000000000    -0.047647000000
    0.000000000000    18.743537000000     0.000000000000
    0.357134000000     0.000000000000    32.232608000000
