&control
 title='crystal',
 prefix='crystal',
 pseudo_dir='.',
 calculation='vc-relax',
/
&system
 ibrav=0,
 celldm(1)=1.0,
 nat=    22,
 ntyp=  3,
 ecutwfc=60.0,
 ecutrho=600.0,
 xdm=.true.,
 xdm_a1=0.4073,
 xdm_a2=2.4150,
/
&electrons
 conv_thr = 1d-8,
/
&ions
/
&cell
/
ATOMIC_SPECIES
h      1.007940 h.UPF
c     12.010700 c.UPF
n     14.006700 n.UPF

ATOMIC_POSITIONS crystal
n     0.90067174     0.54060275     0.09816904
n     0.09932827     0.04060273     0.90183092
c     0.68557911     0.40501045     0.33368189
c     0.31442089     0.90501043     0.66631807
c     0.97723795     0.40849166     0.29142226
c     0.02276205     0.90849164     0.70857770
c     0.64706802     0.61998391     0.17263313
c     0.35293199     0.11998389     0.82736683
h     0.58815492     0.22075716     0.28641782
h     0.41184508     0.72075714     0.71358214
h     0.63756516     0.45420137     0.48382143
h     0.36243484     0.95420135     0.51617853
h     0.07667525     0.21861751     0.27778764
h     0.92332476     0.71861749     0.72221232
h     0.09594714     0.53304097     0.39773734
h     0.90405286     0.03304095     0.60226262
h     0.47594676     0.60652466     0.06396450
h     0.52405324     0.10652463     0.93603546
h     0.65256742     0.81897193     0.23782235
h     0.34743258     0.31897191     0.76217761
h     0.01483543     0.69813787     0.06305319
h     0.98516457     0.19813785     0.93694677

K_POINTS automatic
2 2 2 1 1 1

CELL_PARAMETERS cubic
    9.652166000000     0.000000000000     0.725259000000
    0.000000000000     9.600768000000     0.000000000000
   -2.047450000000     0.000000000000    12.612278000000
