&control
 title='crystal',
 prefix='crystal',
 pseudo_dir='.',
 calculation='vc-relax',
/
&system
 ibrav=0,
 celldm(1)=1.0,
 nat=    22,
 ntyp=  3,
 ecutwfc=60.0,
 ecutrho=600.0,
 xdm=.true.,
 xdm_a1=0.4073,
 xdm_a2=2.4150,
/
&electrons
 conv_thr = 1d-8,
/
&ions
/
&cell
/
ATOMIC_SPECIES
h      1.007940 h.UPF
c     12.010700 c.UPF
n     14.006700 n.UPF

ATOMIC_POSITIONS crystal
n     0.57439304     0.82491899     0.44925031
n     0.17508194     0.42560610     0.94925145
c     0.76907440     0.39586698     0.60856912
c     0.60413605     0.23092398     0.10857098
c     0.76219784     0.55659271     0.38878605
c     0.44340709     0.23780063     0.88878502
c     0.47994411     0.73424862     0.57542426
c     0.26574943     0.52005860     0.07542416
h     0.98585211     0.22360141     0.80717048
h     0.77639778     0.01414867     0.30716965
h     0.73190341     0.28651407     0.56486354
h     0.71348485     0.26809660     0.06486383
h     0.99264238     0.42603757     0.41591690
h     0.57396075     0.00735944     0.91591660
h     0.62208475     0.63312971     0.18412672
h     0.36686948     0.37791570     0.68412701
h     0.47800910     0.74979737     0.76020206
h     0.25020340     0.52199059     0.26020238
h     0.24615684     0.86944292     0.43448699
h     0.13055802     0.75384208     0.93448826
h     0.39020355     0.05280915     0.28058215
h     0.94718975     0.60979760     0.78058171

K_POINTS automatic
2 2 2 1 1 1

CELL_PARAMETERS cubic
   14.042549000000     0.215008000000    -0.254324000000
   10.613482000000     9.197446000000     0.254349000000
   -1.879841000000     4.924264000000     9.594363000000
