&control
 title='crystal',
 prefix='crystal',
 pseudo_dir='.',
 calculation='vc-relax',
/
&system
 ibrav=0,
 celldm(1)=1.0,
 nat=    44,
 ntyp=  3,
 ecutwfc=60.0,
 ecutrho=600.0,
 xdm=.true.,
 xdm_a1=0.4073,
 xdm_a2=2.4150,
/
&electrons
 conv_thr = 1d-8,
/
&ions
/
&cell
/
ATOMIC_SPECIES
h      1.007940 h.UPF
c     12.010700 c.UPF
n     14.006700 n.UPF

ATOMIC_POSITIONS crystal
n     0.90628719     0.72872090     0.80584067
n     0.09371280     0.27127907     0.19415936
n     0.09371291     0.22871755     0.69415956
n     0.90628708     0.77128241     0.30584047
h     0.98625722     0.89789065     0.76807636
h     0.01374277     0.10210932     0.23192366
h     0.01374458     0.39789031     0.73192371
h     0.98625541     0.60210966     0.26807632
c     0.64312472     0.80506066     0.83553589
c     0.35687526     0.19493930     0.16446413
c     0.35687481     0.30505288     0.66446401
c     0.64312518     0.69494708     0.33553601
h     0.48501603     0.67609790     0.80480716
h     0.51498396     0.32390207     0.19519286
h     0.51498266     0.17609043     0.69519257
h     0.48501733     0.82390953     0.30480746
h     0.59799633     0.05844429     0.83308499
h     0.40200366     0.94155567     0.16691504
h     0.40200636     0.55843596     0.66691521
h     0.59799363     0.44156400     0.33308481
c     0.00796422     0.72731501     0.89186447
c     0.99203577     0.27268495     0.10813555
c     0.99203838     0.22731442     0.60813559
c     0.00796161     0.77268554     0.39186444
h     0.09885228     0.95168411     0.91048248
h     0.90114771     0.04831586     0.08951755
h     0.90115078     0.45168404     0.58951764
h     0.09884920     0.54831593     0.41048239
h     0.14308041     0.53514344     0.90661736
h     0.85691957     0.46485653     0.09338266
h     0.85691979     0.03514766     0.59338230
h     0.14308020     0.96485230     0.40661772
c     0.72814004     0.69689839     0.92241355
c     0.27185995     0.30310157     0.07758648
c     0.27186029     0.19689528     0.57758642
c     0.72813969     0.80310468     0.42241360
h     0.67423939     0.45280268     0.93499644
h     0.32576060     0.54719728     0.06500359
h     0.32575897     0.95279678     0.56500364
h     0.67424101     0.04720318     0.43499639
h     0.67291518     0.84424686     0.97424411
h     0.32708481     0.15575310     0.02575592
h     0.32708729     0.34424134     0.52575563
h     0.67291269     0.65575862     0.47424439

K_POINTS automatic
2 2 2 1 1 1

CELL_PARAMETERS cubic
    9.754808000000     0.000011000000    -0.513295000000
    0.000007000000     8.033948000000    -0.000017000000
    1.008422000000    -0.000078000000    30.787311000000
