%nprocs=4
%mem=4GB
#p pbepbe aug-cc-pvtz output=wfx scf=(conver=6) int=(grid=ultrafine)

title

1 1
c 0.000000000000000 0.000000000000000 -0.770600789715418
n 0.000000000000000 0.000000000000000 0.744788271196963
h -0.476644296982100 0.825572139510948 1.119800805535897
h -0.476644296982100 -0.825572139510948 1.119800805535897
h 0.953288593964200 0.000000000000000 1.119800805535897
h -1.032054485431531 0.000000000000000 -1.111196632696412
h 0.516027242715763 0.893785402473381 -1.111196632696412
h 0.516027242715763 -0.893785402473381 -1.111196632696412

E22.wfx

