%nprocs=4
%mem=4GB
#p pbepbe aug-cc-pvtz output=wfx scf=(conver=6) int=(grid=ultrafine)

title

0 2
c 0.000000000000000 0.000000000000000 0.000000000000000
h 0.539879795207033 -0.935099235278462 0.000000000000000
h 0.539879795207033 0.935099235278462 0.000000000000000
h -1.079759590414066 0.000000000000000 0.000000000000000

P1.wfx

