%nprocs=4
%mem=4GB
#p pbepbe aug-cc-pvtz output=wfx scf=(conver=6) int=(grid=ultrafine)

title

1 2
c -0.865304019847702 0.038123161600650 0.000000000000000
n 0.604373935265028 0.020083133099111 0.000000000000000
h -1.349556383125163 -0.052079732024183 -0.958932964682449
h 0.986432789755305 0.492099166718009 0.828097650507275
h -1.349556383125163 -0.052079732024183 0.958932964682449
h 0.987177271322400 -0.938245164087396 0.000000000000000
h 0.986432789755305 0.492099166718009 -0.828097650507275

P22.wfx

