%nprocs=4
%mem=4GB
#p pbepbe aug-cc-pvtz output=wfx scf=(conver=6) int=(grid=ultrafine)

title

0 2
c -0.937133624064762 -0.310424533003179 0.078364338563508
n 0.186095607632766 0.464282028213426 -0.085939212234458
h -0.991620324407811 -1.242629835802172 -0.462737101024859
h 0.212427697640435 1.268670563876698 0.532762402650482
h -1.822384659668673 0.176058073417506 0.459968480902730
o 1.424376576719928 -0.269513846413575 0.140633481916934
h 1.928238726148112 -0.086442450288692 -0.663052390774333

P25.wfx

