%nprocs=4
%mem=4GB
#p pbepbe aug-cc-pvtz output=wfx scf=(conver=6) int=(grid=ultrafine)

title

0 2
c -0.426339975316029 0.075133229048625 0.000000000000000
o 0.940113942424782 0.187157157498558 0.000000000000000
h 1.366710165222159 -0.678776540408791 0.000000000000000
h -0.940242066165459 0.208243076930801 -0.945554044954624
h -0.940242066165459 0.208243076930801 0.945554044954624

P32.wfx

