%nprocs=4
%mem=4GB
#p pbepbe aug-cc-pvtz output=wfx scf=(conver=6) int=(grid=ultrafine)

title

0 2
f -1.866557051158494 0.004945358898456 0.000000000000000
c -0.667282236236418 0.543377535690707 0.000000000000000
c 0.513775563795531 -0.024596640871909 0.000000000000000
h 0.613742919750571 -1.107410254005557 0.000000000000000
h 1.406320803848815 0.583684000288310 0.000000000000000

P4.wfx

