%nprocs=4
%mem=4GB
#p pbepbe aug-cc-pvtz output=wfx scf=(conver=6) int=(grid=ultrafine)

title

0 2
c 0.053463299670431 -0.501046942428709 0.000000000000000
c 0.028915690120631 0.955967895892093 0.000000000000000
cl -1.686928979424529 -1.139480037158563 0.000000000000000
cl 0.877259419080447 -1.136491308276714 -1.478199695751936
cl 0.877259419080447 -1.136491308276714 1.478199695751936
h -0.075231307603970 1.478730727901831 -0.939035526588632
h -0.075231307603970 1.478730727901831 0.939035526588632

P5.wfx

