%nprocs=4
%mem=2GB
#p pbepbe aug-cc-pv5z output=wfx scf=(conver=6) int=(grid=200974)

title

0 1
Ar	0.00 0.00 3.4978798

ar_kr_1.wfx


