%nprocs=4
%mem=4GB
#p pbepbe aug-cc-pvtz output=wfx scf=(conver=6) int=(grid=ultrafine)

title

0 1
H	-1.246549 -3.377143 -1.800000
C	-0.707293 -2.432587 -1.800000
C	-1.403477 -1.241616 -1.800000
C	0.707293 -2.432587 -1.800000
C	-0.716360 0.000000 -1.800000
H	-2.492687 -1.240767 -1.800000
C	1.403477 -1.241616 -1.800000
H	1.246549 -3.377143 -1.800000
C	0.716360 0.000000 -1.800000
C	-1.403477 1.241616 -1.800000
H	2.492687 -1.240767 -1.800000
C	1.403477 1.241616 -1.800000
H	-2.492687 1.240767 -1.800000
C	-0.707293 2.432587 -1.800000
C	0.707293 2.432587 -1.800000
H	2.492687 1.240767 -1.800000
H	-1.246549 3.377143 -1.800000
H	1.246549 3.377143 -1.800000

c10h8_c10h8_pc_2.wfx


