%nprocs=4
%mem=4GB
#p pbepbe aug-cc-pvtz output=wfx scf=(conver=6) int=(grid=ultrafine)

title

0 1
F	0.000000 0.000000 1.954208
H	0.000000 0.000000 1.036008

c2h4_hf_2.wfx


