%nprocs=4
%mem=4GB
#p pbepbe aug-cc-pvtz output=wfx scf=(conver=6) int=(grid=ultrafine)

title

0 1
C	-0.000705 0.035048 1.742577
H	-0.001157 0.057524 2.831863
H	-0.021214 1.054308 1.358368
H	-0.879607 -0.503714 1.390162
H	0.899157 -0.467924 1.390162
Ne	0.000705 -0.035049 -1.742602

ch4_ne.wfx


