%nprocs=4
%mem=4GB
#p pbepbe aug-cc-pvtz output=wfx scf=(conver=6) int=(grid=ultrafine)

title

0 1
N	0.000000 0.000000 1.906480
H	0.000000 0.969936 2.196615
H	0.839989 -0.484968 2.196615
H	-0.839989 -0.484968 2.196615

ch4_nh3_2.wfx


