%nprocs=4
%mem=4GB
#p pbepbe aug-cc-pvtz output=wfx scf=(conver=6) int=(grid=ultrafine)

title

0 1
C	0.000000 2.584615 0.000000
H	1.025759 2.947276 0.000000
H	-0.512880 2.947276 -0.888334
H	-0.512880 2.947276 0.888334
H	0.000000 1.496633 0.000000

ch4_c2h4_1.wfx


