%nprocs=4
%mem=4GB
#p pbepbe aug-cc-pvtz output=wfx scf=(conver=6) int=(grid=ultrafine)

title

0 1
C	0.000000 0.000000 0.000000
H	0.000000 0.000000 1.089471
H	1.027163 0.000000 -0.363157
H	-0.513581 0.889549 -0.363157
H	-0.513581 -0.889549 -0.363157

ch4_ne_1.wfx


