%nprocs=4
%mem=4GB
#p pbepbe aug-cc-pvtz output=wfx scf=(conver=6) int=(grid=ultrafine)

title

0 1
C	-1.530024 -0.948171 0.000000
H	-2.465888 -1.528135 0.000000
H	-0.594159 -1.528135 0.000000
O	-1.530024 0.256029 0.000000

h2co_h2co_2.wfx


