%nprocs=4
%mem=4GB
#p pbepbe aug-cc-pvtz output=wfx scf=(conver=6) int=(grid=ultrafine)

title

0 1
Cl	0.000000 0.000000 0.000000
H	0.000000 0.000000 1.27907275

h2s_hcl_2.wfx


