%nprocs=4
%mem=4GB
#p pbepbe aug-cc-pvtz output=wfx scf=(conver=6) int=(grid=ultrafine)

title

0 1
C	-0.047882 1.151506 0.000000
S	-0.047882 -0.664959 0.000000
H	1.284337 -0.821047 0.000000
H	-1.094713 1.456621 0.000000
H	0.431885 1.547369 0.893710
H	0.431885 1.547369 -0.893710

hcn_ch3sh_2.wfx


