%nprocs=4
%mem=4GB
#p pbepbe aug-cc-pvtz output=wfx scf=(conver=6) int=(grid=ultrafine)

title

0 1
C	0.000000 0.000000 -1.908042
H	0.000000 0.000000 -2.973042
N	0.000000 0.000000 -0.755442

hcn_hf_1.wfx


