%nprocs=4
%mem=4GB
#p pbepbe aug-cc-pvtz output=wfx scf=(conver=6) int=(grid=ultrafine)

title

0 1
H	0.000000 0.000000 1.144558
F	0.000000 0.000000 2.062758

hcn_hf_2.wfx


