%nprocs=4
%mem=4GB
#p pbepbe aug-cc-pvtz output=wfx scf=(conver=6) int=(grid=ultrafine)

title

0 1
He	0.000000 0.000000 -3.9

he_fcl_1.wfx


