%nprocs=4
%mem=4GB
#p pbepbe aug-cc-pvtz output=wfx scf=(conver=6) int=(grid=ultrafine)

title

0 1
F	0.000000 0.000000 -1.068197
Cl	0.000000 0.000000 0.565516

he_fcl_2.wfx


