%nprocs=4
%mem=2GB
#p pbepbe aug-cc-pv5z output=wfx scf=(conver=6) int=(grid=200974)

title

0 1
He	0.00 0.00 0.00
Kr	0.00 0.00 3.6936764

he_kr.wfx


