%nprocs=4
%mem=4GB
#p pbepbe aug-cc-pvtz output=wfx scf=(conver=6) int=(grid=ultrafine)

title

0 1
N	0.000000 0.000000 0.548372
N	0.000000 0.000000 -0.548372

he_n2_t_2.wfx


