%nprocs=4
%mem=2GB
#p pbepbe aug-cc-pv5z output=wfx scf=(conver=6) int=(grid=200974)

title

0 1
Ne	0.00 0.00 3.0480768

ne_ar_1.wfx


