%nprocs=4
%mem=4GB
#p pbepbe aug-cc-pvtz output=wfx scf=(conver=6) int=(grid=ultrafine)

title

0 1
F	0.000000 0.000000 -2.088636
H	0.000000 0.000000 -3.006836

sih4_hf_2.wfx


