%nprocs=4
%mem=4GB
#p pbepbe aug-cc-pvtz output=wfx scf=(conver=6) int=(grid=ultrafine)

title

0 1
Si	0.000000 0.000000 1.357108
H	-0.000000 1.397458 0.864404
H	1.210234 -0.698729 0.864404
H	-1.210234 -0.698729 0.864404
H	0.000000 0.000000 2.838879

sih4_ch4_1.wfx


