&control
 title='crystal',
 prefix='crystal',
 pseudo_dir='.',
 calculation='vc-relax',
/
&system
 ibrav=0,
 celldm(1)=1.0,
 nat=   104,
 ntyp=  4,
 ecutwfc=60.0,
 ecutrho=600.0,
 xdm=.true.,
 xdm_a1=0.4073,
 xdm_a2=2.4150,
/
&electrons
 conv_thr = 1d-8,
/
&ions
/
&cell
/
ATOMIC_SPECIES
h      1.007940 h.UPF
c     12.010700 c.UPF
n     14.006700 n.UPF
o     15.999400 o.UPF

ATOMIC_POSITIONS crystal
n     0.55059903     0.62223372     0.36003674
n     0.44940100     0.37776627     0.63996329
n     0.05059901     0.87776625     0.86003673
n     0.94940103     0.12223373     0.13996331
c     0.49927227     0.52689875     0.25200557
c     0.50072776     0.47310123     0.74799447
c     0.99927226     0.97310122     0.75200556
c     0.00072778     0.02689876     0.24799448
n     0.53982549     0.40215344     0.24407762
n     0.46017454     0.59784655     0.75592242
n     0.03982547     0.09784653     0.74407761
n     0.96017457     0.90215345     0.25592243
c     0.64135222     0.37560066     0.36637105
c     0.35864781     0.62439932     0.63362899
c     0.14135220     0.12439931     0.86637103
c     0.85864784     0.87560067     0.13362900
c     0.70209535     0.46333019     0.48874590
c     0.29790468     0.53666980     0.51125414
c     0.20209533     0.03666979     0.98874589
c     0.79790471     0.96333020     0.01125415
c     0.65611081     0.59614797     0.47952576
c     0.34388922     0.40385201     0.52047428
c     0.15611079     0.90385200     0.97952575
c     0.84388925     0.09614798     0.02047429
n     0.80279729     0.40147720     0.59331269
n     0.19720274     0.59852278     0.40668735
n     0.30279727     0.09852277     0.09331268
n     0.69720277     0.90147721     0.90668736
c     0.80331270     0.27933946     0.53433478
c     0.19668733     0.72066052     0.46566526
c     0.30331268     0.22066051     0.03433477
c     0.69668736     0.77933947     0.96566527
n     0.70875660     0.25815825     0.39601999
n     0.29124344     0.74184173     0.60398005
n     0.20875658     0.24184172     0.89601998
n     0.79124346     0.75815826     0.10398006
n     0.71228152     0.69415195     0.57791422
n     0.28771851     0.30584803     0.42208582
n     0.21228151     0.80584802     0.07791421
n     0.78771853     0.19415196     0.92208583
c     0.68130128     0.13590165     0.30144363
c     0.31869875     0.86409834     0.69855641
c     0.18130127     0.36409833     0.80144362
c     0.81869877     0.63590166     0.19855642
c     0.59499148     0.04355021     0.36480383
c     0.40500855     0.95644977     0.63519621
c     0.09499146     0.45644976     0.86480381
c     0.90500858     0.54355022     0.13519622
c     0.54566865     0.92995756     0.24790028
c     0.45433138     0.07004243     0.75209976
c     0.04566864     0.57004242     0.74790026
c     0.95433141     0.42995757     0.25209977
o     0.66068971     0.99030308     0.51830248
o     0.33931032     0.00969691     0.48169755
o     0.16068970     0.50969690     0.01830247
o     0.83931035     0.49030309     0.98169757
o     0.45000041     0.85704999     0.29613904
o     0.54999963     0.14295000     0.70386100
o     0.95000039     0.64294999     0.79613902
o     0.04999965     0.35705000     0.20386101
h     0.41484981     0.55643672     0.16060350
h     0.58515022     0.44356327     0.83939653
h     0.91484979     0.94356326     0.66060349
h     0.08515025     0.05643673     0.33939655
h     0.87189994     0.20267289     0.58613902
h     0.12810010     0.79732709     0.41386102
h     0.37189992     0.29732708     0.08613901
h     0.62810012     0.70267290     0.91386103
h     0.79684361     0.67448462     0.65955773
h     0.20315642     0.32551536     0.34044231
h     0.29684360     0.82551535     0.15955771
h     0.70315645     0.17448463     0.84044232
h     0.68169849     0.79112476     0.56093458
h     0.31830154     0.20887522     0.43906546
h     0.18169847     0.70887521     0.06093457
h     0.81830157     0.29112477     0.93906547
h     0.63728972     0.16509072     0.17674621
h     0.36271031     0.83490927     0.82325383
h     0.13728970     0.33490926     0.67674619
h     0.86271034     0.66509073     0.32325384
h     0.77017866     0.08519579     0.30688941
h     0.22982137     0.91480419     0.69311062
h     0.27017864     0.41480418     0.80688940
h     0.72982140     0.58519580     0.19311064
h     0.51415475     0.10252144     0.37777002
h     0.48584529     0.89747854     0.62223002
h     0.01415473     0.39747853     0.87777001
h     0.98584531     0.60252145     0.12223003
h     0.50604055     0.97144608     0.12742963
h     0.49395948     0.02855390     0.87257041
h     0.00604053     0.52855389     0.62742962
h     0.99395951     0.47144609     0.37257042
h     0.62273122     0.86147785     0.24353369
h     0.37726881     0.13852213     0.75646635
h     0.12273120     0.63852212     0.74353367
h     0.87726884     0.36147786     0.25646636
h     0.63047426     0.04058586     0.60032746
h     0.36952578     0.95941413     0.39967258
h     0.13047424     0.45941411     0.10032745
h     0.86952580     0.54058587     0.89967259
h     0.48666507     0.76308195     0.33164536
h     0.51333496     0.23691804     0.66835468
h     0.98666506     0.73691803     0.83164535
h     0.01333498     0.26308196     0.16835469

K_POINTS automatic
2 2 2 1 1 1

CELL_PARAMETERS cubic
   20.875487000000     0.000000000000     0.106236000000
    0.000000000000    18.901305000000     0.000000000000
   -4.340444000000     0.000000000000    15.689956000000
