&control
 title='crystal',
 prefix='crystal',
 pseudo_dir='.',
 calculation='vc-relax',
/
&system
 ibrav=0,
 celldm(1)=1.0,
 nat=   124,
 ntyp=  4,
 ecutwfc=60.0,
 ecutrho=600.0,
 xdm=.true.,
 xdm_a1=0.4073,
 xdm_a2=2.4150,
/
&electrons
 conv_thr = 1d-8,
/
&ions
/
&cell
/
ATOMIC_SPECIES
h      1.007940 h.UPF
c     12.010700 c.UPF
o     15.999400 o.UPF
p     30.973761 p.UPF

ATOMIC_POSITIONS crystal
p     0.26738662     0.87100836     0.56220259
p     0.73261340     0.37100835     0.43779741
h     0.13532568     0.88946344     0.49769682
h     0.86467434     0.38946344     0.50230318
o     0.10017683     0.16257136     0.59637402
o     0.89982319     0.66257135     0.40362598
o     0.22515040     0.83449904     0.71929711
o     0.77484962     0.33449903     0.28070289
o     0.09087265     0.09362413     0.73239194
o     0.90912737     0.59362412     0.26760806
c     0.35411732     0.20561093     0.54101003
c     0.64588270     0.70561092     0.45898997
h     0.28848264     0.20202849     0.47969547
h     0.71151738     0.70202848     0.52030453
h     0.48358600     0.16511920     0.53877190
h     0.51641402     0.66511919     0.46122810
h     0.35616825     0.33526331     0.56209570
h     0.64383177     0.83526331     0.43790430
c     0.26792374     0.09514860     0.59648951
c     0.73207628     0.59514860     0.40351049
c     0.35761310     0.09498404     0.68267039
c     0.64238691     0.59498404     0.31732961
h     0.37789921     0.22437762     0.70315920
h     0.62210081     0.72437762     0.29684080
h     0.47975205     0.03246752     0.68599066
h     0.52024797     0.53246752     0.31400934
c     0.24880482     0.00843725     0.73900432
c     0.75119520     0.50843724     0.26099568
c     0.32313954     0.01674551     0.82616307
c     0.67686048     0.51674551     0.17383693
h     0.34580194     0.14721445     0.84343370
h     0.65419808     0.64721444     0.15656630
h     0.44152196     0.94810067     0.83574476
h     0.55847806     0.44810067     0.16425524
h     0.23628035     0.96398713     0.86468422
h     0.76371967     0.46398712     0.13531578
c     0.84446825     0.18560072     0.65203731
c     0.15553177     0.68560071     0.34796269
h     0.76734063     0.13161218     0.69472802
h     0.23265939     0.63161217     0.30527198
h     0.77321268     0.18435714     0.59193907
h     0.22678734     0.68435713     0.40806093
h     0.87518073     0.31390251     0.67009254
h     0.12481929     0.81390250     0.32990746
c     0.00300276     0.08475761     0.65218405
c     0.99699726     0.58475760     0.34781595
c     0.96848937     0.90093878     0.63253175
c     0.03151065     0.40093877     0.36746825
h     0.90229056     0.88883481     0.57155326
h     0.09770946     0.38883480     0.42844674
h     0.88751006     0.85314020     0.67546452
h     0.11248996     0.35314020     0.32453548
c     0.13148643     0.80160762     0.64054666
c     0.86851359     0.30160761     0.35945334
c     0.10141286     0.61526918     0.63597978
c     0.89858716     0.11526917     0.36402022
h     0.21983486     0.54605507     0.64502522
h     0.78016516     0.04605507     0.35497478
h     0.03611517     0.58188622     0.57666030
h     0.96388485     0.08188621     0.42333970
h     0.02386740     0.57638240     0.68206485
h     0.97613262     0.07638239     0.31793515
p     0.78788831     0.46760062     0.95062665
p     0.21211171     0.96760061     0.04937335
h     0.71852420     0.31808784     0.91487829
h     0.28147582     0.81808784     0.08512171
o     0.81542500     0.50242268     0.78705998
o     0.18457502     0.00242267     0.21294002
o     0.67326945     0.77832621     0.91656222
o     0.32673057     0.27832620     0.08343778
o     0.71381251     0.77952152     0.77954844
o     0.28618751     0.27952151     0.22045156
c     0.06622257     0.41913874     0.86720237
c     0.93377745     0.91913873     0.13279763
h     0.03287743     0.28932691     0.85320983
h     0.96712259     0.78932691     0.14679017
h     0.14123795     0.42425426     0.92647862
h     0.85876207     0.92425425     0.07352138
h     0.14301607     0.46409332     0.82195519
h     0.85698395     0.96409332     0.17804481
c     0.91028677     0.52609551     0.86587210
c     0.08971325     0.02609550     0.13412790
c     0.95040719     0.71148048     0.87665984
c     0.04959283     0.21148047     0.12334016
h     0.03516987     0.74870023     0.83329622
h     0.96483015     0.24870023     0.16670378
h     0.01281340     0.73800362     0.93738255
h     0.98718662     0.23800361     0.06261745
c     0.78950726     0.81496571     0.86016563
c     0.21049276     0.31496571     0.13983437
c     0.82127462     0.00004232     0.86577851
c     0.17872540     0.50004231     0.13422149
h     0.70300054     0.06764918     0.85133474
h     0.29699948     0.56764917     0.14866526
h     0.90826095     0.03675271     0.82380246
h     0.09173907     0.53675270     0.17619754
h     0.87676949     0.03206970     0.92688176
h     0.12323053     0.53206969     0.07311824
c     0.60621258     0.57910879     0.68225184
c     0.39378744     0.07910879     0.31774816
h     0.50159235     0.66344680     0.66352417
h     0.49840767     0.16344679     0.33647583
h     0.56464334     0.45006064     0.67217682
h     0.43535668     0.95006063     0.32782318
h     0.70712665     0.60375579     0.64578655
h     0.29287337     0.10375578     0.35421345
c     0.66981572     0.60557438     0.76994854
c     0.33018430     0.10557437     0.23005146
c     0.53815523     0.56814669     0.82595302
c     0.46184479     0.06814668     0.17404698
h     0.50106211     0.43664384     0.82080132
h     0.49893790     0.93664383     0.17919868
h     0.42722952     0.64510987     0.80659260
h     0.57277050     0.14510986     0.19340740
c     0.60670847     0.60950754     0.91286217
c     0.39329155     0.10950753     0.08713783
c     0.47233668     0.60604439     0.96845696
c     0.52766334     0.10604438     0.03154304
h     0.52316480     0.65039191     0.02834350
h     0.47683522     0.15039190     0.97165650
h     0.42532522     0.47928646     0.97507483
h     0.57467480     0.97928645     0.02492517
h     0.36686294     0.68634628     0.94480816
h     0.63313708     0.18634627     0.05519184

K_POINTS automatic
2 2 2 1 1 1

CELL_PARAMETERS cubic
   15.187906000000     0.000000000000    -0.076623000000
    0.000000000000    15.169669000000     0.000000000000
   -3.866894000000     0.000000000000    31.467603000000
