&control
 title='crystal',
 prefix='crystal',
 pseudo_dir='.',
 calculation='vc-relax',
/
&system
 ibrav=0,
 celldm(1)=1.0,
 nat=    60,
 ntyp=  4,
 ecutwfc=60.0,
 ecutrho=600.0,
 xdm=.true.,
 xdm_a1=0.4073,
 xdm_a2=2.4150,
/
&electrons
 conv_thr = 1d-8,
/
&ions
/
&cell
/
ATOMIC_SPECIES
h      1.007940 h.UPF
c     12.010700 c.UPF
o     15.999400 o.UPF
s     32.065000 s.UPF

ATOMIC_POSITIONS crystal
s     0.78560640     0.50217861     0.55980840
s     0.21440550     0.00222146     0.44019569
c     0.94211870     0.65099862     0.64529500
c     0.05788295     0.15103165     0.35471045
h     0.04802242     0.63093753     0.59777011
h     0.95198283     0.13095262     0.40223743
h     0.90807772     0.85121152     0.64907279
h     0.09191725     0.35125021     0.35093664
c     0.95394208     0.51774619     0.74849616
c     0.04605775     0.01779664     0.25150895
c     0.05512611     0.30891502     0.76388186
c     0.94486918     0.80896716     0.23611466
h     0.14117030     0.26473869     0.70466479
h     0.85882813     0.76479238     0.29533720
c     0.03993756     0.15417040     0.85161744
c     0.96005425     0.65424510     0.14838156
h     0.12011602     0.99441994     0.86431860
h     0.87987346     0.49449526     0.13567353
c     0.91559122     0.19214631     0.92015824
c     0.08440558     0.69220894     0.07983762
h     0.89492123     0.05967532     0.98361726
h     0.10507512     0.55975483     0.01638067
c     0.81452438     0.39917952     0.90462246
c     0.18547494     0.89925540     0.09538240
c     0.84170055     0.57191686     0.82431216
c     0.15829612     0.07197232     0.17568996
h     0.76386799     0.73564289     0.81512260
h     0.23612165     0.23571391     0.18488033
o     0.67650198     0.42098935     0.96143212
o     0.32349046     0.92106535     0.03856733
c     0.53739723     0.29925775     0.90651801
c     0.46261156     0.79937000     0.09347754
h     0.44010221     0.31818246     0.96072405
h     0.55990004     0.81833554     0.03926808
h     0.56479533     0.09732990     0.89663806
h     0.43523989     0.59743094     0.10335259
c     0.50380923     0.42622990     0.80321485
c     0.49619327     0.92633574     0.19677996
c     0.40581619     0.64026442     0.79429789
c     0.59417426     0.14039226     0.20570274
h     0.33163112     0.69184049     0.85943771
h     0.66834895     0.19198807     0.14055664
c     0.40712164     0.79286511     0.70506570
c     0.59286466     0.29296646     0.29493219
h     0.32865769     0.95573587     0.69689298
h     0.67131631     0.45585975     0.30310800
c     0.51677382     0.74665183     0.62734982
c     0.48322354     0.24673586     0.37265710
h     0.53100894     0.87768599     0.56256198
h     0.46898143     0.37775161     0.43744376
c     0.61199586     0.53104281     0.63548677
c     0.38801054     0.03110116     0.36451292
c     0.59974031     0.36363049     0.71945759
c     0.40027190     0.86371744     0.28054253
h     0.67433045     0.19531326     0.72290167
h     0.32569410     0.69538141     0.27709478
o     0.82278194     0.23173013     0.55126285
o     0.17724225     0.73175099     0.44873264
o     0.76685739     0.65610029     0.46491933
o     0.23314715     0.15611196     0.53508402

K_POINTS automatic
2 2 2 1 1 1

CELL_PARAMETERS cubic
   15.860340000000     0.000059000000    -0.035053000000
    0.000048000000     9.977930000000     0.000002000000
   -0.750685000000    -0.000014000000    24.111161000000
