&control
 title='crystal',
 prefix='crystal',
 pseudo_dir='.',
 calculation='vc-relax',
/
&system
 ibrav=0,
 celldm(1)=1.0,
 nat=   100,
 ntyp=  4,
 ecutwfc=60.0,
 ecutrho=600.0,
 xdm=.true.,
 xdm_a1=0.4073,
 xdm_a2=2.4150,
/
&electrons
 conv_thr = 1d-8,
/
&ions
/
&cell
/
ATOMIC_SPECIES
h      1.007940 h.UPF
c     12.010700 c.UPF
o     15.999400 o.UPF
s     32.065000 s.UPF

ATOMIC_POSITIONS crystal
s     0.94819925     0.64430715     0.07796119
s     0.05180079     0.14430716     0.42203881
s     0.55178256     0.35569357     0.57795943
s     0.44821748     0.85569358     0.92204056
o     0.93033033     0.63325722     0.99211791
o     0.06966971     0.13325723     0.50788209
o     0.56965665     0.36674114     0.49211660
o     0.43034339     0.86674115     0.00788340
c     0.64896155     0.58923385     0.11525483
c     0.35103849     0.08923386     0.38474517
c     0.85102254     0.41076524     0.61525488
c     0.14897750     0.91076525     0.88474512
h     0.51199691     0.64445643     0.08290649
h     0.48800313     0.14445644     0.41709351
h     0.98797667     0.35553998     0.58290623
h     0.01202337     0.85553999     0.91709377
s     0.62502801     0.62507302     0.21595746
s     0.37497203     0.12507303     0.28404254
s     0.87497806     0.37492493     0.71595772
s     0.12502198     0.87492495     0.78404228
c     0.65836512     0.80504439     0.21621194
c     0.34163492     0.30504440     0.28378806
c     0.84163798     0.19495337     0.71621112
c     0.15836206     0.69495338     0.78378888
h     0.50506766     0.84989508     0.18591089
h     0.49493238     0.34989509     0.31408910
h     0.99492366     0.15010089     0.68590771
h     0.00507638     0.65010090     0.81409229
h     0.64161263     0.83264525     0.27597718
h     0.35838740     0.33264526     0.22402282
h     0.85840335     0.16735160     0.77597621
h     0.14159669     0.66735161     0.72402378
c     0.89937640     0.85067801     0.18311055
c     0.10062363     0.35067802     0.31688944
c     0.60061063     0.14932397     0.68311147
c     0.39938941     0.64932398     0.81688852
h     0.91732333     0.95859941     0.19160359
h     0.08267671     0.45859942     0.30839640
h     0.58265804     0.04140273     0.69160536
h     0.41734200     0.54140274     0.80839463
h     0.04963503     0.80437223     0.21421765
h     0.95036501     0.30437224     0.28578235
h     0.45036282     0.19563427     0.71421898
h     0.54963721     0.69563428     0.78578102
c     0.92147395     0.82132516     0.09882428
c     0.07852609     0.32132517     0.40117572
c     0.57850638     0.17867525     0.59882457
c     0.42149366     0.67867526     0.90117542
h     0.76422043     0.85606920     0.06619937
h     0.23577961     0.35606921     0.43380063
h     0.73576245     0.14393178     0.56620284
h     0.26423759     0.64393180     0.93379716
h     0.08868682     0.86189418     0.07422553
h     0.91131321     0.36189419     0.42577446
h     0.41129627     0.13810354     0.57422297
h     0.58870376     0.63810355     0.92577703
c     0.62725862     0.44124093     0.10579569
c     0.37274142     0.94124094     0.39420431
c     0.87272646     0.55875900     0.60579642
c     0.12727358     0.05875901     0.89420358
c     0.42649752     0.38448278     0.06982166
c     0.57350252     0.88448279     0.43017834
c     0.07349320     0.61551634     0.56982083
c     0.92650684     0.11551635     0.93017917
h     0.28824945     0.44811702     0.04500372
h     0.71175059     0.94811703     0.45499628
h     0.21173272     0.55188553     0.54500384
h     0.78826732     0.05188554     0.95499616
c     0.40239128     0.24633522     0.06603488
c     0.59760876     0.74633523     0.43396512
c     0.09758475     0.75366729     0.56603365
c     0.90241529     0.25366730     0.93396634
h     0.24590361     0.20320711     0.03787277
h     0.75409643     0.70320712     0.46212722
h     0.25407196     0.79679240     0.53786983
h     0.74592808     0.29679241     0.96213017
c     0.57854527     0.16377890     0.09762009
c     0.42145477     0.66377891     0.40237991
c     0.92144315     0.83622184     0.59761717
c     0.07855689     0.33622185     0.90238283
h     0.55741608     0.05643025     0.09349495
h     0.44258396     0.55643026     0.40650505
h     0.94256779     0.94357084     0.59349069
h     0.05743225     0.44357085     0.90650931
c     0.78205458     0.22000174     0.13202216
c     0.21794546     0.72000175     0.36797784
c     0.71794317     0.77999929     0.63202541
c     0.28205687     0.27999930     0.86797459
h     0.92333836     0.15719640     0.15594895
h     0.07666168     0.65719642     0.34405104
h     0.57667098     0.84280245     0.65595453
h     0.42332906     0.34280246     0.84404547
c     0.80595826     0.35756695     0.13606971
c     0.19404178     0.85756696     0.36393029
c     0.69405201     0.64243272     0.63607211
c     0.30594803     0.14243273     0.86392789
h     0.96422127     0.40152013     0.16293857
h     0.03577876     0.90152014     0.33706143
h     0.53579096     0.59848149     0.66294411
h     0.46420908     0.09848150     0.83705588

K_POINTS automatic
2 2 2 1 1 1

CELL_PARAMETERS cubic
   10.429316000000     0.000000000000    -0.000123000000
    0.000000000000    19.001773000000     0.000000000000
   -0.000395000000     0.000000000000    33.413399000000
