&control
 title='crystal',
 prefix='crystal',
 pseudo_dir='../..',
 forc_conv_thr=1.0D-4,
 etot_conv_thr=1.0D-5,
/
&system
 ibrav=0,
 nat=    48,
 ntyp=  3,
 ecutwfc=80.0,
 ecutrho=800.0,
 vdw_corr='xdm',
 nosym=.true.,
/
&electrons
 conv_thr = 1d-10,
/
&ions
/
&cell
 press_conv_thr=0.01,
/
ATOMIC_SPECIES
O    15.999400 o.UPF
C    12.010700 c.UPF
H     1.007940 h.UPF

ATOMIC_POSITIONS crystal
O             0.0928793132        0.2713561283        0.5473935864
O             0.4071201136        0.7713565250        0.9526064914
O             0.3661739232        0.0486307878        0.7554758605
O             0.1338249745        0.5486306944        0.7445245489
O             0.3810031111        0.2998525989        0.3221372969
O             0.1189960014        0.7998525261        0.1778630227
O             0.9071194406        0.7285308477        0.4526085529
O             0.5928795400        0.2285304680        0.0473920254
O             0.6338502313        0.9512760567        0.2445225003
O             0.8661493019        0.4512762147        0.2554777115
O             0.6189879643        0.7000249955        0.6778624191
O             0.8810110471        0.2000251892        0.8221378993
C             0.3494396783        0.1776990682        0.5381589512
C             0.1505592041        0.6776991143        0.9618414105
C             0.3677977307        0.9932647768        0.6229658387
C             0.1322014737        0.4932647682        0.8770344903
C             0.3762792871        0.1241034730        0.3980028564
C             0.1237201100        0.6241032688        0.1019974584
C             0.6505621308        0.8221905017        0.4618404144
C             0.8494370888        0.3221906605        0.0381598052
C             0.6322118625        0.0066289321        0.3770348402
C             0.8677870982        0.5066289258        0.1229654973
C             0.6237206017        0.8757777205        0.6019989655
C             0.8762784570        0.3757778673        0.8980014292
H             0.1006067422        0.3652870121        0.6191279999
H             0.3993922976        0.8652865559        0.8808725821
H             0.1861179368        0.1058752379        0.7741392015
H             0.3138811767        0.6058753501        0.7258610223
H             0.1947708558        0.3519771524        0.3111047921
H             0.3052283844        0.8519770251        0.1888955724
H             0.5146750883        0.2805939775        0.5664925061
H             0.9853239604        0.7805938569        0.9335078763
H             0.1927498303        0.8977674467        0.5995330098
H             0.3072492000        0.3977674676        0.9004672045
H             0.2006854384        0.0327015764        0.3680283096
H             0.2993136988        0.5327016624        0.1319719493
H             0.8993937507        0.6346135391        0.3808675470
H             0.6006055419        0.1346139615        0.1191324602
H             0.8139045946        0.8940225148        0.2258631177
H             0.6860943498        0.3940223903        0.2741372819
H             0.8052248748        0.6479093098        0.6889119213
H             0.6947739955        0.1479093637        0.8110883299
H             0.4853191566        0.7193023069        0.4335009740
H             0.0146801727        0.2193024531        0.0664992476
H             0.8072510824        0.1021354499        0.4004652627
H             0.6927481503        0.6021354136        0.0995351025
H             0.7993164512        0.9671713412        0.6319812300
H             0.7006825349        0.4671713060        0.8680191163

K_POINTS automatic
5 4 3  1 1 1

CELL_PARAMETERS bohr
   9.337909762   0.000001130  -0.000078163
   0.000001548  12.747742850   0.000002598
  -0.810162896   0.000003936  19.886562024
