&control
 title='crystal',
 prefix='crystal',
 pseudo_dir='.',
 calculation='vc-relax',
/
&system
 ibrav=0,
 celldm(1)=1.0,
 nat=   120,
 ntyp=  4,
 ecutwfc=60.0,
 ecutrho=600.0,
 xdm=.true.,
 xdm_a1=0.4073,
 xdm_a2=2.4150,
/
&electrons
 conv_thr = 1d-8,
/
&ions
/
&cell
/
ATOMIC_SPECIES
h      1.007940 h.UPF
c     12.010700 c.UPF
n     14.006700 n.UPF
o     15.999400 o.UPF

ATOMIC_POSITIONS crystal
o     0.56661221     0.22447110     0.98938708
o     0.06661223     0.27552890     0.01061293
o     0.43331622     0.72446581     0.51059112
o     0.93331624     0.77553419     0.48940889
o     0.53045996     0.38358473     0.90184659
o     0.03045998     0.11641526     0.09815342
o     0.46954903     0.88355789     0.59812175
o     0.96954905     0.61644210     0.40187826
o     0.20737293     0.18339171     0.71527307
o     0.70737294     0.31660828     0.28472694
o     0.79263903     0.68342148     0.78467999
o     0.29263905     0.81657852     0.21532002
o     0.97053531     0.16978443     0.86293729
o     0.47053532     0.33021556     0.13706273
o     0.02943524     0.66970952     0.63704476
o     0.52943526     0.83029047     0.36295525
n     0.55843459     0.24908277     0.74831508
n     0.05843460     0.25091723     0.25168493
n     0.44153269     0.74907000     0.75165216
n     0.94153271     0.75092999     0.24834785
c     0.55623012     0.27967770     0.91169301
c     0.05623013     0.22032230     0.08830700
c     0.44372908     0.77965761     0.58828055
c     0.94372910     0.72034238     0.41171946
c     0.57365261     0.19332959     0.83436412
c     0.07365263     0.30667041     0.16563589
c     0.42630691     0.69330476     0.66561578
c     0.92630693     0.80669524     0.33438423
c     0.37554350     0.24004846     0.69627093
c     0.87554352     0.25995154     0.30372908
c     0.62445094     0.74005992     0.80367875
c     0.12445096     0.75994008     0.19632126
c     0.41413546     0.30983779     0.61617197
c     0.91413548     0.19016221     0.38382804
c     0.58587479     0.80983730     0.88377272
c     0.08587480     0.69016270     0.11622729
c     0.27552954     0.32999395     0.54405044
c     0.77552956     0.17000604     0.45594957
c     0.72452201     0.83000092     0.95587484
c     0.22452203     0.66999908     0.04412517
c     0.34889888     0.40459809     0.47763098
c     0.84889890     0.09540191     0.52236903
c     0.65117612     0.90458560     0.02229533
c     0.15117614     0.59541440     0.97770468
c     0.55641950     0.45585813     0.48342457
c     0.05641952     0.04414187     0.51657544
c     0.44362534     0.95581794     0.01652352
c     0.94362536     0.54418206     0.98347649
c     0.69352048     0.43613218     0.55658464
c     0.19352049     0.06386782     0.44341537
c     0.30646854     0.93608127     0.94338502
c     0.80646855     0.56391872     0.05661499
c     0.61921569     0.36267530     0.62352668
c     0.11921571     0.13732470     0.37647333
c     0.38076107     0.86264543     0.87643552
c     0.88076108     0.63735456     0.12356449
c     0.72323061     0.32654028     0.70989946
c     0.22323063     0.17345972     0.29010055
c     0.27673256     0.82651839     0.79006527
c     0.77673258     0.67348161     0.20993474
c     0.76888948     0.10944785     0.84492328
c     0.26888950     0.39055215     0.15507673
c     0.23109658     0.60940241     0.65509263
c     0.73109660     0.89059759     0.34490738
c     0.79161196     0.02990956     0.76490873
c     0.29161198     0.47009044     0.23509128
c     0.20839064     0.52990299     0.73514724
c     0.70839065     0.97009700     0.26485277
h     0.53397933     0.27647099     0.04236220
h     0.03397935     0.22352900     0.95763782
h     0.46600274     0.77647905     0.45761743
h     0.96600275     0.72352095     0.54238259
h     0.06441492     0.17437354     0.80846154
h     0.56441494     0.32562645     0.19153847
h     0.93556086     0.67434869     0.69152037
h     0.43556088     0.82565131     0.30847965
h     0.42662481     0.13882431     0.83946387
h     0.92662483     0.36117569     0.16053614
h     0.57334906     0.63881023     0.66052692
h     0.07334908     0.86118976     0.33947309
h     0.11537404     0.28925008     0.54057486
h     0.61537406     0.21074992     0.45942515
h     0.88471046     0.78928046     0.95932511
h     0.38471047     0.71071954     0.04067490
h     0.24202790     0.42532711     0.42192330
h     0.74202792     0.07467289     0.57807671
h     0.75808576     0.92532724     0.07798691
h     0.25808577     0.57467275     0.92201310
h     0.61248583     0.51330682     0.43090481
h     0.11248585     0.98669318     0.56909520
h     0.38757284     0.01325115     0.06904582
h     0.88757285     0.48674885     0.93095419
h     0.85202495     0.47877198     0.56012573
h     0.35202497     0.02122802     0.43987428
h     0.14794593     0.97870105     0.93986294
h     0.64794595     0.52129894     0.06013707
h     0.87990135     0.28158636     0.69971977
h     0.37990136     0.21841363     0.30028024
h     0.12006412     0.78156071     0.80024865
h     0.62006414     0.71843928     0.19975136
h     0.75118751     0.39964766     0.75526073
h     0.25118753     0.10035234     0.24473929
h     0.24876601     0.89963349     0.74469960
h     0.74876602     0.60036650     0.25530041
h     0.73351238     0.05935367     0.90514378
h     0.23351240     0.44064632     0.09485623
h     0.26649551     0.55927821     0.59489642
h     0.76649553     0.94072178     0.40510359
h     0.90101791     0.95812874     0.78083585
h     0.40101793     0.54187125     0.21916416
h     0.09898532     0.45811273     0.71925560
h     0.59898534     0.04188726     0.28074442
h     0.86049191     0.07601610     0.70777513
h     0.36049193     0.42398390     0.29222488
h     0.13951328     0.57603471     0.79226219
h     0.63951330     0.92396529     0.20773782
h     0.63331502     0.99401465     0.74479126
h     0.13331503     0.50598535     0.25520876
h     0.36668961     0.49401824     0.75527924
h     0.86668963     0.00598176     0.24472077

K_POINTS automatic
2 2 2 1 1 1

CELL_PARAMETERS cubic
   11.542594000000     0.000000000000     0.000000000000
    0.000000000000    21.910164000000     0.001159000000
    0.000000000000     0.001456000000    28.326829000000
