&control
 title='crystal',
 prefix='crystal',
 pseudo_dir='.',
 calculation='vc-relax',
/
&system
 ibrav=0,
 celldm(1)=1.0,
 nat=    84,
 ntyp=  4,
 ecutwfc=60.0,
 ecutrho=600.0,
 xdm=.true.,
 xdm_a1=0.4073,
 xdm_a2=2.4150,
/
&electrons
 conv_thr = 1d-8,
/
&ions
/
&cell
/
ATOMIC_SPECIES
h      1.007940 h.UPF
c     12.010700 c.UPF
n     14.006700 n.UPF
o     15.999400 o.UPF

ATOMIC_POSITIONS crystal
o     0.29998307     0.76975670     0.63355279
o     0.79998306     0.73024326     0.36644721
o     0.70001693     0.26975671     0.86644722
o     0.20001693     0.23024327     0.13355279
o     0.19527379     0.72751829     0.80394939
o     0.69527379     0.77248167     0.19605062
o     0.80472621     0.22751830     0.69605062
o     0.30472621     0.27248168     0.30394938
h     0.08766750     0.65260066     0.77009672
h     0.58766749     0.84739930     0.22990329
h     0.91233250     0.15260067     0.72990330
h     0.41233250     0.34739931     0.27009671
o     0.07498992     0.05549045     0.75823629
o     0.57498991     0.44450951     0.24176372
o     0.92501008     0.55549047     0.74176373
o     0.42501008     0.94450952     0.25823628
n     0.34048959     0.99366232     0.86655386
n     0.84048958     0.50633764     0.13344615
n     0.65951041     0.49366233     0.63344616
n     0.15951041     0.00633765     0.36655385
n     0.05223391     0.11106906     0.93803485
n     0.55223390     0.38893090     0.06196516
n     0.94776609     0.61106907     0.56196516
n     0.44776609     0.88893091     0.43803485
h     0.91857605     0.16556503     0.92042481
h     0.41857604     0.33443493     0.07957520
h     0.08142395     0.66556504     0.57957520
h     0.58142395     0.83443494     0.42042481
h     0.12120708     0.13299943     0.01033323
h     0.62120707     0.36700053     0.98966677
h     0.87879292     0.63299944     0.48966678
h     0.37879292     0.86700054     0.51033323
c     0.44631072     0.97024538     0.96976368
c     0.94631071     0.52975458     0.03023633
c     0.55368928     0.47024539     0.53023633
c     0.05368928     0.02975459     0.46976368
h     0.33623105     0.94232822     0.03340502
h     0.83623104     0.55767174     0.96659499
h     0.66376895     0.44232823     0.46659499
h     0.16376895     0.05767176     0.53340502
h     0.52770720     0.06938552     0.99406274
h     0.02770719     0.43061444     0.00593727
h     0.47229280     0.56938553     0.50593727
h     0.97229280     0.93061446     0.49406274
c     0.59643274     0.84664385     0.94501780
c     0.09643273     0.65335611     0.05498221
c     0.40356726     0.34664386     0.55498221
c     0.90356726     0.15335612     0.44501780
h     0.73611466     0.85453401     0.99370472
h     0.23611465     0.64546595     0.00629529
h     0.26388534     0.35453402     0.50629530
h     0.76388534     0.14546597     0.49370471
h     0.52402304     0.74212889     0.96295940
h     0.02402304     0.75787107     0.03704061
h     0.47597696     0.24212890     0.53704061
h     0.97597696     0.25787108     0.46295939
c     0.64027823     0.86107999     0.82417697
c     0.14027823     0.63891997     0.17582303
c     0.35972177     0.36108000     0.67582304
c     0.85972177     0.13891998     0.32417697
h     0.68865307     0.75885397     0.78745045
h     0.18865307     0.74114599     0.21254956
h     0.31134693     0.25885398     0.71254957
h     0.81134693     0.24114601     0.28745044
h     0.76286253     0.93992267     0.80925241
h     0.26286252     0.56007729     0.19074760
h     0.23713747     0.43992268     0.69074760
h     0.73713747     0.06007730     0.30925241
c     0.43740285     0.91912715     0.77594123
c     0.93740284     0.58087281     0.22405878
c     0.56259715     0.41912716     0.72405879
c     0.06259715     0.08087282     0.27594122
h     0.46613752     0.99387860     0.70900438
h     0.96613751     0.50612136     0.29099563
h     0.53386248     0.49387861     0.79099563
h     0.03386248     0.00612137     0.20900438
c     0.30113812     0.79855051     0.73128857
c     0.80113811     0.70144945     0.26871144
c     0.69886188     0.29855052     0.76871144
c     0.19886188     0.20144946     0.23128857
c     0.15318633     0.05528806     0.85278604
c     0.65318633     0.44471190     0.14721397
c     0.84681367     0.55528807     0.64721397
c     0.34681367     0.94471191     0.35278604

K_POINTS automatic
2 2 2 1 1 1

CELL_PARAMETERS cubic
   12.270327000000     0.000000000000     0.000000000000
    0.000000000000    17.444442000000     0.000000000000
    0.000000000000     0.000000000000    23.479559000000
