&control
 title='crystal',
 prefix='crystal',
 pseudo_dir='..',
/
&system
 ibrav=1,
 celldm(1)=40,
 nat=2,
 ntyp=1,
 ecutwfc=80.0,
 ecutrho=800.0,
 xdm=.true.,
 xdm_a1=0.6754,
 xdm_a2=1.4651,
 input_dft='b86bpbex',
 exx_fraction=0.25,
/
&electrons
 conv_thr = 1d-8,
/
ATOMIC_SPECIES
Cl    35.453000 cl.UPF

ATOMIC_POSITIONS angstrom
Cl       3.072650085   3.849514101   4.915943092
Cl       3.072649915   4.941285899   3.237756908

K_POINTS gamma

