&control
 title='crystal',
 prefix='crystal',
 pseudo_dir='../..',
 forc_conv_thr=1.0D-4,
 etot_conv_thr=1.0D-5,
/
&system
 ibrav=0,
 nat=    26,
 ntyp=  5,
 ecutwfc=80.0,
 ecutrho=800.0,
 vdw_corr='xdm',
 nosym=.true.,
/
&electrons
 conv_thr = 1d-10,
 diagonalization='cg',
/
&ions
/
&cell
 press_conv_thr=0.01,
/
ATOMIC_SPECIES
C    12.010700 c.UPF
S    32.065000 s.UPF
N    14.006700 n.UPF
O    15.999400 o.UPF
H     1.007940 h.UPF

ATOMIC_POSITIONS crystal
C             0.2050487690        0.1460389239        0.2315763351
C             0.7949518971        0.8539612963        0.7684233668
C             0.4665056991        0.3062735258        0.6011826572
C             0.5334926197        0.6937271493        0.3988183727
S             0.4526600017        0.1564976345        0.2821597440
S             0.5473405465        0.8435027751        0.7178405819
N             0.3158527018        0.3777505369        0.7371214747
N             0.6841477083        0.6222498484        0.2628789262
N             0.6254043135        0.3634943931        0.7322950574
N             0.3745943787        0.6365065285        0.2677065813
N             0.7870347031        0.3017497727        0.6132035353
N             0.2129636233        0.6982506134        0.3867971482
O             0.9229006302        0.3699992852        0.7413969979
O             0.0770980658        0.6300005277        0.2586020105
O             0.8003953874        0.1849298542        0.3921655719
O             0.1996011207        0.8150704894        0.6078354011
H             0.3318330957        0.4669671321        0.9250616848
H             0.6681671660        0.5330335510        0.0749385640
H             0.1866499439        0.3458723873        0.6708109670
H             0.8133486769        0.6541284438        0.3291898671
H             0.1891198978        0.0502844804        0.0339295163
H             0.8108802002        0.9497157423        0.9660701898
H             0.1018016568        0.2808364293        0.2204142014
H             0.8981993641        0.7191639165        0.7795857349
H             0.1785947851        0.0901459434        0.3875390913
H             0.8214067378        0.9098541792        0.6124610512

K_POINTS automatic
4 4 5  1 1 1

CELL_PARAMETERS bohr
  13.878279145  -0.266026850   0.185148643
   4.973729484  13.928835596   0.118971598
  -2.302787387  -2.131652097   9.252596786
