&control
 title='crystal',
 prefix='crystal',
 pseudo_dir='.',
 calculation='vc-relax',
/
&system
 ibrav=0,
 celldm(1)=1.0,
 nat=    76,
 ntyp=  4,
 ecutwfc=60.0,
 ecutrho=600.0,
 xdm=.true.,
 xdm_a1=0.4073,
 xdm_a2=2.4150,
/
&electrons
 conv_thr = 1d-8,
/
&ions
/
&cell
/
ATOMIC_SPECIES
h      1.007940 h.UPF
c     12.010700 c.UPF
o     15.999400 o.UPF
f     18.998403 f.UPF

ATOMIC_POSITIONS crystal
f     0.33613359     0.67091985     0.18306845
f     0.66386643     0.17091986     0.81693154
o     0.76168198     0.51056716     0.07276414
o     0.23831805     0.01056717     0.92723586
h     0.85256130     0.55861591     0.02451464
h     0.14743872     0.05861592     0.97548536
o     0.58758631     0.62831355     0.91606326
o     0.41241372     0.12831356     0.08393674
o     0.34646389     0.46624976     0.96032164
o     0.65353613     0.96624977     0.03967835
h     0.26194596     0.41430947     0.00564092
h     0.73805407     0.91430948     0.99435907
c     0.61676621     0.54092870     0.00831566
c     0.38323381     0.04092871     0.99168433
c     0.48939293     0.45210357     0.06324857
c     0.51060709     0.95210358     0.93675142
h     0.53750219     0.35644254     0.05192022
h     0.46249783     0.85644255     0.94807978
c     0.46139022     0.47207181     0.23513293
c     0.53860981     0.97207182     0.76486707
c     0.37992465     0.57685362     0.28768291
c     0.62007538     0.07685363     0.71231708
c     0.34042088     0.59028635     0.44184522
c     0.65957914     0.09028636     0.55815477
h     0.27146621     0.67172742     0.47450238
h     0.72853381     0.17172743     0.52549761
c     0.39071764     0.49785460     0.55082520
c     0.60928239     0.99785461     0.44917479
h     0.36249259     0.50656658     0.67250629
h     0.63750743     0.00656659     0.32749370
c     0.47723065     0.39411688     0.50396868
c     0.52276938     0.89411689     0.49603131
h     0.51600106     0.32241953     0.58959077
h     0.48399896     0.82241954     0.41040923
c     0.51025064     0.38062416     0.34722997
c     0.48974939     0.88062417     0.65277003
h     0.57245272     0.29756034     0.30851707
h     0.42754731     0.79756035     0.69148292
f     0.76286050     0.61280510     0.64719856
f     0.23713953     0.11280511     0.35280144
o     0.22034474     0.67251432     0.84430856
o     0.77965529     0.17251433     0.15569143
h     0.28034143     0.59613229     0.89467401
h     0.71965859     0.09613230     0.10532599
o     0.01656321     0.58555706     0.96252466
o     0.98343682     0.08555707     0.03747533
o     0.82874842     0.79599793     0.89905095
o     0.17125160     0.29599794     0.10094904
h     0.75139961     0.72561621     0.87794521
h     0.24860042     0.22561622     0.12205479
c     0.07057545     0.67053380     0.88266720
c     0.92942458     0.17053381     0.11733279
c     0.97181016     0.78407838     0.82047654
c     0.02818986     0.28407839     0.17952346
h     0.04525698     0.86666796     0.85373969
h     0.95474305     0.36666797     0.14626030
c     0.94871723     0.78126066     0.64206388
c     0.05128280     0.28126067     0.35793611
c     0.84623323     0.69548629     0.56132335
c     0.15376679     0.19548630     0.43867664
c     0.82417868     0.68955698     0.39870610
c     0.17582134     0.18955699     0.60129389
h     0.74046721     0.62126306     0.34367109
h     0.25953281     0.12126307     0.65632890
c     0.91136486     0.77198071     0.31080502
c     0.08863516     0.27198072     0.68919497
h     0.89654588     0.76859990     0.18287266
h     0.10345414     0.26859991     0.81712734
c     0.01633481     0.85879732     0.38684182
c     0.98366521     0.35879733     0.61315818
h     0.08471338     0.92289399     0.31850537
h     0.91528664     0.42289400     0.68149462
c     0.03384784     0.86352507     0.55089769
c     0.96615218     0.36352508     0.44910230
h     0.11551636     0.93116063     0.61055179
h     0.88448367     0.43116064     0.38944820

K_POINTS automatic
2 2 2 1 1 1

CELL_PARAMETERS cubic
   15.746033000000     0.000000000000    -0.061057000000
    0.000000000000    20.103914000000     0.000000000000
   -1.221090000000     0.000000000000    16.054137000000
