&control
 title='crystal',
 prefix='crystal',
 pseudo_dir='.',
 calculation='vc-relax',
/
&system
 ibrav=0,
 celldm(1)=1.0,
 nat=    88,
 ntyp=  4,
 ecutwfc=60.0,
 ecutrho=600.0,
 xdm=.true.,
 xdm_a1=0.4073,
 xdm_a2=2.4150,
/
&electrons
 conv_thr = 1d-8,
/
&ions
/
&cell
/
ATOMIC_SPECIES
h      1.007940 h.UPF
c     12.010700 c.UPF
n     14.006700 n.UPF
o     15.999400 o.UPF

ATOMIC_POSITIONS crystal
c     0.11273968     0.91207935     0.30807126
c     0.88726032     0.08792064     0.69192869
c     0.61273968     0.91207935     0.19192872
c     0.11273968     0.58792064     0.80807125
c     0.61273968     0.58792064     0.69192869
c     0.38726032     0.41207936     0.30807126
c     0.88726032     0.41207936     0.19192872
c     0.38726032     0.08792064     0.80807125
n     0.12070611     0.02917842     0.38672621
n     0.87929389     0.97082157     0.61327375
n     0.62070611     0.02917842     0.11327378
n     0.12070611     0.47082157     0.88672619
n     0.62070611     0.47082157     0.61327375
n     0.37929389     0.52917843     0.38672621
n     0.87929389     0.52917843     0.11327378
n     0.37929389     0.97082157     0.88672619
c     0.13556890     0.12106326     0.21855940
c     0.86443110     0.87893673     0.78144055
c     0.63556891     0.12106326     0.28144058
c     0.13556890     0.37893673     0.71855939
c     0.63556891     0.37893673     0.78144055
c     0.36443110     0.62106326     0.21855940
c     0.86443110     0.62106326     0.28144058
c     0.36443110     0.87893673     0.71855939
c     0.13264131     0.04151076     0.01594654
c     0.86735869     0.95848923     0.98405342
c     0.63264131     0.04151076     0.48405344
c     0.13264131     0.45848923     0.51594652
c     0.63264131     0.45848923     0.98405342
c     0.36735869     0.54151076     0.01594654
c     0.86735869     0.54151076     0.48405344
c     0.36735869     0.95848923     0.51594652
n     0.12032482     0.92065568     0.08196889
n     0.87967518     0.07934431     0.91803107
n     0.62032482     0.92065568     0.41803109
n     0.12032482     0.57934431     0.58196887
n     0.62032482     0.57934431     0.91803107
n     0.37967518     0.42065569     0.08196889
n     0.87967518     0.42065569     0.41803109
n     0.37967518     0.07934431     0.58196887
o     0.09989711     0.81420408     0.40997930
o     0.90010289     0.18579591     0.59002066
o     0.59989711     0.81420408     0.09002068
o     0.09989711     0.68579591     0.90997928
o     0.59989711     0.68579591     0.59002066
o     0.40010289     0.31420408     0.40997930
o     0.90010289     0.31420408     0.09002068
o     0.40010289     0.18579591     0.90997928
o     0.13937518     0.08018243     0.83001195
o     0.86062482     0.91981756     0.16998800
o     0.63937519     0.08018243     0.66998803
o     0.13937518     0.41981756     0.33001194
o     0.63937519     0.41981756     0.16998800
o     0.36062482     0.58018244     0.83001195
o     0.86062482     0.58018244     0.66998803
o     0.36062482     0.91981756     0.33001194
h     0.12213784     0.04625407     0.54927704
h     0.87786216     0.95374592     0.45072291
h     0.62213784     0.04625407     0.95072294
h     0.12213784     0.45374592     0.04927703
h     0.62213784     0.45374592     0.45072291
h     0.37786216     0.54625407     0.54927704
h     0.87786216     0.54625407     0.95072294
h     0.37786216     0.95374592     0.04927703
h     0.21330102     0.17050673     0.22919788
h     0.78669898     0.82949326     0.77080207
h     0.71330103     0.17050673     0.27080210
h     0.21330102     0.32949326     0.72919787
h     0.71330103     0.32949326     0.77080207
h     0.28669898     0.67050674     0.22919788
h     0.78669898     0.67050674     0.27080210
h     0.28669898     0.82949326     0.72919787
h     0.07121908     0.19186479     0.21534805
h     0.92878092     0.80813520     0.78465191
h     0.57121908     0.19186479     0.28465194
h     0.07121908     0.30813520     0.71534803
h     0.57121908     0.30813520     0.78465191
h     0.42878092     0.69186480     0.21534805
h     0.92878092     0.69186480     0.28465194
h     0.42878092     0.80813520     0.71534803
h     0.11516164     0.84177834     0.98659174
h     0.88483836     0.15822165     0.01340822
h     0.61516164     0.84177834     0.51340825
h     0.11516164     0.65822165     0.48659172
h     0.61516164     0.65822165     0.01340822
h     0.38483836     0.34177834     0.98659174
h     0.88483836     0.34177834     0.51340825
h     0.38483836     0.15822165     0.48659172

K_POINTS automatic
2 2 2 1 1 1

CELL_PARAMETERS cubic
   23.402943000000     0.000000000000     0.000000000000
    0.000000000000    20.194030000000     0.000000000000
    0.000000000000     0.000000000000    11.746153000000
