&control
 title='crystal',
 prefix='crystal',
 pseudo_dir='.',
 calculation='vc-relax',
/
&system
 ibrav=0,
 celldm(1)=1.0,
 nat=    44,
 ntyp=  4,
 ecutwfc=60.0,
 ecutrho=600.0,
 xdm=.true.,
 xdm_a1=0.4073,
 xdm_a2=2.4150,
/
&electrons
 conv_thr = 1d-8,
/
&ions
/
&cell
/
ATOMIC_SPECIES
h      1.007940 h.UPF
c     12.010700 c.UPF
n     14.006700 n.UPF
o     15.999400 o.UPF

ATOMIC_POSITIONS crystal
n     0.72377609     0.06837470     0.83381189
n     0.27622386     0.93162534     0.16618806
n     0.72377608     0.43162532     0.33381189
n     0.27622386     0.56837472     0.66618805
c     0.86228321     0.15075830     0.02029699
c     0.13771675     0.84924174     0.97970296
c     0.86228320     0.34924172     0.52029699
c     0.13771674     0.65075832     0.47970295
n     0.83845884     0.37735393     0.99710433
n     0.16154111     0.62264610     0.00289562
n     0.83845883     0.12264609     0.49710433
n     0.16154111     0.87735395     0.50289561
c     0.68833524     0.44040280     0.79918150
c     0.31166471     0.55959723     0.20081844
c     0.68833523     0.05959721     0.29918150
c     0.31166471     0.94040282     0.70081843
c     0.60378943     0.23499574     0.67868041
c     0.39621052     0.76500429     0.32131954
c     0.60378942     0.26500427     0.17868041
c     0.39621052     0.73499576     0.82131953
o     0.63237599     0.62620864     0.73062002
o     0.36762397     0.37379139     0.26937992
o     0.63237598     0.87379137     0.23062002
o     0.36762396     0.12620866     0.76937992
o     0.99214623     0.05153727     0.18547575
o     0.00785373     0.94846276     0.81452420
o     0.99214622     0.44846274     0.68547575
o     0.00785373     0.55153729     0.31452419
h     0.70471810     0.90480513     0.80795282
h     0.29528185     0.09519490     0.19204713
h     0.70471809     0.59519488     0.30795282
h     0.29528185     0.40480515     0.69204712
h     0.91450135     0.47433049     0.11387994
h     0.08549861     0.52566955     0.88612001
h     0.91450134     0.02566953     0.61387994
h     0.08549860     0.97433051     0.38612000
h     0.66804284     0.23569440     0.64592932
h     0.33195712     0.76430563     0.35407063
h     0.66804283     0.26430561     0.14592932
h     0.33195712     0.73569442     0.85407062
h     0.39581389     0.22361665     0.51794354
h     0.60418607     0.77638339     0.48205641
h     0.39581388     0.27638337     0.01794354
h     0.60418606     0.72361666     0.98205640

K_POINTS automatic
2 2 2 1 1 1

CELL_PARAMETERS cubic
   21.031930000000     0.000000000000    -0.481704000000
    0.000000000000    11.701403000000     0.000000000000
  -20.844861000000     0.000000000000    11.849499000000
