&control
 title='crystal',
 prefix='crystal',
 pseudo_dir='.',
 calculation='vc-relax',
/
&system
 ibrav=0,
 celldm(1)=1.0,
 nat=    22,
 ntyp=  4,
 ecutwfc=60.0,
 ecutrho=600.0,
 xdm=.true.,
 xdm_a1=0.4073,
 xdm_a2=2.4150,
/
&electrons
 conv_thr = 1d-8,
/
&ions
/
&cell
/
ATOMIC_SPECIES
h      1.007940 h.UPF
c     12.010700 c.UPF
n     14.006700 n.UPF
o     15.999400 o.UPF

ATOMIC_POSITIONS crystal
o     0.61166903     0.28858207     0.46282690
o     0.38833082     0.71141788     0.53717311
c     0.34111025     0.21563843     0.35576566
c     0.65888961     0.78436152     0.64423435
n     0.15468076     0.00243135     0.32578259
n     0.84531909     0.99756860     0.67421741
c     0.86835729     0.97297835     0.19034180
c     0.13164256     0.02702159     0.80965820
o     0.66323150     0.79413887     0.13585114
o     0.33676835     0.20586108     0.86414887
n     0.86518463     0.17151938     0.13548567
n     0.13481523     0.82848057     0.86451433
c     0.15015656     0.34248263     0.23191556
c     0.84984329     0.65751732     0.76808445
h     0.05807332     0.46157312     0.29574422
h     0.94192653     0.53842683     0.70425579
h     0.32424976     0.43139803     0.16163846
h     0.67575010     0.56860191     0.83836154
h     0.68095283     0.19347405     0.03414318
h     0.31904702     0.80652590     0.96585682
h     0.22291673     0.87841408     0.39488426
h     0.77708312     0.12158587     0.60511574

K_POINTS automatic
2 2 2 1 1 1

CELL_PARAMETERS cubic
    7.654806000000    -0.200040000000    -0.078813000000
   -2.469147000000    11.672086000000    -0.125464000000
   -3.667264000000    -1.023720000000    15.644299000000
