&control
 title='crystal',
 prefix='crystal',
 pseudo_dir='.',
 calculation='vc-relax',
/
&system
 ibrav=0,
 celldm(1)=1.0,
 nat=    44,
 ntyp=  4,
 ecutwfc=60.0,
 ecutrho=600.0,
 xdm=.true.,
 xdm_a1=0.4073,
 xdm_a2=2.4150,
/
&electrons
 conv_thr = 1d-8,
/
&ions
/
&cell
/
ATOMIC_SPECIES
h      1.007940 h.UPF
c     12.010700 c.UPF
n     14.006700 n.UPF
o     15.999400 o.UPF

ATOMIC_POSITIONS crystal
n     0.05699724     0.25000000     0.02895337
n     0.94300279     0.74999999     0.97104660
n     0.55699724     0.25000000     0.47104662
n     0.44300277     0.74999999     0.52895336
c     0.13559459     0.25000000     0.91236749
c     0.86440543     0.74999999     0.08763248
c     0.63559460     0.25000000     0.58763250
c     0.36440542     0.74999999     0.41236748
n     0.36129045     0.25000000     0.92161134
n     0.63870958     0.74999999     0.07838864
n     0.86129045     0.25000000     0.57838865
n     0.13870956     0.74999999     0.42161133
c     0.42744114     0.25000000     0.04218757
c     0.57255888     0.74999999     0.95781241
c     0.92744115     0.25000000     0.45781242
c     0.07255887     0.74999999     0.54218756
c     0.22546032     0.25000000     0.12132981
c     0.77453971     0.74999999     0.87867017
c     0.72546032     0.25000000     0.37867018
c     0.27453969     0.74999999     0.62132980
o     0.61327159     0.25000000     0.08097434
o     0.38672843     0.74999999     0.91902563
o     0.11327160     0.25000000     0.41902565
o     0.88672842     0.74999999     0.58097433
o     0.03322363     0.25000000     0.81433183
o     0.96677640     0.74999999     0.18566815
o     0.53322364     0.25000000     0.68566816
o     0.46677638     0.74999999     0.31433182
h     0.89481310     0.25000000     0.04590029
h     0.10518692     0.74999999     0.95409968
h     0.39481311     0.25000000     0.45409970
h     0.60518690     0.74999999     0.54590028
h     0.45684397     0.25000000     0.84345431
h     0.54315606     0.74999999     0.15654567
h     0.95684398     0.25000000     0.65654568
h     0.04315604     0.74999999     0.34345430
h     0.22135828     0.39030834     0.18118509
h     0.77864174     0.60969165     0.81881489
h     0.72135829     0.39030834     0.31881490
h     0.22135828     0.10969166     0.18118509
h     0.72135829     0.10969166     0.31881490
h     0.27864173     0.89030833     0.68118508
h     0.77864174     0.89030833     0.81881489
h     0.27864173     0.60969165     0.68118508

K_POINTS automatic
2 2 2 1 1 1

CELL_PARAMETERS cubic
   11.770797000000     0.000000000000     0.000000000000
    0.000000000000    11.988323000000     0.000000000000
    0.000000000000     0.000000000000    20.355633000000
