&control
 title='crystal',
 prefix='crystal',
 pseudo_dir='.',
 calculation='vc-relax',
/
&system
 ibrav=0,
 celldm(1)=1.0,
 nat=    22,
 ntyp=  4,
 ecutwfc=60.0,
 ecutrho=600.0,
 xdm=.true.,
 xdm_a1=0.4073,
 xdm_a2=2.4150,
/
&electrons
 conv_thr = 1d-8,
/
&ions
/
&cell
/
ATOMIC_SPECIES
h      1.007940 h.UPF
c     12.010700 c.UPF
n     14.006700 n.UPF
o     15.999400 o.UPF

ATOMIC_POSITIONS crystal
o     0.21796675     0.26885704     0.11068091
o     0.78203318     0.76885703     0.88931907
o     0.93120838     0.88479128     0.49316590
o     0.06879155     0.38479127     0.50683409
n     0.27416479     0.90850387     0.14918004
n     0.72583514     0.40850386     0.85081994
n     0.60772208     0.11720461     0.31989199
n     0.39227785     0.61720460     0.68010799
c     0.70971756     0.92299781     0.37421579
c     0.29028237     0.42299780     0.62578419
c     0.34736675     0.11190394     0.18203827
c     0.65263318     0.61190393     0.81796172
c     0.49285028     0.77019735     0.25992009
c     0.50714965     0.27019734     0.74007990
h     0.72881079     0.24824891     0.37231050
h     0.27118914     0.74824890     0.62768949
h     0.10424341     0.85754348     0.04924901
h     0.89575652     0.35754347     0.95075098
h     0.66412844     0.67164099     0.20070159
h     0.33587149     0.17164098     0.79929840
h     0.33812818     0.66757070     0.32448555
h     0.66187175     0.16757069     0.67551444

K_POINTS automatic
2 2 2 1 1 1

CELL_PARAMETERS cubic
    7.287115000000     0.000000000000    -0.353760000000
    0.000000000000    12.121080000000     0.000000000000
   -2.067453000000     0.000000000000    15.929227000000
