&control
 title='crystal',
 prefix='crystal',
 pseudo_dir='.',
 calculation='vc-relax',
/
&system
 ibrav=0,
 celldm(1)=1.0,
 nat=    88,
 ntyp=  4,
 ecutwfc=60.0,
 ecutrho=600.0,
 xdm=.true.,
 xdm_a1=0.4073,
 xdm_a2=2.4150,
/
&electrons
 conv_thr = 1d-8,
/
&ions
/
&cell
/
ATOMIC_SPECIES
h      1.007940 h.UPF
c     12.010700 c.UPF
n     14.006700 n.UPF
o     15.999400 o.UPF

ATOMIC_POSITIONS crystal
c     0.93040184     0.58326886     0.25000265
c     0.06959819     0.41673111     0.74999738
c     0.93040185     0.91673110     0.75000265
c     0.06959818     0.08326887     0.24999738
h     0.98286510     0.58097057     0.39043613
h     0.01713493     0.41902940     0.60956390
h     0.98286511     0.91902939     0.89043613
h     0.01713492     0.08097058     0.10956390
h     0.98295097     0.58096794     0.10965676
h     0.01704906     0.41903203     0.89034327
h     0.98295098     0.91903202     0.60965676
h     0.01704905     0.08096795     0.39034327
n     0.84698907     0.48322089     0.24993996
n     0.15301096     0.51677908     0.75006006
n     0.84698907     0.01677907     0.74993996
n     0.15301095     0.98322090     0.25006006
h     0.85812232     0.38249948     0.24996643
h     0.14187771     0.61750050     0.75003360
h     0.85812232     0.11750049     0.74996643
h     0.14187771     0.88249949     0.25003360
c     0.74666034     0.53566683     0.24994934
c     0.25333969     0.46433314     0.75005068
c     0.74666035     0.96433313     0.74994934
c     0.25333968     0.03566684     0.25005068
o     0.65783477     0.47979067     0.24995260
o     0.34216526     0.52020931     0.75004742
o     0.65783477     0.02020930     0.74995260
o     0.34216525     0.97979068     0.25004742
n     0.75857966     0.67336121     0.24995785
n     0.24142037     0.32663876     0.75004217
n     0.75857967     0.82663875     0.74995785
n     0.24142036     0.17336122     0.25004217
h     0.69349391     0.73876454     0.24995335
h     0.30650612     0.26123543     0.75004667
h     0.69349392     0.76123542     0.74995335
h     0.30650611     0.23876456     0.25004667
c     0.86496754     0.70910723     0.24998154
c     0.13503249     0.29089275     0.75001848
c     0.86496754     0.79089274     0.74998154
c     0.13503248     0.20910724     0.25001848
o     0.90040366     0.82250195     0.24999518
o     0.09959637     0.17749802     0.75000485
o     0.90040366     0.67749801     0.74999518
o     0.09959637     0.32250196     0.25000485
c     0.43131004     0.89360020     0.75003875
c     0.56868999     0.10639978     0.24996128
c     0.43131005     0.60639977     0.25003875
c     0.56868998     0.39360021     0.74996128
h     0.48344917     0.88845208     0.89109222
h     0.51655086     0.11154789     0.10890780
h     0.48344917     0.61154788     0.39109222
h     0.51655085     0.38845209     0.60890780
h     0.48346912     0.88842688     0.60897376
h     0.51653091     0.11157309     0.39102627
h     0.48346913     0.61157308     0.10897376
h     0.51653090     0.38842689     0.89102627
n     0.34678796     0.79532066     0.75007529
n     0.65321207     0.20467932     0.24992474
n     0.34678796     0.70467931     0.25007529
n     0.65321206     0.29532067     0.74992474
h     0.35760568     0.69515525     0.75004757
h     0.64239435     0.30484473     0.24995246
h     0.35760568     0.80484472     0.25004757
h     0.64239434     0.19515526     0.74995246
c     0.24680028     0.84838713     0.75005809
c     0.75319975     0.15161284     0.24994193
c     0.24680029     0.65161283     0.25005809
c     0.75319974     0.34838714     0.74994193
o     0.15768760     0.79352699     0.75004963
o     0.84231243     0.20647298     0.24995040
o     0.15768760     0.70647297     0.25004963
o     0.84231242     0.29352700     0.74995040
n     0.26050166     0.98594395     0.75004990
n     0.73949837     0.01405603     0.24995012
n     0.26050167     0.51405602     0.25004990
n     0.73949836     0.48594396     0.74995012
h     0.19626066     0.05176415     0.75002634
h     0.80373937     0.94823582     0.24997369
h     0.19626066     0.44823581     0.25002634
h     0.80373937     0.55176417     0.74997369
c     0.36701200     0.02055352     0.75003062
c     0.63298803     0.97944645     0.24996941
c     0.36701201     0.47944644     0.25003062
c     0.63298802     0.52055353     0.74996941
o     0.40312922     0.13382834     0.75001448
o     0.59687081     0.86617163     0.24998555
o     0.40312922     0.36617162     0.25001448
o     0.59687080     0.63382835     0.74998555

K_POINTS automatic
2 2 2 1 1 1

CELL_PARAMETERS cubic
   23.322018000000     0.000000000000    -0.002378000000
    0.000000000000    19.265401000000     0.000000000000
    0.003951000000     0.000000000000    11.896586000000
