&control
 title='crystal',
 prefix='crystal',
 pseudo_dir='.',
 calculation='vc-relax',
/
&system
 ibrav=0,
 celldm(1)=1.0,
 nat=    22,
 ntyp=  4,
 ecutwfc=60.0,
 ecutrho=600.0,
 xdm=.true.,
 xdm_a1=0.4073,
 xdm_a2=2.4150,
/
&electrons
 conv_thr = 1d-8,
/
&ions
/
&cell
/
ATOMIC_SPECIES
h      1.007940 h.UPF
c     12.010700 c.UPF
n     14.006700 n.UPF
o     15.999400 o.UPF

ATOMIC_POSITIONS crystal
o     0.31728809     0.82141364     0.13398012
o     0.68271192     0.32141364     0.86601989
o     0.78522894     0.30813653     0.48225931
o     0.21477107     0.80813653     0.51774069
n     0.68615375     0.55806909     0.13664508
n     0.31384626     0.05806909     0.86335493
n     0.51854204     0.60145979     0.33185095
n     0.48145797     0.10145979     0.66814906
c     0.72089925     0.42209242     0.36823847
c     0.27910076     0.92209242     0.63176153
c     0.49141490     0.67377057     0.19136438
c     0.50858511     0.17377057     0.80863563
c     0.84789382     0.39250708     0.23937433
c     0.15210619     0.89250708     0.76062568
h     0.40029249     0.68561532     0.39964239
h     0.59970752     0.18561532     0.60035762
h     0.68622129     0.50121617     0.03368183
h     0.31377872     0.00121617     0.96631817
h     0.01653385     0.53009326     0.25293558
h     0.98346616     0.03009326     0.74706443
h     0.88491971     0.12166617     0.21422103
h     0.11508030     0.62166617     0.78577897

K_POINTS automatic
2 2 2 1 1 1

CELL_PARAMETERS cubic
   10.817899000000     0.000000000000    -0.222946000000
    0.000000000000     7.268385000000     0.000000000000
   -1.270471000000     0.000000000000    18.513325000000
