&control
 title='crystal',
 prefix='crystal',
 pseudo_dir='.',
 calculation='vc-relax',
/
&system
 ibrav=0,
 celldm(1)=1.0,
 nat=    22,
 ntyp=  4,
 ecutwfc=60.0,
 ecutrho=600.0,
 xdm=.true.,
 xdm_a1=0.4073,
 xdm_a2=2.4150,
/
&electrons
 conv_thr = 1d-8,
/
&ions
/
&cell
/
ATOMIC_SPECIES
h      1.007940 h.UPF
c     12.010700 c.UPF
n     14.006700 n.UPF
o     15.999400 o.UPF

ATOMIC_POSITIONS crystal
c     0.26118942     0.72655742     0.72429065
c     0.73881063     0.22655741     0.27570937
n     0.36950372     0.60241270     0.84369084
n     0.63049633     0.10241269     0.15630917
c     0.32516573     0.40222101     0.82045972
c     0.67483432     0.90222101     0.17954029
n     0.19976592     0.38506180     0.68043806
n     0.80023413     0.88506179     0.31956195
c     0.15524755     0.56802811     0.61556712
c     0.84475250     0.06802810     0.38443289
o     0.38282392     0.25607770     0.89986931
o     0.61717613     0.75607770     0.10013070
o     0.05293943     0.59229059     0.49173028
o     0.94706062     0.09229058     0.50826974
h     0.48159172     0.82209622     0.65656274
h     0.51840832     0.32209621     0.34343727
h     0.03207250     0.82592152     0.77666311
h     0.96792755     0.32592151     0.22333690
h     0.43874627     0.66061628     0.94312602
h     0.56125377     0.16061628     0.05687399
h     0.12711745     0.25334679     0.63267344
h     0.87288260     0.75334678     0.36732657

K_POINTS automatic
2 2 2 1 1 1

CELL_PARAMETERS cubic
    7.210531000000     0.000000000000     0.049916000000
    0.000000000000    12.480427000000     0.000000000000
    3.844238000000     0.000000000000    15.803045000000
