&control
 title='crystal',
 prefix='crystal',
 pseudo_dir='.',
 calculation='vc-relax',
/
&system
 ibrav=0,
 celldm(1)=1.0,
 nat=    44,
 ntyp=  4,
 ecutwfc=60.0,
 ecutrho=600.0,
 xdm=.true.,
 xdm_a1=0.4073,
 xdm_a2=2.4150,
/
&electrons
 conv_thr = 1d-8,
/
&ions
/
&cell
/
ATOMIC_SPECIES
h      1.007940 h.UPF
c     12.010700 c.UPF
n     14.006700 n.UPF
o     15.999400 o.UPF

ATOMIC_POSITIONS crystal
c     0.54772294     0.74033174     0.83064663
c     0.04772294     0.75966823     0.16935343
c     0.45227705     0.24033175     0.66935346
c     0.95227705     0.25966824     0.33064660
n     0.63040904     0.64447569     0.65490416
n     0.13040905     0.85552428     0.34509590
n     0.36959095     0.14447570     0.84509593
n     0.86959094     0.35552429     0.15490413
c     0.73894695     0.69151034     0.70231299
c     0.23894695     0.80848963     0.29768707
c     0.26105305     0.19151036     0.79768710
c     0.76105304     0.30848963     0.20231296
n     0.73149099     0.83053327     0.87765743
n     0.23149100     0.66946670     0.12234263
n     0.26850900     0.33053328     0.62234266
n     0.76850899     0.16946671     0.37765740
c     0.62185950     0.86568550     0.96815754
c     0.12185951     0.63431447     0.03184252
c     0.37814049     0.36568551     0.53184255
c     0.87814048     0.13431447     0.46815751
o     0.82912228     0.63175997     0.61592326
o     0.32912228     0.86824000     0.38407680
o     0.17087772     0.13175998     0.88407683
o     0.67087771     0.36824001     0.11592323
o     0.59003020     0.97753629     0.13174926
o     0.09003020     0.52246368     0.86825079
o     0.40996979     0.47753630     0.36825082
o     0.90996979     0.02246369     0.63174924
h     0.50404700     0.68625071     0.06028322
h     0.00404701     0.81374926     0.93971683
h     0.49595299     0.18625072     0.43971686
h     0.99595298     0.31374927     0.56028320
h     0.48226934     0.78289208     0.64161187
h     0.98226935     0.71710789     0.35838818
h     0.51773065     0.28289210     0.85838821
h     0.01773065     0.21710789     0.14161184
h     0.61326570     0.54032507     0.56868289
h     0.11326570     0.95967491     0.43131717
h     0.38673429     0.04032508     0.93131720
h     0.88673429     0.45967491     0.06868286
h     0.79975347     0.90185596     0.87129681
h     0.29975347     0.59814402     0.12870325
h     0.20024653     0.40185597     0.62870328
h     0.70024652     0.09814402     0.37129678

K_POINTS automatic
2 2 2 1 1 1

CELL_PARAMETERS cubic
   22.134383000000     0.000000000000     0.000000000000
    0.000000000000    17.164902000000     0.000000000000
    0.000000000000     0.000000000000     6.876953000000
