&control
 title='crystal',
 prefix='crystal',
 pseudo_dir='.',
 calculation='vc-relax',
/
&system
 ibrav=0,
 celldm(1)=1.0,
 nat=    44,
 ntyp=  4,
 ecutwfc=60.0,
 ecutrho=600.0,
 xdm=.true.,
 xdm_a1=0.4073,
 xdm_a2=2.4150,
/
&electrons
 conv_thr = 1d-8,
/
&ions
/
&cell
/
ATOMIC_SPECIES
h      1.007940 h.UPF
c     12.010700 c.UPF
n     14.006700 n.UPF
o     15.999400 o.UPF

ATOMIC_POSITIONS crystal
c     0.12721816     0.50450791     0.80471974
c     0.87278186     0.49549209     0.19528021
c     0.12721816     0.99549209     0.30471976
c     0.87278188     0.00450791     0.69528021
c     0.75458924     0.38382157     0.64512625
c     0.24541079     0.61617843     0.35487370
c     0.75458923     0.11617843     0.14512626
c     0.24541081     0.88382157     0.85487370
n     0.21146777     0.40430029     0.86785853
n     0.78853225     0.59569971     0.13214142
n     0.21146776     0.09569971     0.36785855
n     0.78853228     0.90430029     0.63214141
n     0.85169286     0.49081956     0.66818842
n     0.14830716     0.50918044     0.33181153
n     0.85169285     0.00918044     0.16818843
n     0.14830718     0.99081956     0.83181153
c     0.99118377     0.31951539     0.77918698
c     0.00881625     0.68048461     0.22081297
c     0.99118376     0.18048461     0.27918700
c     0.00881628     0.81951539     0.72081297
o     0.26036347     0.59388403     0.85081313
o     0.73963655     0.40611597     0.14918683
o     0.26036347     0.90611598     0.35081314
o     0.73963657     0.09388403     0.64918682
o     0.52036928     0.34754774     0.53534021
o     0.47963074     0.65245226     0.46465975
o     0.52036927     0.15245226     0.03534022
o     0.47963077     0.84754774     0.96465974
h     0.39795896     0.39421454     0.97396576
h     0.60204106     0.60578546     0.02603420
h     0.39795895     0.10578546     0.47396577
h     0.60204109     0.89421454     0.52603419
h     0.14039099     0.25825136     0.72724602
h     0.85960903     0.74174864     0.27275393
h     0.14039098     0.24174865     0.22724604
h     0.85960906     0.75825136     0.77275393
h     0.83468055     0.27599357     0.85252567
h     0.16531948     0.72400643     0.14747429
h     0.83468054     0.22400643     0.35252568
h     0.16531950     0.77599357     0.64747428
h     0.72802399     0.55543786     0.59858391
h     0.27197603     0.44456214     0.40141604
h     0.72802398     0.94456214     0.09858393
h     0.27197605     0.05543786     0.90141604

K_POINTS automatic
2 2 2 1 1 1

CELL_PARAMETERS cubic
    7.352714000000     0.000000000000    -0.070226000000
    0.000000000000    23.103769000000     0.000000000000
   -3.324518000000     0.000000000000    15.695223000000
