&control
 title='crystal',
 prefix='crystal',
 pseudo_dir='.',
 calculation='vc-relax',
/
&system
 ibrav=0,
 celldm(1)=1.0,
 nat=    44,
 ntyp=  4,
 ecutwfc=60.0,
 ecutrho=600.0,
 xdm=.true.,
 xdm_a1=0.4073,
 xdm_a2=2.4150,
/
&electrons
 conv_thr = 1d-8,
/
&ions
/
&cell
/
ATOMIC_SPECIES
h      1.007940 h.UPF
c     12.010700 c.UPF
n     14.006700 n.UPF
o     15.999400 o.UPF

ATOMIC_POSITIONS crystal
c     0.58153812     0.05244074     0.74416276
c     0.41846188     0.94755920     0.25583723
c     0.05244475     0.58153822     0.75583589
c     0.94755525     0.41846171     0.24416410
h     0.47439393     0.04203193     0.66083612
h     0.52560607     0.95796801     0.33916386
h     0.04203652     0.47439396     0.83916274
h     0.95796348     0.52560598     0.16083725
h     0.59837785     0.94362404     0.83104528
h     0.40162215     0.05637590     0.16895471
h     0.94362804     0.59837705     0.66895358
h     0.05637196     0.40162289     0.33104640
n     0.75750395     0.04393197     0.63239720
n     0.24249605     0.95606797     0.36760279
n     0.04393409     0.75750709     0.86760235
n     0.95606591     0.24249285     0.13239763
h     0.85138297     0.92911358     0.53897111
h     0.14861703     0.07088636     0.46102888
h     0.92911674     0.85138514     0.96102823
h     0.07088326     0.14861480     0.03897175
c     0.80339183     0.19945705     0.68110150
c     0.19660818     0.80054289     0.31889849
c     0.19945937     0.80339394     0.81889767
c     0.80054063     0.19660600     0.18110232
o     0.94557148     0.23550552     0.61983726
o     0.05442852     0.76449442     0.38016272
o     0.23550666     0.94557637     0.88016381
o     0.76449334     0.05442357     0.11983617
n     0.65394043     0.32420744     0.81942456
n     0.34605957     0.67579250     0.18057543
n     0.32420885     0.65394174     0.68057582
n     0.67579115     0.34605820     0.31942416
h     0.65307467     0.45546078     0.88322905
h     0.34692533     0.54453915     0.11677094
h     0.45546254     0.65307638     0.61677118
h     0.54453746     0.34692356     0.38322881
c     0.51890063     0.24610616     0.86716152
c     0.48109937     0.75389378     0.13283847
c     0.24610890     0.51890158     0.63283724
c     0.75389110     0.48109836     0.36716275
o     0.37350183     0.32101191     0.98649535
o     0.62649817     0.67898803     0.01350464
o     0.32101388     0.37350009     0.51350301
o     0.67898612     0.62649985     0.48649698

K_POINTS automatic
2 2 2 1 1 1

CELL_PARAMETERS cubic
   14.366430000000    -0.134791000000    -0.079962000000
    4.503379000000    13.642944000000     0.079912000000
    1.922645000000    -2.685811000000    13.423121000000
