&control
 title='crystal',
 prefix='crystal',
 pseudo_dir='.',
 calculation='vc-relax',
/
&system
 ibrav=0,
 celldm(1)=1.0,
 nat=    44,
 ntyp=  4,
 ecutwfc=60.0,
 ecutrho=600.0,
 xdm=.true.,
 xdm_a1=0.4073,
 xdm_a2=2.4150,
/
&electrons
 conv_thr = 1d-8,
/
&ions
/
&cell
/
ATOMIC_SPECIES
h      1.007940 h.UPF
c     12.010700 c.UPF
n     14.006700 n.UPF
o     15.999400 o.UPF

ATOMIC_POSITIONS crystal
c     0.33198793     0.13612026     0.58796928
c     0.66801204     0.86387974     0.41203072
c     0.66801003     0.63612014     0.91203068
c     0.33198995     0.36387986     0.08796932
n     0.21964215     0.05613451     0.47215186
n     0.78035782     0.94386549     0.52784814
n     0.78035817     0.55613449     0.02784916
n     0.21964180     0.44386551     0.97215084
c     0.13272721     0.22393073     0.37980448
c     0.86727276     0.77606927     0.62019552
c     0.86727465     0.72393158     0.12019626
c     0.13272532     0.27606842     0.87980374
c     0.21165720     0.42716809     0.45814381
c     0.78834277     0.57283191     0.54185619
c     0.78834278     0.92716700     0.04185565
c     0.21165719     0.07283300     0.95814435
n     0.32119013     0.36232620     0.57785787
n     0.67880984     0.63767380     0.42214214
n     0.67881109     0.86232395     0.92214403
n     0.32118889     0.13767605     0.07785598
o     0.42867088     0.03464402     0.68607124
o     0.57132909     0.96535598     0.31392876
o     0.57132562     0.53464219     0.81392937
o     0.42867435     0.46535781     0.18607063
o     0.18171183     0.61283915     0.41947784
o     0.81828815     0.38716085     0.58052217
o     0.81828942     0.11284152     0.08052280
o     0.18171055     0.88715848     0.91947721
h     0.20598141     0.89344984     0.45577457
h     0.79401856     0.10655016     0.54422543
h     0.79401766     0.39344996     0.04422628
h     0.20598231     0.60655004     0.95577373
h     0.92217082     0.22150193     0.30856843
h     0.07782915     0.77849807     0.69143157
h     0.07783133     0.72149881     0.19143147
h     0.92216864     0.27850119     0.80856854
h     0.22657138     0.21709945     0.33171478
h     0.77342859     0.78290055     0.66828523
h     0.77343267     0.71710444     0.16828697
h     0.22656730     0.28289556     0.83171303
h     0.40173661     0.45869193     0.65582120
h     0.59826336     0.54130807     0.34417880
h     0.59826210     0.95869125     0.84417853
h     0.40173787     0.04130875     0.15582147

K_POINTS automatic
2 2 2 1 1 1

CELL_PARAMETERS cubic
   12.034705000000     0.000081000000    -0.637280000000
    0.000091000000    11.745381000000    -0.000003000000
  -13.541590000000    -0.000095000000    20.973060000000
