&control
 title='crystal',
 prefix='crystal',
 pseudo_dir='.',
 calculation='vc-relax',
/
&system
 ibrav=0,
 celldm(1)=1.0,
 nat=    70,
 ntyp=  4,
 ecutwfc=60.0,
 ecutrho=600.0,
 xdm=.true.,
 xdm_a1=0.4073,
 xdm_a2=2.4150,
/
&electrons
 conv_thr = 1d-8,
/
&ions
/
&cell
/
ATOMIC_SPECIES
h      1.007940 h.UPF
c     12.010700 c.UPF
n     14.006700 n.UPF
o     15.999400 o.UPF

ATOMIC_POSITIONS crystal
n     0.02138669     0.20250870     0.12721861
n     0.97861335     0.70250871     0.87278137
c     0.98058842     0.08098144     0.99392973
c     0.01941161     0.58098145     0.00607025
c     0.86660474     0.12064161     0.85032951
c     0.13339529     0.62064161     0.14967046
n     0.78979918     0.22926104     0.91460068
n     0.21020086     0.72926104     0.08539930
c     0.80080655     0.28944785     0.11135257
c     0.19919349     0.78944786     0.88864741
c     0.91781704     0.24916922     0.24744754
c     0.08218299     0.74916922     0.75255244
n     0.37385694     0.14812465     0.24070275
n     0.62614309     0.64812465     0.75929723
c     0.41896754     0.26796266     0.37225083
c     0.58103249     0.76796266     0.62774915
c     0.53644917     0.22612782     0.50639808
c     0.46355087     0.72612782     0.49360189
n     0.60956924     0.11692624     0.43406761
n     0.39043079     0.61692625     0.56593236
c     0.59266023     0.05838772     0.23551775
c     0.40733981     0.55838772     0.76448223
c     0.47188150     0.09995953     0.11010716
c     0.52811853     0.59995953     0.88989281
c     0.25262549     0.17724374     0.12194618
c     0.74737455     0.67724374     0.87805380
c     0.14055872     0.17837483     0.25972353
c     0.85944131     0.67837483     0.74027644
c     0.13818125     0.04516376     0.39991638
c     0.86181879     0.54516376     0.60008359
o     0.84133017     0.05788033     0.68295582
o     0.15866987     0.55788034     0.31704416
o     0.71709626     0.36918345     0.16892565
o     0.28290377     0.86918346     0.83107432
o     0.56710290     0.28771197     0.67270544
o     0.43289713     0.78771198     0.32729453
o     0.67595155     0.98215365     0.16960639
o     0.32404848     0.48215365     0.83039359
h     0.05615849     0.04969343     0.89667827
h     0.94384154     0.54969343     0.10332170
h     0.95343947     0.98214289     0.07784320
h     0.04656057     0.48214289     0.92215678
h     0.70712196     0.25356496     0.82050124
h     0.29287807     0.75356497     0.17949874
h     0.88766981     0.16600207     0.35719975
h     0.11233023     0.66600208     0.64280023
h     0.94749618     0.34448710     0.33960945
h     0.05250386     0.84448711     0.66039053
h     0.34718705     0.29991001     0.47672417
h     0.65281298     0.79991001     0.52327580
h     0.44286368     0.36629472     0.28368520
h     0.55713636     0.86629473     0.71631478
h     0.69358873     0.09143445     0.52122378
h     0.30641131     0.59143446     0.47877620
h     0.43833837     0.00449190     0.02133881
h     0.56166167     0.50449191     0.97866116
h     0.49760796     0.18385039     0.99749719
h     0.50239207     0.68385040     0.00250279
h     0.23998345     0.08982115     0.00766707
h     0.76001658     0.58982116     0.99233291
h     0.25392389     0.28032946     0.03544034
h     0.74607614     0.78032947     0.96455964
h     0.14939796     0.27582387     0.35754623
h     0.85060207     0.77582388     0.64245375
h     0.05713759     0.04978702     0.49587636
h     0.94286244     0.54978702     0.50412362
h     0.13092567     0.94461227     0.30947507
h     0.86907436     0.44461227     0.69052490
h     0.22549964     0.03754412     0.50233616
h     0.77450040     0.53754413     0.49766381

K_POINTS automatic
2 2 2 1 1 1

CELL_PARAMETERS cubic
   19.938292000000     0.000000000000     0.091749000000
    0.000000000000    17.445464000000     0.000000000000
   -1.029377000000     0.000000000000    12.202975000000
