&control
 title='crystal',
 prefix='crystal',
 pseudo_dir='.',
 calculation='vc-relax',
/
&system
 ibrav=0,
 celldm(1)=1.0,
 nat=   112,
 ntyp=  4,
 ecutwfc=60.0,
 ecutrho=600.0,
 xdm=.true.,
 xdm_a1=0.4073,
 xdm_a2=2.4150,
/
&electrons
 conv_thr = 1d-8,
/
&ions
/
&cell
/
ATOMIC_SPECIES
h      1.007940 h.UPF
c     12.010700 c.UPF
n     14.006700 n.UPF
o     15.999400 o.UPF

ATOMIC_POSITIONS crystal
n     0.21066316     0.48351839     0.95329998
n     0.78933592     0.51649278     0.45329839
n     0.71066733     0.51646515     0.95329244
n     0.28932958     0.48353334     0.45329982
c     0.15458780     0.48987542     0.94761396
c     0.84541123     0.51012512     0.44761577
c     0.65459174     0.51010508     0.94760362
c     0.34540495     0.48989711     0.44761514
h     0.13145878     0.38733310     0.01774543
h     0.86853929     0.61266426     0.51774801
h     0.63146208     0.61264419     0.01773437
h     0.36853331     0.38736165     0.51774721
c     0.12382000     0.62131205     0.85772867
c     0.87618062     0.37867736     0.35773199
c     0.62382603     0.37866970     0.85771595
c     0.37617332     0.62133473     0.35772906
h     0.07785382     0.61636643     0.85900682
h     0.92214683     0.38361569     0.35901319
h     0.57785981     0.38360913     0.85899198
h     0.42213954     0.61639426     0.35900867
c     0.15278125     0.75436177     0.76975428
c     0.84722093     0.24563072     0.26975765
c     0.65278858     0.24562831     0.76974200
c     0.34721287     0.75437554     0.26975433
h     0.13163670     0.85410148     0.69772239
h     0.86836668     0.14588229     0.19772681
h     0.63164587     0.14589037     0.69770868
h     0.36835790     0.85411605     0.19772211
c     0.21242648     0.75874779     0.77256092
c     0.78757570     0.24125523     0.27256005
c     0.71243378     0.24124847     0.77255223
c     0.28756775     0.75875393     0.27255958
c     0.23882662     0.61773748     0.86718748
c     0.76117379     0.38227653     0.36718554
c     0.73883214     0.38225266     0.86718086
c     0.26116670     0.61774362     0.36718668
n     0.29658557     0.61315418     0.87213801
n     0.70341468     0.38687030     0.37213203
n     0.79659101     0.38683650     0.87213507
n     0.20340782     0.61315309     0.37213576
h     0.31840001     0.50440591     0.94435089
h     0.68159929     0.49562375     0.44434421
h     0.81840431     0.49557658     0.94434997
h     0.18159319     0.50440472     0.44434981
c     0.32851194     0.73633604     0.79124873
c     0.67148976     0.26369213     0.29124218
c     0.82851898     0.26366171     0.79124616
c     0.17148192     0.73632513     0.29124591
h     0.37376621     0.70911339     0.80273625
h     0.62623531     0.29092330     0.30272656
h     0.87377311     0.29088646     0.80273701
h     0.12622760     0.70909401     0.30273282
c     0.30437500     0.88335205     0.69745524
c     0.69562836     0.11666543     0.19744963
c     0.80438363     0.11665663     0.69745040
c     0.19561959     0.88334002     0.19745203
h     0.33226960     0.98500047     0.63485637
h     0.66773512     0.01501899     0.13484964
h     0.83227940     0.01501638     0.63485149
h     0.16772557     0.98498042     0.13485208
c     0.24644358     0.89457488     0.68755218
c     0.75356011     0.10543222     0.18755067
c     0.74645216     0.10543032     0.68754375
c     0.25355115     0.89457186     0.18755007
h     0.22623909     0.00816939     0.61588765
h     0.77376610     0.99183023     0.11588753
h     0.72624909     0.99184094     0.61587787
h     0.27375610     0.00816687     0.11588586
o     0.35474678     0.38459559     0.03866476
o     0.64525153     0.61543930     0.53865940
o     0.85474981     0.61538246     0.03866638
o     0.14524789     0.38458639     0.53866432
o     0.41780268     0.26429662     0.90796801
o     0.58219632     0.73572824     0.40796401
o     0.91780889     0.73564202     0.90797154
o     0.08219078     0.26432100     0.40796894
c     0.40359026     0.28347149     0.00624148
c     0.59640839     0.71655853     0.50623689
c     0.90359387     0.71649060     0.00624616
c     0.09640440     0.28347107     0.50624255
c     0.44411970     0.18452237     0.09426430
c     0.55587858     0.81550913     0.59426093
c     0.94412184     0.81545125     0.09426910
c     0.05587633     0.18450369     0.59426623
h     0.43226455     0.27006732     0.17545042
h     0.56773314     0.72996146     0.67544625
h     0.93226570     0.72991080     0.17545538
h     0.06773174     0.27003978     0.67545245
c     0.49141938     0.98950662     0.07989281
c     0.50857925     0.01053123     0.57989174
c     0.99142061     0.01047474     0.07989960
c     0.00857740     0.98947808     0.57989645
h     0.50458892     0.90141526     0.99960639
h     0.49540953     0.09862756     0.49960656
h     0.00459104     0.09856310     0.99961326
h     0.99540725     0.90139278     0.49961058
c     0.52937517     0.87893683     0.16945311
c     0.47062360     0.12110417     0.66945403
c     0.02937435     0.12106395     0.16946092
c     0.97062407     0.87888653     0.66945922
o     0.57530559     0.73236462     0.15186156
o     0.42469436     0.26768163     0.65186485
o     0.07530284     0.26765353     0.15187154
o     0.92469623     0.73229072     0.65187178
o     0.50920655     0.94728794     0.26819391
o     0.49079230     0.05274692     0.76819404
o     0.00920482     0.05270765     0.26820154
o     0.99079339     0.94724823     0.76819916
h     0.53743676     0.86353740     0.32615896
h     0.46256219     0.13649703     0.82616038
h     0.03743364     0.13647682     0.32616671
h     0.96256501     0.86347978     0.82616564

K_POINTS automatic
2 2 2 1 1 1

CELL_PARAMETERS cubic
   44.723744000000     0.000045000000     0.000208000000
    0.000008000000     6.912272000000    -0.000005000000
    0.000087000000    -0.000015000000    23.355877000000
