&control
 title='crystal',
 prefix='crystal',
 pseudo_dir='.',
 calculation='vc-relax',
/
&system
 ibrav=0,
 celldm(1)=1.0,
 nat=    28,
 ntyp=  4,
 ecutwfc=60.0,
 ecutrho=600.0,
 xdm=.true.,
 xdm_a1=0.4073,
 xdm_a2=2.4150,
/
&electrons
 conv_thr = 1d-8,
/
&ions
/
&cell
/
ATOMIC_SPECIES
h      1.007940 h.UPF
c     12.010700 c.UPF
n     14.006700 n.UPF
o     15.999400 o.UPF

ATOMIC_POSITIONS crystal
n     0.63010826     0.92625952     0.00922047
n     0.79602168     0.86406714     0.70003768
c     0.48577729     0.86416842     0.20570404
c     0.34286294     0.68601859     0.30013433
c     0.67594029     0.59760050     0.63932375
c     0.81348710     0.76779500     0.57275463
c     0.34241484     0.57385224     0.18570226
c     0.51931711     0.52849377     0.84111052
c     0.63674539     0.80965061     0.89937630
c     0.49428794     0.63521284     0.97552911
o     0.67902335     0.17981317     0.29554986
o     0.88542399     0.41243636     0.27549577
o     0.16039549     0.05627232     0.60647201
o     0.39274182     0.19869594     0.63559291
c     0.84547180     0.30074199     0.20189042
c     0.00906657     0.30117760     0.98887137
c     0.03825499     0.12997583     0.91374457
c     0.20475047     0.12608122     0.70434309
h     0.48279199     0.95919689     0.29363112
h     0.23828935     0.63799231     0.46388196
h     0.94148964     0.82511225     0.41692820
h     0.70203547     0.51917382     0.53032888
h     0.23047979     0.43997941     0.25200372
h     0.41605618     0.38960188     0.89810518
h     0.91229312     0.97269214     0.65679739
h     0.52306297     0.19333228     0.47654345
h     0.11385139     0.44792194     0.89889625
h     0.92560803     0.99164298     0.00184152

K_POINTS automatic
2 2 2 1 1 1

CELL_PARAMETERS cubic
   13.514891000000    -0.179391000000     1.583353000000
    3.648072000000    10.931729000000     1.011959000000
    6.573758000000     3.590204000000    13.412830000000
