&control
 title='crystal',
 prefix='crystal',
 pseudo_dir='.',
 calculation='vc-relax',
/
&system
 ibrav=0,
 celldm(1)=1.0,
 nat=    28,
 ntyp=  4,
 ecutwfc=60.0,
 ecutrho=600.0,
 xdm=.true.,
 xdm_a1=0.4073,
 xdm_a2=2.4150,
/
&electrons
 conv_thr = 1d-8,
/
&ions
/
&cell
/
ATOMIC_SPECIES
h      1.007940 h.UPF
c     12.010700 c.UPF
n     14.006700 n.UPF
o     15.999400 o.UPF

ATOMIC_POSITIONS crystal
n     0.00253830     0.02898837     0.04667738
n     0.82939541     0.27621405     0.13265673
c     0.07789130     0.91567616     0.92373836
c     0.06285994     0.92403884     0.75850979
c     0.65995822     0.40890089     0.94208415
c     0.71215380     0.39635602     0.10243940
c     0.95586704     0.05022414     0.71685230
c     0.74165412     0.29768808     0.81188682
c     0.90036560     0.15502408     0.00663151
c     0.86429822     0.16837256     0.84221011
o     0.95494011     0.34243323     0.45690668
o     0.28968797     0.51536659     0.69583923
o     0.44996357     0.91934293     0.20429440
o     0.81720111     0.85370379     0.29430296
c     0.20468415     0.47234240     0.54211300
c     0.41928218     0.59328658     0.45406462
c     0.35913604     0.70937161     0.37486373
c     0.54528171     0.83774589     0.28558295
h     0.15866154     0.81445226     0.95776677
h     0.13736877     0.83031611     0.66758923
h     0.66277182     0.48564110     0.21091648
h     0.55895153     0.50537056     0.92034473
h     0.94209579     0.06369283     0.59160577
h     0.71505195     0.30730019     0.68567594
h     0.88151802     0.28717800     0.26391089
h     0.91365947     0.93358709     0.21775373
h     0.63143281     0.59200457     0.46856908
h     0.14677879     0.71033106     0.36640274

K_POINTS automatic
2 2 2 1 1 1

CELL_PARAMETERS cubic
    9.673482000000    -0.398815000000     0.010058000000
   -5.009680000000    13.275660000000    -0.714380000000
   -1.103675000000    -4.218076000000    15.299247000000
