&control
 title='crystal',
 prefix='crystal',
 pseudo_dir='.',
 calculation='vc-relax',
/
&system
 ibrav=0,
 celldm(1)=1.0,
 nat=   112,
 ntyp=  4,
 ecutwfc=60.0,
 ecutrho=600.0,
 xdm=.true.,
 xdm_a1=0.4073,
 xdm_a2=2.4150,
/
&electrons
 conv_thr = 1d-8,
/
&ions
/
&cell
/
ATOMIC_SPECIES
h      1.007940 h.UPF
c     12.010700 c.UPF
n     14.006700 n.UPF
o     15.999400 o.UPF

ATOMIC_POSITIONS crystal
c     0.36372869     0.24646689     0.27921877
c     0.63627134     0.75353313     0.72078121
c     0.36372950     0.25353191     0.77922064
c     0.63627052     0.74646811     0.22077934
o     0.20338645     0.26894538     0.02864076
o     0.79661358     0.73105463     0.97135922
o     0.20338727     0.23105341     0.52864263
o     0.79661276     0.76894661     0.47135735
o     0.39415851     0.19194849     0.34308679
o     0.60584152     0.80805152     0.65691319
o     0.39415932     0.30805030     0.84308865
o     0.60584071     0.69194971     0.15691133
c     0.50205879     0.29598550     0.47175875
c     0.49794124     0.70401452     0.52824123
c     0.50205961     0.20401330     0.97176061
c     0.49794042     0.79598672     0.02823937
c     0.66869608     0.28546960     0.74254374
c     0.33130395     0.71453041     0.25745624
c     0.66869690     0.21452919     0.24254560
c     0.33130313     0.78547082     0.75745438
h     0.46324678     0.34200397     0.38400951
h     0.53675325     0.65799604     0.61599047
h     0.46324759     0.15799482     0.88401137
h     0.53675243     0.84200520     0.11598861
h     0.70590674     0.23932016     0.82842795
h     0.29409329     0.76067986     0.17157203
h     0.70590755     0.26067864     0.32842981
h     0.29409247     0.73932138     0.67157017
c     0.81420624     0.33357007     0.93909447
c     0.18579379     0.66642995     0.06090551
c     0.81420705     0.16642873     0.43909633
c     0.18579297     0.83357129     0.56090364
o     0.76753031     0.38947736     0.86755327
o     0.23246972     0.61052265     0.13244671
o     0.76753112     0.11052143     0.36755514
o     0.23246890     0.88947859     0.63244484
o     0.97881921     0.31608893     0.16741620
o     0.02118082     0.68391108     0.83258378
o     0.97882002     0.18390986     0.66741806
o     0.02118000     0.81609015     0.33258192
h     0.11000160     0.23531524     0.88802721
h     0.88999843     0.76468477     0.11197277
h     0.11000241     0.26468355     0.38802907
h     0.88999761     0.73531646     0.61197091
h     0.76979313     0.61857415     0.14169774
h     0.23020690     0.38142586     0.85830224
h     0.76979394     0.88142464     0.64169960
h     0.23020608     0.11857538     0.35830038
c     0.90408430     0.59758006     0.25656626
c     0.09591573     0.40241995     0.74343372
c     0.90408511     0.90241873     0.75656813
c     0.09591491     0.09758128     0.24343185
c     0.06972643     0.63222226     0.46897222
c     0.93027360     0.36777775     0.53102776
c     0.06972724     0.86777653     0.96897408
c     0.93027279     0.13222349     0.03102589
c     0.06870226     0.51526756     0.33611861
c     0.93129777     0.48473246     0.66388137
c     0.06870308     0.98473124     0.83612047
c     0.93129695     0.01526878     0.16387951
c     0.24080474     0.60647579     0.61984878
c     0.75919529     0.39352422     0.38015120
c     0.24080555     0.89352300     0.11985064
c     0.75919447     0.10647701     0.88014934
h     0.05760832     0.67837622     0.51026816
h     0.94239171     0.32162379     0.48973181
h     0.05760913     0.82162257     0.01027003
h     0.94239089     0.17837744     0.98972995
c     0.24438871     0.54594722     0.55310865
c     0.75561132     0.45405279     0.44689133
c     0.24438952     0.95405157     0.05311051
c     0.75561050     0.04594844     0.94688947
h     0.37177336     0.63161495     0.78864283
h     0.62822667     0.36838506     0.21135715
h     0.37177417     0.86838384     0.28864470
h     0.62822585     0.13161617     0.71135528
c     0.41000171     0.51486810     0.68588981
c     0.58999832     0.48513191     0.31411017
c     0.41000253     0.98513069     0.18589167
c     0.58999750     0.01486933     0.81410831
c     0.22491111     0.42713984     0.39955794
c     0.77508892     0.57286017     0.60044204
c     0.22491193     0.07285895     0.89955980
c     0.77508810     0.92714107     0.10044018
c     0.40082410     0.45552882     0.60999460
c     0.59917593     0.54447119     0.39000538
c     0.40082491     0.04446997     0.10999646
c     0.59917511     0.95553005     0.89000352
h     0.54583125     0.53770179     0.84880227
h     0.45416878     0.46229823     0.15119771
h     0.54583206     0.96229701     0.34880414
h     0.45416797     0.03770301     0.65119584
h     0.20488477     0.37993746     0.33301016
h     0.79511526     0.62006255     0.66698982
h     0.20488559     0.12006133     0.83301202
h     0.79511444     0.87993869     0.16698795
h     0.52632762     0.43055228     0.70845110
h     0.47367240     0.56944773     0.29154888
h     0.52632844     0.06944651     0.20845296
h     0.47367159     0.93055350     0.79154701
n     0.90051257     0.54036931     0.18942984
n     0.09948746     0.45963071     0.81057014
n     0.90051339     0.95962949     0.68943170
n     0.09948664     0.04037053     0.31056828
n     0.06747983     0.45639477     0.26928733
n     0.93252020     0.54360524     0.73071265
n     0.06748064     0.04360402     0.76928920
n     0.93251938     0.95639599     0.23071078
h     0.93457510     0.43113201     0.10181217
h     0.06542493     0.56886800     0.89818781
h     0.93457591     0.06886678     0.60181403
h     0.06542411     0.93113324     0.39818595

K_POINTS automatic
2 2 2 1 1 1

CELL_PARAMETERS cubic
   20.126088000000     0.000062000000    -0.224201000000
    0.000048000000    41.354575000000    -0.000014000000
   -9.766557000000    -0.000044000000     8.950338000000
