&control
 title='crystal',
 prefix='crystal',
 pseudo_dir='.',
 calculation='vc-relax',
/
&system
 ibrav=0,
 celldm(1)=1.0,
 nat=    56,
 ntyp=  4,
 ecutwfc=60.0,
 ecutrho=600.0,
 xdm=.true.,
 xdm_a1=0.4073,
 xdm_a2=2.4150,
/
&electrons
 conv_thr = 1d-8,
/
&ions
/
&cell
/
ATOMIC_SPECIES
h      1.007940 h.UPF
c     12.010700 c.UPF
n     14.006700 n.UPF
o     15.999400 o.UPF

ATOMIC_POSITIONS crystal
c     0.20003706     0.56488064     0.56714130
c     0.79996295     0.06488064     0.43285873
c     0.03888353     0.51426727     0.44482902
c     0.96111649     0.01426727     0.55517101
o     0.34174928     0.60745659     0.48461804
o     0.65825074     0.10745659     0.51538199
o     0.18707823     0.56172478     0.77277014
o     0.81292179     0.06172478     0.22722989
c     0.07707583     0.50975612     0.23988218
c     0.92292419     0.00975612     0.76011786
h     0.88886131     0.48081870     0.52587221
h     0.11113871     0.98081870     0.47412782
h     0.06572072     0.52298748     0.82520186
h     0.93427930     0.02298748     0.17479818
c     0.91118136     0.46157674     0.10649529
c     0.08881866     0.96157673     0.89350474
h     0.22714550     0.54398466     0.16241112
h     0.77285451     0.04398466     0.83758891
o     0.78311782     0.41624410     0.19186759
o     0.21688220     0.91624410     0.80813244
o     0.90199187     0.46933613     0.90923100
o     0.09800815     0.96933613     0.09076903
h     0.94999317     0.66458757     0.31601795
h     0.05000685     0.16458757     0.68398208
c     0.81222441     0.69166205     0.19500625
c     0.18777560     0.19166205     0.80499378
c     0.69049359     0.66796650     0.00637358
c     0.30950643     0.16796649     0.99362645
c     0.75793166     0.75275218     0.22905350
c     0.24206836     0.25275218     0.77094653
c     0.51716871     0.70493603     0.85329605
c     0.48283131     0.20493603     0.14670399
h     0.72406236     0.62146224     0.97079172
h     0.27593765     0.12146224     0.02920831
c     0.57975232     0.78567779     0.06286723
c     0.42024770     0.28567779     0.93713281
c     0.86877163     0.78255737     0.41587200
c     0.13122839     0.28255737     0.58412803
n     0.46080853     0.76250215     0.87768109
n     0.53919148     0.26250215     0.12231894
h     0.42226462     0.68518433     0.70442650
h     0.57773540     0.18518433     0.29557353
n     0.52077359     0.84477590     0.09164822
n     0.47922643     0.34477590     0.90835182
c     0.80028498     0.84212086     0.43678847
c     0.19971503     0.34212086     0.56321156
h     0.00929866     0.75848788     0.54383994
h     0.99070136     0.25848788     0.45616009
c     0.62197066     0.87217501     0.26956399
c     0.37802935     0.37217501     0.73043604
h     0.38731963     0.87151102     0.96664483
h     0.61268039     0.37151102     0.03335520
h     0.88521448     0.86622890     0.57819794
h     0.11478554     0.36622890     0.42180209
h     0.55239997     0.91879007     0.27324549
h     0.44760005     0.41879007     0.72675454

K_POINTS automatic
2 2 2 1 1 1

CELL_PARAMETERS cubic
    6.953501000000     0.000000000000     0.030826000000
    0.000000000000    42.745995000000     0.000000000000
   -0.837671000000     0.000000000000    12.113290000000
