&control
 title='crystal',
 prefix='crystal',
 pseudo_dir='.',
 calculation='vc-relax',
/
&system
 ibrav=0,
 celldm(1)=1.0,
 nat=   112,
 ntyp=  4,
 ecutwfc=60.0,
 ecutrho=600.0,
 xdm=.true.,
 xdm_a1=0.4073,
 xdm_a2=2.4150,
/
&electrons
 conv_thr = 1d-8,
/
&ions
/
&cell
/
ATOMIC_SPECIES
h      1.007940 h.UPF
c     12.010700 c.UPF
n     14.006700 n.UPF
o     15.999400 o.UPF

ATOMIC_POSITIONS crystal
c     0.28989266     0.38587537     0.48894969
c     0.71010734     0.61412465     0.98894966
c     0.21010669     0.88587423     0.98894792
c     0.78989332     0.11412579     0.48894789
c     0.20885541     0.48674456     0.29565689
c     0.79114459     0.51325546     0.79565686
c     0.29115035     0.98673558     0.79565450
c     0.70884965     0.01326444     0.29565447
c     0.17156209     0.40187991     0.25056769
c     0.82843791     0.59812011     0.75056766
c     0.32843924     0.90188783     0.75057547
c     0.67156076     0.09811219     0.25057544
c     0.19654950     0.30811734     0.32460569
c     0.80345050     0.69188268     0.82460566
c     0.30345509     0.80811017     0.82458114
c     0.69654492     0.19188985     0.32458111
c     0.25506691     0.30025354     0.45539971
c     0.74493309     0.69974648     0.95539968
c     0.24493361     0.80025054     0.95540527
c     0.75506639     0.19974948     0.45540524
h     0.33680089     0.38511616     0.57928101
h     0.66319911     0.61488385     0.07928098
h     0.16320379     0.88511865     0.07926841
h     0.83679621     0.11488137     0.57926838
c     0.11100918     0.41798621     0.13680556
c     0.88899083     0.58201381     0.63680553
c     0.38899590     0.91798153     0.63680619
c     0.61100411     0.08201849     0.13680616
h     0.16970139     0.24206395     0.27761995
h     0.83029861     0.75793607     0.77761992
h     0.33029926     0.74206749     0.77762148
h     0.66970075     0.25793253     0.27762145
h     0.27408926     0.22879555     0.52849200
h     0.72591074     0.77120447     0.02849197
h     0.22591326     0.72879796     0.02848323
h     0.77408675     0.27120206     0.52848320
c     0.09147159     0.51305351     0.08322909
c     0.90852841     0.48694651     0.58322906
c     0.40853293     0.01305289     0.58323469
c     0.59146708     0.98694713     0.08323466
c     0.13261701     0.59153816     0.13633257
c     0.86738299     0.40846186     0.63633254
c     0.36738507     0.09154622     0.63635037
c     0.63261493     0.90845380     0.13635034
h     0.08012269     0.35600754     0.10433209
h     0.91987731     0.64399248     0.60433206
h     0.41987858     0.85600569     0.60432944
h     0.58012143     0.14399433     0.10432941
h     0.04540792     0.53014278     0.00038952
h     0.95459208     0.46985724     0.50038949
h     0.45459470     0.03013971     0.50040414
h     0.54540530     0.96986031     0.00040411
h     0.11726413     0.66697058     0.09429798
h     0.88273587     0.33302944     0.59429795
h     0.38274033     0.16696662     0.59432565
h     0.61725967     0.83303340     0.09432562
n     0.18997139     0.57997403     0.23660029
n     0.81002862     0.42002599     0.73660026
n     0.31003088     0.07997405     0.73661497
n     0.68996912     0.92002597     0.23661494
n     0.26767197     0.47451490     0.40524155
n     0.73232803     0.52548512     0.90524152
n     0.23232991     0.97451976     0.90526236
n     0.76767009     0.02548026     0.40526233
h     0.30039462     0.53779379     0.38463120
h     0.69960538     0.46220623     0.88463117
h     0.19960647     0.03779464     0.88462818
h     0.80039353     0.96220538     0.38462815
c     0.06271171     0.15876000     0.52480194
c     0.93728829     0.84124002     0.02480191
c     0.43729136     0.65876374     0.02481359
c     0.56270865     0.34123628     0.52481356
h     0.07325327     0.23436426     0.60352034
h     0.92674673     0.76563576     0.10352031
h     0.42674659     0.73437499     0.10351916
h     0.57325342     0.26562503     0.60351913
c     0.01172445     0.13943279     0.33710759
c     0.98827555     0.86056723     0.83710756
c     0.48827327     0.63943240     0.83707246
c     0.51172674     0.36056762     0.33707243
h     0.99990048     0.06398000     0.26284971
h     0.00009952     0.93602002     0.76284968
h     0.50010391     0.56397341     0.76283959
h     0.49989610     0.43602661     0.26283956
c     0.96990151     0.21990036     0.22457646
c     0.03009849     0.78009966     0.72457643
c     0.53010184     0.71990286     0.72460790
c     0.46989816     0.28009716     0.22460787
c     0.10786083     0.08142900     0.62932203
c     0.89213917     0.91857102     0.12932200
c     0.39214316     0.58142410     0.12930862
c     0.60785684     0.41857592     0.62930859
o     0.15360215     0.11221614     0.81337682
o     0.84639786     0.88778388     0.31337679
o     0.34640205     0.61221748     0.31335932
o     0.65359795     0.38778254     0.81335929
o     0.98327011     0.30750503     0.23787769
o     0.01672989     0.69249498     0.73787766
o     0.51673585     0.80750409     0.73784666
o     0.48326415     0.19249593     0.23784663
o     0.09869973     0.99393904     0.52405613
o     0.90130028     0.00606098     0.02405610
o     0.40130102     0.49394285     0.02405817
o     0.59869898     0.50605717     0.52405814
o     0.91518905     0.19184983     0.10222143
o     0.08481095     0.80815019     0.60222140
o     0.58481106     0.69185273     0.60220494
o     0.41518894     0.30814729     0.10220491
h     0.91057354     0.11740832     0.09565024
h     0.08942647     0.88259170     0.59565021
h     0.58942772     0.61740856     0.59564510
h     0.41057228     0.38259146     0.09564507

K_POINTS automatic
2 2 2 1 1 1

CELL_PARAMETERS cubic
   41.763775000000    -0.000167000000     0.000000000000
   -0.000139000000    25.629130000000     0.000000000000
    0.000000000000     0.000000000000     6.786768000000
