&control
 title='crystal',
 prefix='crystal',
 pseudo_dir='.',
 calculation='vc-relax',
/
&system
 ibrav=0,
 celldm(1)=1.0,
 nat=    56,
 ntyp=  4,
 ecutwfc=60.0,
 ecutrho=600.0,
 xdm=.true.,
 xdm_a1=0.4073,
 xdm_a2=2.4150,
/
&electrons
 conv_thr = 1d-8,
/
&ions
/
&cell
/
ATOMIC_SPECIES
h      1.007940 h.UPF
c     12.010700 c.UPF
n     14.006700 n.UPF
o     15.999400 o.UPF

ATOMIC_POSITIONS crystal
n     0.03726443     0.58432830     0.39431387
n     0.96273564     0.41567169     0.60568611
n     0.84491724     0.54213120     0.22929238
n     0.15508283     0.45786879     0.77070760
c     0.93094290     0.83021400     0.40418022
c     0.06905717     0.16978600     0.59581976
c     0.84369686     0.74520122     0.31488317
c     0.15630321     0.25479877     0.68511681
c     0.90942731     0.62434610     0.31532709
c     0.09057276     0.37565389     0.68467289
c     0.11418807     0.66708805     0.47648782
c     0.88581200     0.33291195     0.52351216
c     0.07095846     0.79139499     0.48463760
c     0.92904161     0.20860500     0.51536238
c     0.72043497     0.57023696     0.14579933
c     0.27956510     0.42976303     0.85420065
c     0.63888777     0.68615949     0.14230448
c     0.36111230     0.31384050     0.85769551
c     0.70199795     0.77363811     0.22673169
c     0.29800212     0.22636188     0.77326829
o     0.05043847     0.32800032     0.20832362
o     0.94956160     0.67199967     0.79167636
o     0.32844058     0.21032174     0.31711941
o     0.67155950     0.78967825     0.68288057
o     0.91485395     0.31946910     0.04786855
o     0.08514612     0.68053089     0.95213143
o     0.49388632     0.02965146     0.29928857
o     0.50611376     0.97034853     0.70071141
c     0.24601267     0.08206461     0.15644165
c     0.75398740     0.91793538     0.84355833
c     0.02007791     0.27453315     0.11835629
c     0.97992216     0.72546684     0.88164369
c     0.11143794     0.15001711     0.09723822
c     0.88856213     0.84998289     0.90276176
c     0.36263104     0.10715666     0.26349687
c     0.63736903     0.89284333     0.73650311
h     0.21584613     0.63489768     0.54076572
h     0.78415394     0.36510232     0.45923426
h     0.14935041     0.85316181     0.55473629
h     0.85064966     0.14683819     0.44526369
h     0.88625764     0.92378994     0.40626896
h     0.11374243     0.07621005     0.59373102
h     0.64295365     0.86536284     0.22816198
h     0.35704642     0.13463715     0.77183800
h     0.52734454     0.70433898     0.07342714
h     0.47265554     0.29566101     0.92657284
h     0.69424443     0.49743001     0.08274430
h     0.30575564     0.50256998     0.91725568
h     0.91632846     0.45401650     0.22736598
h     0.08367161     0.54598349     0.77263400
h     0.20875614     0.26372494     0.27389789
h     0.79124394     0.73627505     0.72610209
h     0.29152958     0.99292467     0.12289566
h     0.70847049     0.00707532     0.87710432
h     0.05943095     0.11145080     0.01982191
h     0.94056913     0.88854919     0.98017807

K_POINTS automatic
2 2 2 1 1 1

CELL_PARAMETERS cubic
    7.086636000000    -0.338976000000     0.124407000000
   -4.320489000000    20.469904000000     0.117504000000
   -2.617055000000    -4.490148000000    25.899052000000
