&control
 title='crystal',
 prefix='crystal',
 pseudo_dir='.',
 calculation='vc-relax',
/
&system
 ibrav=0,
 celldm(1)=1.0,
 nat=    56,
 ntyp=  4,
 ecutwfc=60.0,
 ecutrho=600.0,
 xdm=.true.,
 xdm_a1=0.4073,
 xdm_a2=2.4150,
/
&electrons
 conv_thr = 1d-8,
/
&ions
/
&cell
/
ATOMIC_SPECIES
h      1.007940 h.UPF
c     12.010700 c.UPF
n     14.006700 n.UPF
o     15.999400 o.UPF

ATOMIC_POSITIONS crystal
n     0.86943272     0.22383950     0.86174020
n     0.77615573     0.13056167     0.36174336
n     0.57932767     0.36949370     0.74185099
n     0.63049847     0.42068370     0.24185610
c     0.12454456     0.13183857     0.71615109
c     0.86816532     0.87545261     0.21614735
c     0.91187145     0.22744183     0.68803685
c     0.77256016     0.08812519     0.18803258
c     0.79055916     0.27145644     0.76526563
c     0.72854686     0.20943351     0.26526203
c     0.07170626     0.13169167     0.88459279
c     0.86831032     0.92829939     0.38458275
c     0.20373979     0.08451793     0.81450779
c     0.91547501     0.79626819     0.31450555
c     0.48911741     0.41851376     0.64902735
c     0.58148841     0.51087518     0.14902040
c     0.60050606     0.37942437     0.57052376
c     0.62056869     0.39949317     0.07053046
c     0.81158869     0.28378032     0.58961680
c     0.71622325     0.18842151     0.08962008
o     0.25550015     0.04005296     0.24029130
o     0.95994648     0.74450031     0.74029822
o     0.53278123     0.66884763     0.37405720
o     0.33115007     0.46722065     0.87405545
o     0.43191341     0.18441536     0.51780632
o     0.81559164     0.56807830     0.01780520
o     0.72240561     0.78508632     0.64290889
o     0.21493465     0.27757422     0.14290872
c     0.52877956     0.88149508     0.49018797
c     0.11852954     0.47119857     0.99019944
c     0.55176641     0.97068788     0.55022088
c     0.02931349     0.44824142     0.05022351
c     0.39969118     0.00359907     0.39275694
c     0.99637513     0.60033018     0.89274647
c     0.39503769     0.89737668     0.33189023
c     0.10262577     0.60496371     0.83188768
h     0.13213646     0.09709103     0.96247274
h     0.90290367     0.86786531     0.46247188
h     0.36611294     0.01038162     0.84047835
h     0.98962122     0.63388126     0.34047245
h     0.22211969     0.09757499     0.66041802
h     0.90243180     0.77787456     0.16041297
h     0.89447598     0.25778864     0.52828649
h     0.74221618     0.10551702     0.02828146
h     0.52593375     0.41964467     0.49507686
h     0.58035663     0.47406736     0.99507325
h     0.32423420     0.49138808     0.63983135
h     0.50860421     0.67577471     0.13983337
h     0.47748540     0.41075680     0.80112797
h     0.58923038     0.52252400     0.30112761
h     0.29616171     0.18545531     0.35343774
h     0.81453424     0.70385249     0.85344145
h     0.63596903     0.69605470     0.52844979
h     0.30395283     0.36401786     0.02844902
h     0.78996947     0.80002486     0.68296925
h     0.19998163     0.21002477     0.18296929

K_POINTS automatic
2 2 2 1 1 1

CELL_PARAMETERS cubic
   20.803942000000     0.017706000000    -0.173308000000
   19.654877000000     6.818279000000     0.173332000000
   -0.551709000000     3.264242000000    25.721121000000
