&control
 title='crystal',
 prefix='crystal',
 pseudo_dir='.',
 calculation='vc-relax',
/
&system
 ibrav=0,
 celldm(1)=1.0,
 nat=   112,
 ntyp=  4,
 ecutwfc=60.0,
 ecutrho=600.0,
 xdm=.true.,
 xdm_a1=0.4073,
 xdm_a2=2.4150,
/
&electrons
 conv_thr = 1d-8,
/
&ions
/
&cell
/
ATOMIC_SPECIES
h      1.007940 h.UPF
c     12.010700 c.UPF
n     14.006700 n.UPF
o     15.999400 o.UPF

ATOMIC_POSITIONS crystal
n     0.27704862     0.62610436     0.93881426
n     0.77704862     0.37389559     0.93881426
n     0.22295138     0.62610436     0.43881425
n     0.72295139     0.37389559     0.43881425
h     0.31037850     0.53222899     0.88107185
h     0.81037850     0.46777095     0.88107185
h     0.18962150     0.53222899     0.38107184
h     0.68962151     0.46777095     0.38107184
c     0.19409653     0.87346088     0.08140711
c     0.69409653     0.12653907     0.08140711
c     0.30590348     0.87346088     0.58140710
c     0.80590348     0.12653907     0.58140710
h     0.16188931     0.97040095     0.13836831
h     0.66188931     0.02959900     0.13836831
h     0.33811069     0.97040095     0.63836830
h     0.83811070     0.02959900     0.63836830
c     0.17527435     0.72307483     0.98509810
c     0.67527435     0.27692511     0.98509810
c     0.32472565     0.72307483     0.48509810
c     0.82472566     0.27692511     0.48509810
n     0.20638709     0.44743458     0.81900554
n     0.70638709     0.55256536     0.81900554
n     0.29361291     0.44743458     0.31900554
n     0.79361292     0.55256536     0.31900554
c     0.29449485     0.76613372     0.03010546
c     0.79449485     0.23386622     0.03010546
c     0.20550516     0.76613372     0.53010546
c     0.70550516     0.23386622     0.53010546
h     0.34189308     0.77726361     0.04214175
h     0.84189309     0.22273633     0.04214175
h     0.15810692     0.77726361     0.54214175
h     0.65810692     0.22273633     0.54214175
c     0.21874651     0.59702805     0.91304482
c     0.71874651     0.40297189     0.91304482
c     0.28125349     0.59702805     0.41304481
c     0.78125350     0.40297189     0.41304481
c     0.14984879     0.42204119     0.79355396
c     0.64984879     0.57795875     0.79355396
c     0.35015121     0.42204119     0.29355396
c     0.85015121     0.57795875     0.29355396
h     0.13923822     0.30303133     0.71766905
h     0.63923822     0.69696861     0.71766905
h     0.36076179     0.30303133     0.21766904
h     0.86076179     0.69696861     0.21766904
c     0.11557551     0.68958777     0.95413481
c     0.61557551     0.31041217     0.95413481
c     0.38442449     0.68958777     0.45413481
c     0.88442450     0.31041217     0.45413481
h     0.08053934     0.78988645     0.00471327
h     0.58053934     0.21011349     0.00471327
h     0.41946066     0.78988645     0.50471326
h     0.91946067     0.21011349     0.50471326
c     0.25352918     0.89468354     0.10364177
c     0.75352918     0.10531640     0.10364177
c     0.24647083     0.89468354     0.60364176
c     0.74647083     0.10531640     0.60364176
h     0.26831908     0.01189466     0.17724828
h     0.76831909     0.98810529     0.17724828
h     0.23168092     0.01189466     0.67724827
h     0.73168092     0.98810529     0.67724827
c     0.10296416     0.53699450     0.85849193
c     0.60296416     0.46300544     0.85849193
c     0.39703584     0.53699450     0.35849192
c     0.89703585     0.46300544     0.35849192
h     0.05809571     0.50549199     0.83066032
h     0.55809571     0.49450795     0.83066032
h     0.44190430     0.50549199     0.33066031
h     0.94190430     0.49450795     0.33066031
o     0.94120589     0.99621638     0.17504227
o     0.44120589     0.00378356     0.17504227
o     0.55879411     0.99621638     0.67504226
o     0.05879412     0.00378356     0.67504226
o     0.09860988     0.19678371     0.44551395
o     0.59860988     0.80321623     0.44551395
o     0.40139012     0.19678371     0.94551394
o     0.90139012     0.80321623     0.94551394
o     0.14308918     0.42071851     0.30213984
o     0.64308918     0.57928143     0.30213984
o     0.35691083     0.42071851     0.80213983
o     0.85691083     0.57928143     0.80213983
o     0.99077531     0.10626118     0.02485481
o     0.49077531     0.89373876     0.02485481
o     0.50922469     0.10626118     0.52485480
o     0.00922469     0.89373876     0.52485480
h     0.95269146     0.98359538     0.99119147
h     0.45269146     0.01640456     0.99119147
h     0.54730854     0.98359538     0.49119146
h     0.04730855     0.01640456     0.49119146
c     0.10043566     0.26123547     0.34743703
c     0.60043566     0.73876447     0.34743703
c     0.39956435     0.26123547     0.84743702
c     0.89956435     0.73876447     0.84743702
c     0.04825274     0.14568099     0.28431379
c     0.54825274     0.85431895     0.28431379
c     0.45174727     0.14568099     0.78431378
c     0.95174727     0.85431895     0.78431378
h     0.01506575     0.98268317     0.32458894
h     0.51506576     0.01731677     0.32458894
h     0.48493425     0.98268317     0.82458893
h     0.98493425     0.01731677     0.82458893
c     0.98536649     0.10365441     0.12842250
c     0.48536649     0.89634553     0.12842250
c     0.51463351     0.10365441     0.62842249
c     0.01463352     0.89634553     0.62842249
c     0.03913274     0.23355122     0.18385885
c     0.53913275     0.76644872     0.18385885
c     0.46086726     0.23355122     0.68385885
c     0.96086726     0.76644872     0.68385885
h     0.07154450     0.39229793     0.14049621
h     0.57154451     0.60770201     0.14049621
h     0.42845550     0.39229793     0.64049620
h     0.92845550     0.60770201     0.64049620

K_POINTS automatic
2 2 2 1 1 1

CELL_PARAMETERS cubic
   42.864280000000     0.000000000000     0.000000000000
    0.000000000000     6.916106000000     0.000000000000
    0.000000000000     0.000000000000    24.116436000000
