&control
 title='crystal',
 prefix='crystal',
 pseudo_dir='.',
 calculation='vc-relax',
/
&system
 ibrav=0,
 celldm(1)=1.0,
 nat=    56,
 ntyp=  4,
 ecutwfc=60.0,
 ecutrho=600.0,
 xdm=.true.,
 xdm_a1=0.4073,
 xdm_a2=2.4150,
/
&electrons
 conv_thr = 1d-8,
/
&ions
/
&cell
/
ATOMIC_SPECIES
h      1.007940 h.UPF
c     12.010700 c.UPF
n     14.006700 n.UPF
o     15.999400 o.UPF

ATOMIC_POSITIONS crystal
o     0.54762206     0.12917413     0.81808710
o     0.87083820     0.45236860     0.31808557
o     0.40921082     0.40120573     0.93233684
o     0.59879745     0.59079038     0.43233460
o     0.23565094     0.09948844     0.08615869
o     0.90051091     0.76434878     0.58616063
o     0.03936234     0.44075770     0.17209156
o     0.55923954     0.96064145     0.67209186
h     0.96235681     0.45662764     0.23168122
h     0.54336543     0.03765299     0.73168169
c     0.40874302     0.29836962     0.90429117
c     0.70162665     0.59126024     0.40429326
c     0.24750908     0.37434251     0.98770916
c     0.62566397     0.75248793     0.48770964
c     0.32529532     0.19146760     0.99985228
c     0.80852789     0.67470907     0.49985388
c     0.19641571     0.23900425     0.08969958
c     0.76099341     0.80359012     0.58970117
h     0.07879259     0.57391638     0.04658254
h     0.42608289     0.92120976     0.54658194
h     0.49526303     0.99029494     0.94143502
h     0.00970343     0.50474088     0.44143638
c     0.96075829     0.29525261     0.73094386
c     0.70474240     0.03924279     0.23094741
c     0.94775920     0.18980479     0.71745725
c     0.81019943     0.05223701     0.21745733
c     0.78387947     0.28225182     0.80290709
c     0.71774396     0.21612391     0.30290865
c     0.66462276     0.55143897     0.90386141
c     0.44855835     0.33537561     0.40386379
c     0.81927907     0.47570748     0.82401175
c     0.52430202     0.18071370     0.32400898
c     0.89075007     0.01271775     0.70617569
c     0.98728184     0.10924864     0.20617665
c     0.05865692     0.91177454     0.62103061
c     0.08822779     0.94133906     0.12103039
c     0.08692607     0.00023342     0.62612714
c     0.99976391     0.91307368     0.12612813
h     0.08244781     0.23255885     0.66858187
h     0.76744199     0.91754946     0.16858189
h     0.55027139     0.69671891     0.97752972
h     0.30328537     0.44972442     0.47752956
h     0.82458038     0.56090650     0.83625099
h     0.43909516     0.17541578     0.33625181
h     0.85407036     0.95672932     0.70608164
h     0.04327132     0.14592788     0.20608176
h     0.16675214     0.76375366     0.55185954
h     0.23624581     0.83324569     0.05185991
h     0.21908698     0.92066688     0.56030130
h     0.07933205     0.78091231     0.06030164
n     0.64309355     0.46114934     0.89422876
n     0.53885531     0.35690449     0.39422790
n     0.76203134     0.18896078     0.79286183
n     0.81104253     0.23796415     0.29286095
h     0.62004366     0.27450319     0.85522158
h     0.72549800     0.37995550     0.35522175

K_POINTS automatic
2 2 2 1 1 1

CELL_PARAMETERS cubic
   22.519548000000     0.330365000000     0.021931000000
   21.234292000000     7.506274000000    -0.021957000000
   -0.277984000000     1.552024000000    22.182868000000
