&control
 title='crystal',
 prefix='crystal',
 pseudo_dir='.',
 calculation='vc-relax',
/
&system
 ibrav=0,
 celldm(1)=1.0,
 nat=    56,
 ntyp=  4,
 ecutwfc=60.0,
 ecutrho=600.0,
 xdm=.true.,
 xdm_a1=0.4073,
 xdm_a2=2.4150,
/
&electrons
 conv_thr = 1d-8,
/
&ions
/
&cell
/
ATOMIC_SPECIES
h      1.007940 h.UPF
c     12.010700 c.UPF
n     14.006700 n.UPF
o     15.999400 o.UPF

ATOMIC_POSITIONS crystal
c     0.54996313     0.43178183     0.06974131
c     0.56821782     0.45004031     0.56975002
c     0.40462001     0.43586713     0.17177965
c     0.56413064     0.59538430     0.67178827
c     0.21836459     0.35236552     0.16322128
c     0.64763111     0.78163881     0.66322940
c     0.99341174     0.16591047     0.03501363
c     0.83408532     0.00658857     0.53502124
c     0.97191565     0.08450512     0.92239445
c     0.91549059     0.02808399     0.42240226
c     0.13078268     0.10597239     0.82776370
c     0.89402440     0.86921645     0.32777178
c     0.32844618     0.26794545     0.95051021
c     0.73205356     0.67155408     0.45051822
c     0.17704750     0.26305369     0.05230556
c     0.73694396     0.82295326     0.55231345
h     0.63081687     0.35143329     0.88761587
h     0.64856620     0.36918558     0.38762429
h     0.70079331     0.49301877     0.06863088
h     0.50698091     0.29921107     0.56863973
h     0.43972479     0.50427637     0.25603226
h     0.49572024     0.56028031     0.75604081
h     0.10263237     0.35651742     0.24172236
h     0.64347880     0.89737215     0.74172999
h     0.87447202     0.15844322     0.11127526
h     0.84155136     0.12552906     0.61128250
h     0.83453763     0.00599688     0.90458604
h     0.99399795     0.16546131     0.40459279
h     0.11437381     0.04636400     0.73783920
h     0.95363170     0.88562346     0.23784725
n     0.51084717     0.35166629     0.96443399
n     0.64833329     0.48915414     0.46444247
n     0.30554557     0.19488389     0.83978542
n     0.80511427     0.69445377     0.33979356
c     0.93733344     0.50233484     0.82145604
c     0.49766463     0.06266954     0.32146157
c     0.07535363     0.59924941     0.73216465
c     0.40074835     0.92464910     0.23217050
c     0.17573728     0.65255825     0.52538204
c     0.34743836     0.82426836     0.02538648
c     0.06266192     0.55354606     0.61919293
c     0.44644965     0.93734159     0.11919882
h     0.32712151     0.89861035     0.49548607
h     0.10138853     0.67288324     0.99548754
h     0.18024405     0.71462056     0.76457942
h     0.28537718     0.81975977     0.26458585
h     0.95885630     0.43380244     0.59059781
h     0.56619317     0.04114742     0.09060470
o     0.18095365     0.57657799     0.42124375
o     0.42341772     0.81905801     0.92124911
o     0.94863007     0.56381737     0.92817787
o     0.43618312     0.05137282     0.42818335
o     0.80960489     0.36992880     0.78690722
o     0.63006982     0.19039786     0.28691300
o     0.26257024     0.82723744     0.56314580
o     0.17275872     0.73743290     0.06314840

K_POINTS automatic
2 2 2 1 1 1

CELL_PARAMETERS cubic
   13.238150000000    -0.169773000000    -0.230362000000
   -1.468839000000    13.157572000000     0.230349000000
    5.556535000000    -5.035317000000    21.385018000000
