&control
 title='crystal',
 prefix='crystal',
 pseudo_dir='.',
 calculation='vc-relax',
/
&system
 ibrav=0,
 celldm(1)=1.0,
 nat=   112,
 ntyp=  4,
 ecutwfc=60.0,
 ecutrho=600.0,
 xdm=.true.,
 xdm_a1=0.4073,
 xdm_a2=2.4150,
/
&electrons
 conv_thr = 1d-8,
/
&ions
/
&cell
/
ATOMIC_SPECIES
h      1.007940 h.UPF
c     12.010700 c.UPF
n     14.006700 n.UPF
o     15.999400 o.UPF

ATOMIC_POSITIONS crystal
c     0.96124113     0.60041740     0.16205734
c     0.03875886     0.10041740     0.33794259
c     0.53874994     0.39957674     0.66206202
c     0.46125005     0.89957674     0.83793791
c     0.04820337     0.49682383     0.25467860
c     0.95179663     0.99682383     0.24532132
c     0.45179437     0.50317333     0.75467794
c     0.54820562     0.00317333     0.74532199
c     0.08278669     0.57568488     0.40572553
c     0.91721330     0.07568488     0.09427440
c     0.41721021     0.42432380     0.90572854
c     0.58278978     0.92432380     0.59427139
c     0.05358898     0.66767482     0.43150267
c     0.94641101     0.16767482     0.06849726
c     0.44640969     0.33231607     0.93150122
c     0.55359030     0.83231607     0.56849871
c     0.99283426     0.68002493     0.31125946
c     0.00716573     0.18002493     0.18874047
c     0.50716637     0.31998581     0.81125808
c     0.49283363     0.81998581     0.68874185
h     0.91371924     0.60381363     0.05573064
h     0.08628076     0.10381363     0.44426929
h     0.58628168     0.39618519     0.55572671
h     0.41371831     0.89618519     0.94427321
c     0.14501621     0.55607013     0.51929362
c     0.85498379     0.05607013     0.98070631
c     0.35498364     0.44393423     0.01929482
c     0.64501635     0.94393423     0.48070511
h     0.07839970     0.72977283     0.54663474
h     0.92160029     0.22977283     0.95336519
h     0.42159989     0.27023006     0.04663109
h     0.57840010     0.77023006     0.45336884
h     0.97009603     0.75086768     0.32716250
h     0.02990396     0.25086768     0.17283743
h     0.52990306     0.24912712     0.82716225
h     0.47009694     0.74912712     0.67283768
c     0.16801331     0.46332164     0.47975369
c     0.83198668     0.96332164     0.02024624
c     0.33198675     0.53667512     0.97974159
c     0.66801324     0.03667512     0.52025834
c     0.12907237     0.39066520     0.32894260
c     0.87092762     0.89066520     0.17105733
c     0.37092799     0.60933828     0.82895227
c     0.62907201     0.10933828     0.67104766
h     0.17383532     0.61456182     0.62747246
h     0.82616467     0.11456182     0.87252747
h     0.32616272     0.38543830     0.12747086
h     0.67383727     0.88543830     0.37252907
h     0.21504606     0.44330379     0.56513469
h     0.78495393     0.94330379     0.93486524
h     0.28495257     0.55669792     0.06513313
h     0.71504742     0.05669792     0.43486680
h     0.14727816     0.31721941     0.29490595
h     0.85272183     0.81721941     0.20509398
h     0.35272200     0.68277989     0.79490549
h     0.64727799     0.18277989     0.70509444
n     0.07076185     0.40583379     0.21693664
n     0.92923815     0.90583379     0.28306329
n     0.42923736     0.59416755     0.71693514
n     0.57076264     0.09416755     0.78306479
n     0.98834795     0.51335371     0.13617842
n     0.01165204     0.01335371     0.36382150
n     0.51165387     0.48664495     0.63618716
n     0.48834612     0.98664495     0.86381277
h     0.96146455     0.45427345     0.00288051
h     0.03853544     0.95427345     0.49711942
h     0.53853395     0.54572598     0.50288152
h     0.46146604     0.04572598     0.99711841
c     0.32971481     0.15348256     0.51134237
c     0.67028519     0.65348256     0.98865756
c     0.17029613     0.84652851     0.01136707
c     0.82970386     0.34652851     0.48863286
h     0.34735604     0.22744852     0.53771037
h     0.65264395     0.72744852     0.96228956
h     0.15264306     0.77254687     0.03771802
h     0.84735693     0.27254687     0.46228191
c     0.27320203     0.13129378     0.64466769
c     0.72679796     0.63129378     0.85533224
c     0.22678781     0.86869656     0.14465769
c     0.77321219     0.36869656     0.35534224
h     0.25432304     0.05795010     0.62161100
h     0.74567696     0.55795010     0.87838892
h     0.24567878     0.94205317     0.12160824
h     0.75432121     0.44205317     0.37839169
c     0.23461013     0.20575922     0.83174951
c     0.76538986     0.70575922     0.66825042
c     0.26539145     0.79423941     0.33175530
c     0.73460855     0.29423941     0.16824463
c     0.37114283     0.08288585     0.31988265
c     0.62885716     0.58288585     0.18011728
c     0.12886150     0.91710463     0.81990297
c     0.87113849     0.41710463     0.68009696
o     0.42237039     0.11804721     0.19873326
o     0.57762960     0.61804721     0.30126667
o     0.07762596     0.88195301     0.69872454
o     0.92237403     0.38195301     0.80127538
o     0.25002567     0.29122538     0.86193443
o     0.74997433     0.79122538     0.63806550
o     0.24997624     0.70877712     0.36194772
o     0.75002375     0.20877712     0.13805221
o     0.35426675     0.99542805     0.27929365
o     0.64573325     0.49542805     0.22070627
o     0.14573612     0.00457716     0.77929160
o     0.85426387     0.50457716     0.72070833
o     0.18064402     0.17409333     0.97571192
o     0.81935597     0.67409333     0.52428801
o     0.31935590     0.82590545     0.47571864
o     0.68064409     0.32590545     0.02428128
h     0.17216190     0.10322727     0.91773267
h     0.82783809     0.60322727     0.58226726
h     0.32783849     0.89677363     0.41773440
h     0.67216150     0.39677363     0.08226552

K_POINTS automatic
2 2 2 1 1 1

CELL_PARAMETERS cubic
   40.276050000000     0.000000000000    -0.000012000000
    0.000000000000    25.980093000000     0.000000000000
   -0.000003000000     0.000000000000     7.011819000000
