%nprocs=4
%mem=4GB
#p pbepbe aug-cc-pvtz output=wfx scf=(conver=6) int=(grid=ultrafine)

title

0 1
c 2.350207822924293 0.614957722896265 0.259905942123520
c 1.476061888625587 -0.602825185405857 -0.027398036242352
c 0.119891991093093 -0.249600212017401 -0.653945989088834
c -0.927386930206433 0.320759745038463 0.334424936463174
c -1.840221861142104 -0.890405163553350 0.624453914452212
o -1.301218901784904 -1.728004100486602 1.646319837453054
c -1.776294866167690 -1.652277106236128 -0.690850986477798
o 3.596670728849795 0.237836751450650 0.825705899267206
o -1.745245868654805 1.327258669353810 -0.247287020031489
o 2.233850831732011 -1.411058124253841 -0.930312968362441
o -0.440044966747577 -1.472401119930673 -1.178195949842249
c -1.138428914047238 2.608863572759440 -0.327927013493029
h 2.500606811462384 1.175811680808979 -0.676163987384644
h 1.869950859120681 1.277206672742233 0.986900887101157
h 1.302975901556902 -1.158476143355297 0.905812893273179
h 0.268223979587090 0.441768735717346 -1.494222925713117
h -0.465387964955931 0.699716716388838 1.258816866384010
h -2.854794785035740 -0.555998188911463 0.869240895988860
h -1.401438894356420 -1.292529133146559 2.502939772918571
h -1.954363852537771 -2.722128025804453 -0.560219996249046
h -2.497662811647912 -1.236682137561625 -1.406703932287624
h 3.956149701584680 -0.467888195562455 0.267585941223622
h 1.652721875589001 -2.127122070479580 -1.228418945835363
h -0.850705935813491 2.973435544862072 0.669512910842326
h -0.250405981095847 2.607026572709756 -0.975102964927051
h -1.883709857931623 3.282752521977387 -0.754869981555811

C11.wfx

