%nprocs=4
%mem=4GB
#p pbepbe aug-cc-pvtz output=wfx scf=(conver=6) int=(grid=ultrafine)

title

0 1
c -0.112885064421612 -1.418638439968714 -0.780362494885162
o 0.409592405629731 -0.236548697372568 -1.363648379447093
c 0.619799974910374 0.889905747510116 -0.502538211321756
c -0.610116039137069 1.207577777627683 0.367780825589995
c -1.439005865414764 -1.162434554879457 -0.046267287194054
c -1.247603184515347 -0.050889083582790 1.009515716109915
o -0.486797479931802 -0.499194754577745 2.124549805087882
o -1.660437773836873 1.793833864010038 -0.422680365587486
c 1.931150680642484 0.774794095501670 0.328828320928593
o 2.882254141997202 -0.116345428736422 -0.256160343175835
h 0.129113664940128 -1.185826864077456 1.802964125330139
h -1.335902860376419 2.594302285161697 -0.864241075088716
h 2.976337580282785 0.089208743500613 -1.200714512130653
o 0.793330180315987 -1.988475949891727 0.160863526730974
o -2.470747537962183 -0.863512581917471 -0.970219077675887
h -2.231802709321595 0.245770663691777 1.385862832564296
h -0.318410546787105 1.895037767407385 1.174213852831314
h 0.751511776778683 1.711942107153350 -1.219023496378633
h 2.363465057727642 1.780058710273740 0.437353612202856
h 1.703487719056064 -1.750095209867712 -0.111972385324014
h -2.393889473995943 0.076702877391902 -1.216358797556740
h -0.265720768481528 -2.088282331736061 -1.632305128255849
h -1.732895772177041 -2.085260925670579 0.464247801321357
h 1.746171894078202 0.386370183048733 1.330311135324602

G3.wfx

