## FHIaims input file generated by critic2.
lattice_vector 6.6569609106       -0.0054159858      -0.0020629616     
lattice_vector -0.0055656138      6.5590878313       -0.0421701683     
lattice_vector 0.0008280531       -0.0444073374      7.4520268811      
atom_frac  0.2416930182       0.3475829441       0.1816994472       H 
atom_frac  0.7558983585       0.6580078850       0.6794428129       H 
atom_frac  0.1436106184       0.7458705358       0.4249704596       H 
atom_frac  0.2535285007       0.8437361046       0.0893958891       H 
atom_frac  0.7393772822       0.1510649926       0.5854181505       H 
atom_frac  0.6420017031       0.7549388056       0.3434532871       H 
atom_frac  0.3667790896       0.9102800733       0.9126996754       H 
atom_frac  0.6296347811       0.0782905648       0.4072150351       H 
atom_frac  0.4216981125       0.1327859734       0.6598437426       H 
atom_frac  0.5737617080       0.8559735723       0.1612553744       H 
atom_frac  0.9905751981       0.6558058394       0.6727600732       H 
atom_frac  0.1429253192       0.5081728172       0.4263324318       H 
atom_frac  0.8596526768       0.5002974159       0.9222471742       H 
atom_frac  0.1918715905       0.1188624003       0.7340854932       H 
atom_frac  0.8884349114       0.1836982536       0.8466517241       H 
atom_frac  0.3885670394       0.3142681837       0.9208228838       H 
atom_frac  0.4007642071       0.5462563943       0.9965216220       H 
atom_frac  0.5967780887       0.4400246432       0.4941061920       H 
atom_frac  0.0969871048       0.0614940012       0.2687255585       H 
atom_frac  0.4311445438       0.6094307533       0.5256244030       H 
atom_frac  0.0068688429       0.3545818123       0.1762683075       H 
atom_frac  0.6891631049       0.3841811193       0.0258548745       H 
atom_frac  0.9318534682       0.8904815941       0.2380657197       H 
atom_frac  0.9012302223       0.9530627753       0.7669944944       H 
atom_frac  0.1209838137       0.3233422500       0.2585727944       O 
atom_frac  0.8760231974       0.6863790517       0.7557836286       O 
atom_frac  0.1704128116       0.6288254658       0.5061328880       O 
atom_frac  0.8365746984       0.3807900429       0.0015192222       O 
atom_frac  0.3724166040       0.8113686399       0.0126651199       O 
atom_frac  0.6191107553       0.1778342990       0.5089557214       O 
atom_frac  0.3362356084       0.1207882811       0.7689679713       O 
atom_frac  0.6720569330       0.8704442469       0.2614726646       O 
atom_frac  0.4276298588       0.4011973419       0.0262703192       O 
atom_frac  0.5792272982       0.5896907552       0.5135415866       O 
atom_frac  0.0792941647       0.9108362281       0.2538264329       O 
atom_frac  0.9272347661       0.0993539431       0.7398368250       O 
