&control
 title='crystal',
 prefix='crystal',
 pseudo_dir='.',
 calculation='vc-relax',
/
&system
 ibrav=0,
 celldm(1)=1.0,
 nat=   108,
 ntyp=  3,
 ecutwfc=60.0,
 ecutrho=600.0,
 xdm=.true.,
 xdm_a1=0.4073,
 xdm_a2=2.4150,
/
&electrons
 conv_thr = 1d-8,
/
&ions
/
&cell
/
ATOMIC_SPECIES
h      1.007940 h.UPF
c     12.010700 c.UPF
o     15.999400 o.UPF

ATOMIC_POSITIONS crystal
c     0.46549342     0.70697483     0.80829578
c     0.96549344     0.79302514     0.19170423
c     0.03446356     0.29299116     0.30833102
c     0.53446358     0.20700881     0.69166899
h     0.36758749     0.74933383     0.84324850
h     0.86758751     0.75066614     0.15675151
h     0.13240811     0.25056436     0.34327680
h     0.63240814     0.24943561     0.65672321
h     0.60123290     0.82164983     0.79621256
h     0.10123292     0.67835014     0.20378745
h     0.89870810     0.17833707     0.29624466
h     0.39870812     0.32166290     0.70375535
c     0.63766931     0.53263539     0.81791248
c     0.13766933     0.96736458     0.18208753
c     0.86231003     0.46731548     0.31796962
c     0.36231005     0.03268449     0.68203039
h     0.77139563     0.56139319     0.84993083
h     0.27139566     0.93860678     0.15006918
h     0.72864592     0.43851255     0.34999550
h     0.22864594     0.06148742     0.65000450
c     0.46204256     0.36151163     0.82980681
c     0.96204258     0.13848834     0.17019320
c     0.03795268     0.63841907     0.32986599
c     0.53795271     0.86158090     0.67013402
h     0.34021729     0.32031179     0.79726172
h     0.84021731     0.17968818     0.20273828
h     0.15976594     0.67964880     0.29732105
h     0.65976596     0.82035117     0.70267895
h     0.59565923     0.24414116     0.84050271
h     0.09565925     0.25585881     0.15949730
h     0.90434166     0.75577904     0.34056713
h     0.40434169     0.74422093     0.65943287
c     0.11294477     0.27425818     0.88770702
c     0.61294479     0.22574179     0.11229298
c     0.38707571     0.72567476     0.38775240
c     0.88707573     0.77432521     0.61224761
c     0.94160002     0.32488163     0.92721281
c     0.44160004     0.17511834     0.07278719
c     0.55838447     0.67514374     0.42727299
c     0.05838449     0.82485623     0.57272702
h     0.95113361     0.46747513     0.94135397
h     0.45113363     0.03252484     0.05864603
h     0.54885742     0.53257307     0.44144197
h     0.04885744     0.96742690     0.55855803
c     0.76245043     0.19439281     0.94767419
c     0.26245045     0.30560716     0.05232582
c     0.73750910     0.80567612     0.44771586
c     0.23750912     0.69432385     0.55228415
h     0.62930200     0.23703543     0.97809251
h     0.12930203     0.26296454     0.02190750
h     0.87061052     0.76310072     0.47814882
h     0.37061054     0.73689925     0.52185119
c     0.75053359     0.00934657     0.93015254
c     0.25053361     0.49065340     0.06984747
c     0.74946650     0.99068314     0.43015596
c     0.24946652     0.50931683     0.56984405
c     0.92179807     0.96260460     0.89049900
c     0.42179809     0.53739537     0.10950101
c     0.57822497     0.03733308     0.39048907
c     0.07822499     0.46266689     0.60951094
h     0.91895586     0.82015648     0.87608477
h     0.41895588     0.67984349     0.12391524
h     0.58111931     0.17973533     0.37603910
h     0.08111933     0.32026464     0.62396091
c     0.10000655     0.09256495     0.86875281
c     0.60000657     0.40743502     0.13124720
c     0.40002893     0.90733158     0.36876684
c     0.90002895     0.59266839     0.63123316
h     0.22708770     0.05125930     0.83756238
h     0.72708772     0.44874067     0.16243763
h     0.27300855     0.94857111     0.33755982
h     0.77300857     0.55142886     0.66244018
c     0.56217262     0.86792773     0.95389212
c     0.06217265     0.63207224     0.04610789
c     0.93788287     0.13216513     0.45384624
c     0.43788289     0.36783484     0.54615376
h     0.54432142     0.74016499     0.93160295
h     0.04432144     0.75983498     0.06839705
h     0.95560996     0.25988306     0.43153089
h     0.45560998     0.24011691     0.56846912
h     0.35403414     0.92528162     0.95875644
h     0.85403416     0.57471835     0.04124356
h     0.14605943     0.07484891     0.45869561
h     0.64605945     0.42515106     0.54130440
h     0.63831044     0.82669132     0.99059380
h     0.13831046     0.67330865     0.00940621
h     0.86187581     0.17347849     0.49054855
h     0.36187583     0.32652148     0.50945146
o     0.26206768     0.67126439     0.77107616
o     0.76206770     0.82873558     0.22892384
o     0.23784814     0.32876955     0.27110730
o     0.73784816     0.17123043     0.72889271
o     0.80393264     0.48385709     0.77617226
o     0.30393266     0.01614288     0.22382775
o     0.69597300     0.51617238     0.27624444
o     0.19597302     0.98382759     0.72375557
o     0.28257894     0.41180407     0.86978035
o     0.78257896     0.08819590     0.13021966
o     0.21744299     0.58810794     0.36983816
o     0.71744301     0.91189203     0.63016185
h     0.22820152     0.79036408     0.75222625
h     0.72820155     0.70963589     0.24777376
h     0.27177605     0.20966636     0.25226760
h     0.77177607     0.29033361     0.74773241
h     0.98248985     0.55638052     0.77668695
h     0.48248987     0.94361945     0.22331306
h     0.51743162     0.44362909     0.27675253
h     0.01743164     0.05637088     0.72324748

K_POINTS automatic
2 2 2 1 1 1

CELL_PARAMETERS cubic
    9.164643000000     0.000000000000     0.000000000000
    0.000000000000    13.496373000000     0.000551000000
    0.000000000000     0.002091000000    51.113104000000
