&control
 title='crystal',
 prefix='crystal',
 pseudo_dir='..',
 calculation='vc-relax',
 etot_conv_thr=1.0D-5,
/
&system
 ibrav=0,
 celldm(1)=1.0,
 nat=    56,
 ntyp=  4,
 ecutwfc=80.0,
 ecutrho=800.0,
 xdm=.true.,
 xdm_a1=0.6512,
 xdm_a2=1.4633,
/
&electrons
 conv_thr = 1d-8,
/
&ions
/
&cell
/
ATOMIC_SPECIES
h      1.007940 h.UPF
c     12.010700 c.UPF
n     14.006700 n.UPF
o     15.999400 o.UPF

ATOMIC_POSITIONS crystal
c        0.116530188   0.188523524   0.856159525
c        0.616527436   0.311478748   0.143839701
c        0.883470704   0.688519457   0.643831694
c        0.383473319   0.811474741   0.356167042
c        0.082768948   0.240035424   0.110603884
c        0.582768484   0.259967253   0.889394813
c        0.917231813   0.740032435   0.389388609
c        0.417232042   0.759964989   0.610611620
c        0.076845342   0.403807314   0.128685595
c        0.576845103   0.096195269   0.871315876
c        0.923154600   0.903804382   0.371312517
c        0.423155843   0.596193011   0.628689895
h        0.966559568   0.199812182   0.162187458
h        0.466558975   0.300190983   0.837809521
h        0.033440969   0.699808670   0.337802401
h        0.533441596   0.800188235   0.662196410
h        0.039996929   0.434108667   0.309110899
h        0.539996402   0.065893431   0.690890438
h        0.960001659   0.934106500   0.190887313
h        0.460003180   0.565891323   0.809115909
h       -0.009856432   0.443356480   0.001249905
h        0.490144433   0.056646853   0.998751996
h        1.009856648   0.943352883   0.498748322
h        0.509857725   0.556643849   0.501255815
h        0.309439954   0.230010369   0.271094950
h        0.809439158   0.269988821   0.728905486
h        0.690560000   0.730011289   0.228902390
h        0.190561305   0.769989651   0.771098244
h        0.152172027   0.195293183   0.454704396
h        0.652171430   0.304706060   0.545294252
h        0.847826134   0.695293630   0.045287856
h        0.347828072   0.804707033   0.954712361
h        0.219316685   0.071534028   0.259636363
h        0.719317758   0.428466331   0.740359136
h        0.780681610   0.571533841   0.240353190
h        0.280683897   0.928466114   0.759642454
h        0.271741414   0.496741389   0.227157989
h        0.771740948   0.003260359   0.772843483
h        0.728257798   0.996738694   0.272843987
h        0.228258565   0.503261118   0.727158703
n        0.198980061   0.181359286   0.283053956
n        0.698979885   0.318640478   0.716944902
n        0.801019662   0.681359263   0.216938293
n        0.301020379   0.818640452   0.783060544
o        0.235473592   0.110884283   0.821926360
o        0.735471995   0.389119973   0.178071795
o        0.764529626   0.610879678   0.678061800
o        0.264524541   0.889118250   0.321936089
o        0.021464578   0.230703085   0.695439217
o        0.521464903   0.269299996   0.304558607
o        0.978535233   0.730700258   0.804554096
o        0.478532421   0.769296843   0.195448125
o        0.226078882   0.467582573   0.074279697
o        0.726080165   0.032420586   0.925721104
o        0.773920119   0.967578147   0.425721301
o        0.273921738   0.532418333   0.574281713

K_POINTS automatic
4 4 4 1 1 1

CELL_PARAMETERS cubic
  16.116099211   0.000025128  -0.000006429
   0.000026944  17.573180718  -0.000030730
  -0.000003366  -0.000017739  10.604080814
