&control
 title='crystal',
 prefix='crystal',
 pseudo_dir='.',
 calculation='vc-relax',
/
&system
 ibrav=0,
 celldm(1)=1.0,
 nat=    84,
 ntyp=  3,
 ecutwfc=60.0,
 ecutrho=600.0,
 xdm=.true.,
 xdm_a1=0.4073,
 xdm_a2=2.4150,
/
&electrons
 conv_thr = 1d-8,
/
&ions
/
&cell
/
ATOMIC_SPECIES
h      1.007940 h.UPF
c     12.010700 c.UPF
o     15.999400 o.UPF

ATOMIC_POSITIONS crystal
c     0.05768310     0.35631567     0.21040610
c     0.55769408     0.85628789     0.21041624
c     0.94231601     0.35631369     0.28959444
c     0.44232699     0.85628590     0.28960458
c     0.94231692     0.64368436     0.78959386
c     0.44232791     0.14365657     0.78960400
c     0.05768401     0.64368635     0.71040553
c     0.55769499     0.14365856     0.71041567
c     0.03953977     0.57456712     0.15653555
c     0.53955075     0.07453934     0.15654569
c     0.96045684     0.57456635     0.34346277
c     0.46046782     0.07453856     0.34347290
c     0.96046025     0.42543291     0.84346441
c     0.46047123     0.92540512     0.84347455
c     0.03954318     0.42543368     0.65653720
c     0.53955416     0.92540589     0.65654734
c     0.99999901     0.71668438     0.24999981
c     0.50001000     0.21665659     0.25000995
c     0.00000098     0.28331564     0.75000017
c     0.50001197     0.78328785     0.75001031
c     0.03104644     0.19192641     0.12069594
c     0.53105742     0.69189862     0.12070608
c     0.96895454     0.19192771     0.37930182
c     0.46896552     0.69189992     0.37931195
c     0.96895358     0.80807362     0.87930402
c     0.46896456     0.30804583     0.87931416
c     0.03104548     0.80807232     0.62069815
c     0.53105646     0.30804453     0.62070829
o     0.15534900     0.12190475     0.08989378
o     0.65535999     0.62187696     0.08990392
o     0.84464920     0.12190021     0.41010789
o     0.34466019     0.62187243     0.41011803
o     0.84465102     0.87809528     0.91010618
o     0.34466200     0.37806750     0.91011632
o     0.15535081     0.87809982     0.58989208
o     0.65536179     0.37807203     0.58990221
o     0.90153557     0.13355818     0.07711300
o     0.40154655     0.63353039     0.07712314
o     0.09846406     0.13356026     0.42288724
o     0.59847504     0.63353248     0.42289738
o     0.09846445     0.86644184     0.92288697
o     0.59847544     0.36641405     0.92289710
o     0.90153596     0.86643976     0.57711272
o     0.40154694     0.36641197     0.57712286
h     0.17198225     0.33889538     0.26012308
h     0.67199324     0.83886759     0.26013322
h     0.82801492     0.33889151     0.23987630
h     0.32802590     0.83886372     0.23988644
h     0.82801776     0.66110465     0.73987689
h     0.32802874     0.16107686     0.73988703
h     0.17198510     0.66110853     0.76012366
h     0.67199608     0.16108074     0.76013380
h     0.14166660     0.62152389     0.12585587
h     0.64167758     0.12149610     0.12586601
h     0.85833066     0.62152194     0.37414305
h     0.35834164     0.12149415     0.37415319
h     0.85833341     0.37847614     0.87414409
h     0.35834440     0.87844836     0.87415423
h     0.14166936     0.37847808     0.62585692
h     0.64168034     0.87845030     0.62586705
h     0.94519139     0.57208500     0.08439962
h     0.44520238     0.07205721     0.08440976
h     0.05480648     0.57208518     0.41559981
h     0.55481746     0.07205740     0.41560995
h     0.05480862     0.42791503     0.91560034
h     0.55481961     0.92788724     0.91561048
h     0.94519354     0.42791485     0.58440015
h     0.44520452     0.92788706     0.58441029
h     0.09525208     0.81642295     0.28529232
h     0.59526306     0.31639517     0.28530245
h     0.90474587     0.81642262     0.21470671
h     0.40475685     0.31639483     0.21471685
h     0.90474794     0.18357708     0.71470765
h     0.40475892     0.68354929     0.71471779
h     0.09525415     0.18357740     0.78529325
h     0.59526513     0.68354962     0.78530339
h     0.12921522     0.01967119     0.02325959
h     0.62922620     0.51964340     0.02326973
h     0.87078520     0.01966775     0.47674057
h     0.37079619     0.51963997     0.47675070
h     0.87078480     0.98032885     0.97674038
h     0.37079579     0.48030106     0.97675051
h     0.12921481     0.98033228     0.52325940
h     0.62922579     0.48030449     0.52326954

K_POINTS automatic
2 2 2 1 1 1

CELL_PARAMETERS cubic
   17.004913000000    -0.000020000000    -0.027920000000
   -0.000008000000    12.235520000000    -0.000003000000
   -4.170571000000    -0.000001000000    22.351658000000
