&control
 title='crystal',
 prefix='crystal',
 pseudo_dir='.',
 calculation='vc-relax',
/
&system
 ibrav=0,
 celldm(1)=1.0,
 nat=    52,
 ntyp=  4,
 ecutwfc=60.0,
 ecutrho=600.0,
 xdm=.true.,
 xdm_a1=0.4073,
 xdm_a2=2.4150,
/
&electrons
 conv_thr = 1d-8,
/
&ions
/
&cell
/
ATOMIC_SPECIES
h      1.007940 h.UPF
c     12.010700 c.UPF
n     14.006700 n.UPF
o     15.999400 o.UPF

ATOMIC_POSITIONS crystal
o     0.10750315     0.24097413     0.50102334
o     0.89249687     0.75902585     0.49897666
o     0.19552974     0.83761750     0.94974928
o     0.80447029     0.16238249     0.05025072
n     0.14478885     0.16818042     0.63600469
n     0.85521117     0.83181957     0.36399531
n     0.25122497     0.14721545     0.87944415
n     0.74877505     0.85278454     0.12055586
c     0.22159034     0.28588096     0.74816553
c     0.77840969     0.71411903     0.25183448
c     0.19303681     0.97848478     0.85546458
c     0.80696321     0.02151521     0.14453543
c     0.12870493     0.99739190     0.69879975
c     0.87129510     0.00260809     0.30120025
c     0.29595623     0.19086341     0.02981788
c     0.70404380     0.80913658     0.97018212
c     0.41468206     0.36375395     0.66957348
c     0.58531797     0.63624604     0.33042653
c     0.57283925     0.21101319     0.62519967
c     0.42716078     0.78898679     0.37480033
c     0.50055976     0.49603746     0.76529991
c     0.49944027     0.50396253     0.23470009
c     0.05552349     0.43540055     0.78191962
c     0.94447653     0.56459943     0.21808039
h     0.07069565     0.89437077     0.63804437
h     0.92930437     0.10562921     0.36195564
h     0.21640295     0.32261757     0.05593365
h     0.78359707     0.67738241     0.94406635
h     0.45593884     0.19812433     0.03588298
h     0.54406118     0.80187565     0.96411702
h     0.24431123     0.08107697     0.11534582
h     0.75568879     0.91892302     0.88465418
h     0.36436218     0.44273297     0.56357036
h     0.63563784     0.55726702     0.43642965
h     0.70639359     0.27197913     0.56943680
h     0.29360644     0.72802085     0.43056321
h     0.61754204     0.12147466     0.72766663
h     0.38245799     0.87852533     0.27233338
h     0.52089366     0.12474908     0.54460322
h     0.47910637     0.87525091     0.45539679
h     0.56557645     0.42104997     0.86715765
h     0.43442358     0.57895001     0.13284236
h     0.62019847     0.56478707     0.69517983
h     0.37980155     0.43521292     0.30482017
h     0.38995996     0.60390385     0.80383355
h     0.61004006     0.39609613     0.19616646
h     0.10361712     0.53151853     0.85593207
h     0.89638290     0.46848145     0.14406793
h     0.01651708     0.51363656     0.67286652
h     0.98348295     0.48636342     0.32713348
h     0.92568095     0.37068308     0.83966294
h     0.07431907     0.62931690     0.16033707

K_POINTS automatic
2 2 2 1 1 1

CELL_PARAMETERS cubic
   12.795032000000     0.024547000000     0.127665000000
    1.268221000000    13.723229000000     0.022928000000
    1.289053000000     1.706571000000    16.388968000000
