&control
 title='crystal',
 prefix='crystal',
 pseudo_dir='..',
 calculation='vc-relax',
 etot_conv_thr=1.0D-5,
/
&system
 ibrav=0,
 celldm(1)=1.0,
 nat=    96,
 ntyp=  4,
 ecutwfc=80.0,
 ecutrho=800.0,
 xdm=.true.,
 xdm_a1=0.6512,
 xdm_a2=1.4633,
/
&electrons
 conv_thr = 1d-8,
/
&ions
/
&cell
/
ATOMIC_SPECIES
h      1.007940 h.UPF
c     12.010700 c.UPF
n     14.006700 n.UPF
o     15.999400 o.UPF

ATOMIC_POSITIONS crystal
c        0.543955443   0.405943190   0.355655618
c        0.043955443   0.094056810   0.644344382
c        0.456044557   0.905943190   0.144344382
c        0.956044557   0.594056810   0.855655618
c        0.597883955   0.433490078   0.565145010
c        0.097883955   0.066509922   0.434854990
c        0.402116045   0.933490078   0.934854990
c        0.902116045   0.566509922   0.065145010
c        0.573262228   0.498047258   0.604932924
c        0.073262228   0.001952742   0.395067076
c        0.426737772   0.998047258   0.895067076
c        0.926737772   0.501952742   0.104932924
c        0.493412453   0.536641689   0.433547161
c        0.993412453   0.963358311   0.566452839
c        0.506587547   0.036641689   0.066452839
c        0.006587547   0.463358311   0.933547161
c        0.433167189   0.509797189   0.225598385
c        0.933167189   0.990202811   0.774401615
c        0.566832811   0.009797189   0.274401615
c        0.066832811   0.490202811   0.725598385
c        0.460131801   0.445100609   0.188056739
c        0.960131801   0.054899391   0.811943261
c        0.539868199   0.945100609   0.311943261
c        0.039868199   0.554899391   0.688056739
c        0.579006788   0.336312332   0.313509604
c        0.079006788   0.163687668   0.686490396
c        0.420993212   0.836312332   0.186490396
c        0.920993212   0.663687668   0.813509604
c        0.399710664   0.293163208   0.366822560
c        0.899710664   0.206836792   0.633177440
c        0.600289336   0.793163208   0.133177440
c        0.100289336   0.706836792   0.866822560
c        0.320175134   0.305676174   0.608031814
c        0.820175134   0.194323826   0.391968186
c        0.679824866   0.805676174   0.891968186
c        0.179824866   0.694323826   0.108031814
h        0.425765326   0.623222243   0.337007791
h        0.925765326   0.876777757   0.662992209
h        0.574234674   0.123222243   0.162992209
h        0.074234674   0.376777757   0.837007791
h        0.177838542   0.347348593   0.201575886
h        0.677838542   0.152651407   0.798424114
h        0.822161458   0.847348593   0.298424114
h        0.322161458   0.652651407   0.701575886
h        0.122863256   0.269922997   0.220052097
h        0.622863256   0.230077003   0.779947903
h        0.877136744   0.769922997   0.279947903
h        0.377136744   0.730077003   0.720052097
h        0.299147930   0.295996718   0.028254288
h        0.799147930   0.204003282   0.971745712
h        0.700852070   0.795996718   0.471745712
h        0.200852070   0.704003282   0.528254288
h        0.665107318   0.404190718   0.697911498
h        0.165107318   0.095809282   0.302088502
h        0.334892682   0.904190718   0.802088502
h        0.834892682   0.595809282   0.197911498
h        0.620022419   0.519229514   0.765896330
h        0.120022419   0.980770486   0.234103670
h        0.379977581   0.019229514   0.734103670
h        0.879977581   0.480770486   0.265896330
h        0.369960277   0.539619459   0.092039922
h        0.869960277   0.960380541   0.907960078
h        0.630039723   0.039619459   0.407960078
h        0.130039723   0.460380541   0.592039922
h        0.420057899   0.425546556   0.021691121
h        0.920057899   0.074453444   0.978308879
h        0.579942101   0.925546556   0.478308879
h        0.079942101   0.574453444   0.521691121
h        0.702050442   0.320061522   0.420929511
h        0.202050442   0.179938478   0.579070489
h        0.297949558   0.820061522   0.079070489
h        0.797949558   0.679938478   0.920929511
h        0.623533187   0.328124385   0.135038314
h        0.123533187   0.171875615   0.864961686
h        0.376466813   0.828124385   0.364961686
h        0.876466813   0.671875615   0.635038314
h        0.446627384   0.243467316   0.354250694
h        0.946627384   0.256532684   0.645749306
h        0.553372616   0.743467316   0.145749306
h        0.053372616   0.756532684   0.854250694
n        0.239047276   0.302346422   0.194518996
n        0.739047276   0.197653578   0.805481004
n        0.760952724   0.802346422   0.305481004
n        0.260952724   0.697653578   0.694518996
o        0.480177337   0.600470086   0.475020812
o        0.980177337   0.899529914   0.524979188
o        0.519822663   0.100470086   0.024979188
o        0.019822663   0.399529914   0.975020812
o        0.157915496   0.335088701   0.623797145
o        0.657915496   0.164911299   0.376202855
o        0.842084504   0.835088701   0.876202855
o        0.342084504   0.664911299   0.123797145
o        0.425036506   0.285766917   0.775084037
o        0.925036506   0.214233083   0.224915963
o        0.574963494   0.785766917   0.724915963
o        0.074963494   0.714233083   0.275084037

K_POINTS automatic
4 4 4 1 1 1

CELL_PARAMETERS cubic
  12.765390445   0.000000000   0.000000000
   0.000000000  39.838632672   0.000000000
   0.000000000   0.000000000  11.031409612
