&control
 title='crystal',
 prefix='crystal',
 pseudo_dir='.',
 calculation='vc-relax',
/
&system
 ibrav=0,
 celldm(1)=1.0,
 nat=    96,
 ntyp=  4,
 ecutwfc=60.0,
 ecutrho=600.0,
 xdm=.true.,
 xdm_a1=0.4073,
 xdm_a2=2.4150,
/
&electrons
 conv_thr = 1d-8,
/
&ions
/
&cell
/
ATOMIC_SPECIES
h      1.007940 h.UPF
c     12.010700 c.UPF
n     14.006700 n.UPF
o     15.999400 o.UPF

ATOMIC_POSITIONS crystal
c     0.54395546     0.40594319     0.35565561
c     0.04395545     0.09405681     0.64434436
c     0.95604459     0.59405680     0.85565559
c     0.45604457     0.90594318     0.14434438
c     0.59788397     0.43349007     0.56514499
c     0.09788396     0.06650992     0.43485497
c     0.90211608     0.56650992     0.06514497
c     0.40211606     0.93349007     0.93485499
c     0.57326225     0.49804725     0.60493291
c     0.07326223     0.00195274     0.39506706
c     0.92673780     0.50195274     0.10493289
c     0.42673778     0.99804725     0.89506708
c     0.49341247     0.53664168     0.43354714
c     0.99341245     0.96335831     0.56645282
c     0.00658759     0.46335831     0.93354713
c     0.50658756     0.03664168     0.06645284
c     0.43316720     0.50979718     0.22559838
c     0.93316719     0.99020281     0.77440159
c     0.06683285     0.49020281     0.72559836
c     0.56683283     0.00979718     0.27440160
c     0.46013182     0.44510061     0.18805673
c     0.96013180     0.05489939     0.81194323
c     0.03986824     0.55489938     0.68805671
c     0.53986821     0.94510060     0.31194325
c     0.57900681     0.33631233     0.31350960
c     0.07900679     0.16368766     0.68649037
c     0.92099325     0.66368766     0.81350958
c     0.42099322     0.83631233     0.18649039
c     0.39971068     0.29316321     0.36682255
c     0.89971066     0.20683679     0.63317742
c     0.10028938     0.70683678     0.86682253
c     0.60028935     0.79316320     0.13317744
c     0.32017515     0.30567617     0.60803179
c     0.82017513     0.19432382     0.39196817
c     0.17982491     0.69432382     0.10803177
c     0.67982489     0.80567617     0.89196819
h     0.42576534     0.62322224     0.33700778
h     0.92576532     0.87677776     0.66299218
h     0.07423472     0.37677775     0.83700776
h     0.57423469     0.12322224     0.16299220
h     0.17783855     0.34734859     0.20157588
h     0.67783853     0.15265140     0.79842408
h     0.32216151     0.65265140     0.70157586
h     0.82216149     0.84734859     0.29842410
h     0.12286326     0.26992299     0.22005209
h     0.62286324     0.23007700     0.77994788
h     0.37713680     0.73007700     0.72005207
h     0.87713677     0.76992299     0.27994789
h     0.29914794     0.29599672     0.02825428
h     0.79914792     0.20400328     0.97174568
h     0.20085212     0.70400327     0.52825427
h     0.70085209     0.79599671     0.47174570
h     0.66510734     0.40419071     0.69791147
h     0.16510733     0.09580928     0.30208849
h     0.83489271     0.59580928     0.19791145
h     0.33489269     0.90419071     0.80208851
h     0.62002244     0.51922951     0.76589630
h     0.12002243     0.98077048     0.23410366
h     0.87997761     0.48077048     0.26589628
h     0.37997759     0.01922951     0.73410368
h     0.36996029     0.53961945     0.09203992
h     0.86996028     0.96038054     0.90796004
h     0.13003976     0.46038054     0.59203990
h     0.63003974     0.03961945     0.40796006
h     0.42005791     0.42554655     0.02169112
h     0.92005790     0.07445344     0.97830885
h     0.07994214     0.57445344     0.52169110
h     0.57994212     0.92554655     0.47830887
h     0.70205047     0.32006152     0.42092950
h     0.20205045     0.17993848     0.57907046
h     0.79794959     0.67993847     0.92092948
h     0.29794957     0.82006152     0.07907048
h     0.62353321     0.32812438     0.13503831
h     0.12353319     0.17187561     0.86496165
h     0.87646685     0.67187561     0.63503830
h     0.37646682     0.82812438     0.36496167
h     0.44662740     0.24346731     0.35425068
h     0.94662738     0.25653268     0.64574928
h     0.05337266     0.75653268     0.85425066
h     0.55337263     0.74346731     0.14574930
n     0.23904728     0.30234642     0.19451899
n     0.73904727     0.19765358     0.80548098
n     0.26095277     0.69765357     0.69451897
n     0.76095275     0.80234642     0.30548099
o     0.48017735     0.60047008     0.47502080
o     0.98017734     0.89952991     0.52497916
o     0.01982270     0.39952991     0.97502078
o     0.51982268     0.10047008     0.02497918
o     0.15791550     0.33508870     0.62379712
o     0.65791549     0.16491130     0.37620284
o     0.34208455     0.66491129     0.12379710
o     0.84208453     0.83508870     0.87620286
o     0.42503652     0.28576691     0.77508401
o     0.92503651     0.21423308     0.22491595
o     0.07496353     0.71423308     0.27508399
o     0.57496351     0.78576691     0.72491597

K_POINTS automatic
2 2 2 1 1 1

CELL_PARAMETERS cubic
   12.765390000000     0.000000000000     0.000000000000
    0.000000000000    39.838633000000     0.000000000000
    0.000000000000     0.000000000000    11.031410000000
