&control
 title='crystal',
 prefix='crystal',
 pseudo_dir='.',
 calculation='vc-relax',
/
&system
 ibrav=0,
 celldm(1)=1.0,
 nat=   108,
 ntyp=  4,
 ecutwfc=60.0,
 ecutrho=600.0,
 xdm=.true.,
 xdm_a1=0.4073,
 xdm_a2=2.4150,
/
&electrons
 conv_thr = 1d-8,
/
&ions
/
&cell
/
ATOMIC_SPECIES
h      1.007940 h.UPF
c     12.010700 c.UPF
n     14.006700 n.UPF
o     15.999400 o.UPF

ATOMIC_POSITIONS crystal
c     0.53072093     0.19698133     0.39060977
c     0.46927910     0.80301868     0.60939019
c     0.53071887     0.30302111     0.89060777
c     0.46928116     0.69697890     0.10939219
c     0.93850285     0.98914787     0.76560923
c     0.06149718     0.01085214     0.23439073
c     0.93850043     0.51084814     0.26559981
c     0.06149960     0.48915187     0.73440015
c     0.62059179     0.28769589     0.46849222
c     0.37940825     0.71230412     0.53150774
c     0.62058876     0.21230412     0.96849219
c     0.37941128     0.78769589     0.03150777
c     0.76775717     0.25981211     0.53797541
c     0.23224287     0.74018790     0.46202455
c     0.76775167     0.24018513     0.03798697
c     0.23224836     0.75981488     0.96201298
c     0.78081560     0.13577259     0.60162012
c     0.21918443     0.86422742     0.39837983
c     0.78081188     0.36422402     0.10162803
c     0.21918816     0.63577599     0.89837193
c     0.72305694     0.05260525     0.46270473
c     0.27694309     0.94739476     0.53729523
c     0.72305085     0.44739547     0.96271476
c     0.27694918     0.55260454     0.03728520
c     0.58143485     0.08862051     0.38569109
c     0.41856519     0.91137950     0.61430887
c     0.58143141     0.41138557     0.88569760
c     0.41856862     0.58861444     0.11430236
c     0.38729997     0.22801659     0.31095035
c     0.61270007     0.77198342     0.68904961
c     0.38730203     0.27199135     0.81093882
c     0.61269801     0.72800866     0.18906114
c     0.92631731     0.10353242     0.67764158
c     0.07368272     0.89646759     0.32235837
c     0.92631178     0.39646531     0.17763877
c     0.07368825     0.60353470     0.82236119
c     0.03827297     0.17147268     0.67027848
c     0.96172707     0.82852733     0.32972148
c     0.03827582     0.32852206     0.17026980
c     0.96172421     0.67147794     0.82973016
h     0.59458384     0.54218474     0.54383938
h     0.40541619     0.45781527     0.45616058
h     0.59458471     0.95781481     0.04384206
h     0.40541533     0.04218520     0.95615790
h     0.85887135     0.98075046     0.85337923
h     0.14112868     0.01924955     0.14662073
h     0.85887102     0.51924749     0.35337276
h     0.14112902     0.48075252     0.64662720
h     0.04207155     0.97871192     0.83504634
h     0.95792849     0.02128809     0.16495362
h     0.04207018     0.52128449     0.33503260
h     0.95792985     0.47871552     0.66496736
h     0.92268215     0.91761718     0.67627174
h     0.07731789     0.08238283     0.32372821
h     0.92267611     0.58237883     0.17625911
h     0.07732392     0.41762118     0.82374085
h     0.80090751     0.32126621     0.63738321
h     0.19909253     0.67873380     0.36261674
h     0.80089312     0.17873067     0.13740066
h     0.19910691     0.82126933     0.86259930
h     0.83781267     0.27356597     0.43980712
h     0.16218737     0.72643404     0.56019284
h     0.83781510     0.22642612     0.93982833
h     0.16218493     0.77357389     0.06017163
h     0.71123275     0.12683956     0.70130301
h     0.28876729     0.87316045     0.29869695
h     0.71123221     0.37315787     0.20131469
h     0.28876782     0.62684214     0.79868527
h     0.71777057     0.96448511     0.51089865
h     0.28222946     0.03551490     0.48910131
h     0.71776217     0.53551411     0.01091163
h     0.28223786     0.46448590     0.98908833
h     0.79567301     0.04846059     0.36578554
h     0.20432702     0.95153942     0.63421442
h     0.79566646     0.45154343     0.86579535
h     0.20433357     0.54845658     0.13420461
h     0.51644137     0.02273978     0.31963205
h     0.48355866     0.97726023     0.68036791
h     0.51643567     0.47726755     0.81964438
h     0.48356436     0.52273246     0.18035558
h     0.39249746     0.29796080     0.22005345
h     0.60750258     0.70203921     0.77994651
h     0.39250389     0.20205212     0.72003687
h     0.60749615     0.79794788     0.27996309
h     0.33712462     0.15348580     0.24646041
h     0.66287542     0.84651421     0.75353955
h     0.33712595     0.34652524     0.74645157
h     0.66287408     0.65347477     0.25354839
h     0.31944168     0.25817652     0.40361308
h     0.68055835     0.74182348     0.59638688
h     0.31944198     0.24182576     0.90359659
h     0.68055805     0.75817425     0.09640337
h     0.03317418     0.25408904     0.60638145
h     0.96682586     0.74591097     0.39361850
h     0.03317515     0.24590818     0.10637704
h     0.96682489     0.75409183     0.89362292
h     0.14046452     0.14493460     0.72873867
h     0.85953552     0.85506541     0.27126129
h     0.14046493     0.35506519     0.22871813
h     0.85953511     0.64493482     0.77128183
n     0.56790562     0.39082875     0.46826200
n     0.43209442     0.60917126     0.53173796
n     0.56790591     0.10917281     0.96825581
n     0.43209413     0.89082720     0.03174414
o     0.66191824     0.47630980     0.53395998
o     0.33808179     0.52369021     0.46603998
o     0.66191807     0.02368882     0.03396117
o     0.33808197     0.97631119     0.96603878

K_POINTS automatic
2 2 2 1 1 1

CELL_PARAMETERS cubic
   18.143307000000     0.000098000000     0.483905000000
    0.000110000000    21.936842000000     0.000158000000
   -2.008590000000     0.000100000000    15.113264000000
