&control
 title='crystal',
 prefix='crystal',
 pseudo_dir='.',
 calculation='vc-relax',
/
&system
 ibrav=0,
 celldm(1)=1.0,
 nat=   108,
 ntyp=  4,
 ecutwfc=60.0,
 ecutrho=600.0,
 xdm=.true.,
 xdm_a1=0.4073,
 xdm_a2=2.4150,
/
&electrons
 conv_thr = 1d-8,
/
&ions
/
&cell
/
ATOMIC_SPECIES
h      1.007940 h.UPF
c     12.010700 c.UPF
n     14.006700 n.UPF
o     15.999400 o.UPF

ATOMIC_POSITIONS crystal
c     0.16957783     0.65623417     0.56929893
c     0.66957784     0.84376581     0.43070107
c     0.83042219     0.15623417     0.93070106
c     0.33042218     0.34376582     0.06929893
h     0.09163625     0.82068944     0.57364743
h     0.59163626     0.67931053     0.42635257
h     0.90836378     0.32068945     0.92635257
h     0.40836377     0.17931054     0.07364743
c     0.29860862     0.61336316     0.52633723
c     0.79860863     0.88663681     0.47366277
c     0.70139141     0.11336317     0.97366277
c     0.20139140     0.38663682     0.02633723
h     0.31548018     0.74324568     0.49777210
h     0.81548019     0.75675430     0.50222790
h     0.68451985     0.24324569     0.00222789
h     0.18451984     0.25675431     0.99777210
c     0.40578756     0.40630143     0.52008832
c     0.90578756     0.09369854     0.47991168
c     0.59421247     0.90630144     0.97991168
c     0.09421246     0.59369855     0.02008832
h     0.50709941     0.37151934     0.48674907
h     0.00709942     0.12848063     0.51325093
h     0.49290061     0.87151935     0.01325092
h     0.99290060     0.62848064     0.98674907
c     0.38286914     0.24275834     0.55734158
c     0.88286915     0.25724163     0.44265842
c     0.61713089     0.74275835     0.94265842
c     0.11713088     0.75724164     0.05734158
h     0.46830739     0.08169153     0.55308474
h     0.96830739     0.41830845     0.44691525
h     0.53169264     0.58169154     0.94691525
h     0.03169263     0.91830845     0.05308475
c     0.25071347     0.28565821     0.59988173
c     0.75071348     0.21434177     0.40011827
c     0.74928656     0.78565821     0.90011827
c     0.24928655     0.71434178     0.09988173
h     0.23531635     0.15960281     0.62936261
h     0.73531636     0.34039717     0.37063739
h     0.76468368     0.65960281     0.87063739
h     0.26468367     0.84039718     0.12936261
c     0.14098638     0.49261590     0.60664172
c     0.64098639     0.00738407     0.39335828
c     0.85901365     0.99261591     0.89335828
c     0.35901364     0.50738408     0.10664172
c     0.99809990     0.52940849     0.65295118
c     0.49809990     0.97059148     0.34704882
c     0.00190013     0.02940850     0.84704882
c     0.50190012     0.47059149     0.15295118
h     0.00723984     0.37495209     0.67524418
h     0.50723985     0.12504788     0.32475582
h     0.99276019     0.87495210     0.82475582
h     0.49276018     0.62504789     0.17524418
c     0.06637353     0.73322287     0.68661594
c     0.56637354     0.76677710     0.31338406
c     0.93362650     0.23322288     0.81338406
c     0.43362649     0.26677711     0.18661594
h     0.15310334     0.68207983     0.72110478
h     0.65310335     0.81792014     0.27889522
h     0.84689668     0.18207984     0.77889522
h     0.34689667     0.31792015     0.22110478
h     0.18232159     0.84663269     0.66679730
h     0.68232160     0.65336729     0.33320270
h     0.81767844     0.34663270     0.83320270
h     0.31767843     0.15336729     0.16679730
c     0.83683853     0.85601439     0.69618192
c     0.33683854     0.64398558     0.30381808
c     0.16316150     0.35601440     0.80381808
c     0.66316149     0.14398559     0.19618192
h     0.85116059     0.02098546     0.71359016
h     0.35116060     0.47901451     0.28640984
h     0.14883944     0.52098547     0.78640984
h     0.64883943     0.97901452     0.21359016
c     0.72771851     0.83979628     0.64369132
c     0.22771852     0.66020369     0.35630868
c     0.27228152     0.33979629     0.85630868
c     0.77228151     0.16020370     0.14369132
h     0.55230656     0.90148479     0.64255112
h     0.05230657     0.59851519     0.35744888
h     0.44769346     0.40148480     0.85744887
h     0.94769346     0.09851519     0.14255112
h     0.82805604     0.92190225     0.61425963
h     0.32805605     0.57809772     0.38574037
h     0.17194398     0.42190226     0.88574036
h     0.67194397     0.07809773     0.11425963
c     0.73895840     0.58168987     0.64322858
c     0.23895840     0.91831011     0.35677142
c     0.26104163     0.08168988     0.85677142
c     0.76104162     0.41831011     0.14322858
h     0.66136601     0.49285285     0.61171066
h     0.16136601     0.00714712     0.38828933
h     0.33863402     0.99285286     0.88828933
h     0.83863401     0.50714713     0.11171067
c     0.68753896     0.69025789     0.72546261
c     0.18753897     0.80974208     0.27453738
c     0.31246106     0.19025790     0.77453738
c     0.81246105     0.30974209     0.22546262
n     0.62307698     0.53540049     0.69114110
n     0.12307699     0.96459948     0.30885890
n     0.37692305     0.03540050     0.80885890
n     0.87692304     0.46459949     0.19114110
o     0.64308601     0.68712175     0.77133390
o     0.14308601     0.81287823     0.22866609
o     0.35691402     0.18712175     0.72866609
o     0.85691401     0.31287824     0.27133391
h     0.53220567     0.39310674     0.70064247
h     0.03220568     0.10689323     0.29935753
h     0.46779435     0.89310675     0.79935753
h     0.96779434     0.60689324     0.20064247

K_POINTS automatic
2 2 2 1 1 1

CELL_PARAMETERS cubic
   11.098917000000     0.000000000000     0.000000000000
    0.000000000000    11.262349000000     0.000000000000
    0.000000000000     0.000000000000    50.247963000000
