&control
 title='crystal',
 prefix='crystal',
 pseudo_dir='../..',
 forc_conv_thr=1.0D-4,
 etot_conv_thr=1.0D-5,
/
&system
 ibrav=0,
 nat=    40,
 ntyp=  4,
 ecutwfc=80.0,
 ecutrho=800.0,
 vdw_corr='xdm',
 nosym=.true.,
/
&electrons
 conv_thr = 1d-10,
/
&ions
/
&cell
 press_conv_thr=0.01,
/
ATOMIC_SPECIES
C    12.010700 c.UPF
N    14.006700 n.UPF
O    15.999400 o.UPF
H     1.007940 h.UPF

ATOMIC_POSITIONS crystal
C             0.8129788697        0.1867982625        0.7241199588
C             0.1870214271        0.6867985733        0.7758796631
C             0.8831121978        0.2896001882        0.5692113171
C             0.1168886638        0.7895996467        0.9307883038
C             0.1169155608        0.7101040889        0.4308028655
C             0.8830847001        0.2101038770        0.0691966402
C             0.1870086516        0.8129630234        0.2758950723
C             0.8129914355        0.3129627137        0.2241048426
N             0.7863472782        0.0910188901        0.5449286371
N             0.2136536091        0.5910183752        0.9550709288
N             0.7433437766        0.0302455166        0.6437704387
N             0.2566570392        0.5302449832        0.8562292690
N             0.9013606077        0.3543465941        0.6781642763
N             0.0986396647        0.8543470788        0.8218354235
N             0.9524650437        0.4084919029        0.4845336156
N             0.0475351761        0.9084922752        0.0154661215
N             0.6378021341        0.8146525348        0.6595788823
N             0.3621989149        0.3146514466        0.8404205190
N             0.0475748221        0.5911979355        0.5154799427
N             0.9524251497        0.0911986684        0.9845198278
N             0.2136774846        0.9086815768        0.4550943301
N             0.7863216095        0.4086833575        0.0449053818
N             0.0986415982        0.6453929953        0.3218447972
N             0.9013584380        0.1453930519        0.1781548086
N             0.2566523676        0.9694930307        0.3562522607
N             0.7433470116        0.4694940780        0.1437475467
N             0.3622468592        0.1850472335        0.3404640386
N             0.6377523569        0.6850485161        0.1595363351
O             0.6162556174        0.7784709102        0.7548636094
O             0.3837454204        0.2784705167        0.7451359536
O             0.5864494497        0.7024024886        0.5776649521
O             0.4135512075        0.2024010986        0.9223344177
O             0.3837764319        0.2212728663        0.2451803041
O             0.6162229768        0.7212730799        0.2548196083
O             0.4136610520        0.2972255850        0.4223924103
O             0.5863382603        0.7972273528        0.0776078584
H             0.7990353513        0.1650905749        0.8102943205
H             0.2009647521        0.6650910871        0.6897053762
H             0.2009402313        0.8347103147        0.1897217725
H             0.7990599214        0.3347097404        0.3102778422

K_POINTS automatic
4 5 2  1 1 1

CELL_PARAMETERS bohr
  13.182169861   0.000017880   0.016269720
   0.000014720  10.836680451   0.000008148
  -3.085540698   0.000012543  23.031413519
