%nprocs=4
%mem=4GB
#p pbepbe aug-cc-pvtz output=wfx scf=(conver=6) int=(grid=ultrafine)

title

0 1
c -1.184554428675973 0.054119843469429 0.665254668692115
c -1.184554428675973 0.054119843469429 -0.665254668692115
c 0.207008268926947 -0.091637900575146 -1.234055909516187
c 1.116863904237742 0.140017143554490 0.000000000000000
c 0.207008268926947 -0.091637900575146 1.234055909516187
h -2.070352738218146 0.110362359962035 1.286794924635195
h -2.070352738218146 0.110362359962035 -1.286794924635195
h 0.412617070960914 0.615496280139640 -2.042472716783052
h 0.343201448995968 -1.094256873789524 -1.658628000667383
h 1.998561812091598 -0.502290684261734 0.000000000000000
h 1.468735039691262 1.174106122294398 0.000000000000000
h 0.412617070960914 0.615496280139640 2.042472716783052
h 0.343201448995968 -1.094256873789524 1.658628000667383

E8.wfx

