%nprocs=4
%mem=4GB
#p pbepbe aug-cc-pvtz output=wfx scf=(conver=6) int=(grid=ultrafine)

title

0 1
c 0.184090871578909 0.515137419209940 0.147980447589626
c -0.006060185011874 -0.364832076088642 1.213288915137354
c -0.176604153782450 -1.729252597976551 0.989225782999083
c -0.163206737861255 -2.227209857489258 -0.308648298684244
c 0.020548340049330 -1.355452251480138 -1.380649161432953
c 0.196625452349140 0.003925088669004 -1.153595308856477
c 0.388824829245008 1.993442108131741 0.390212695535773
o -0.454407756486011 2.825424682594992 -0.409701262838885
h -1.369317914968206 2.562659312186946 -0.253617453253176
h -0.025124905515382 0.020003118215812 2.227577077038749
h -0.324565850037835 -2.399617037230269 1.827678292499227
h -0.298348023262484 -3.287420991059454 -0.486634677212748
h 0.032380938408091 -1.738875456621053 -2.394253837840136
h 0.332283703376398 0.682788651987834 -1.987492207528641
h 0.256976682282510 2.211341269836422 1.457059144232073
h 1.405904709636100 2.287938617112695 0.121569852615343

P34.wfx

