%nprocs=4
%mem=4GB
#p pbepbe aug-cc-pvtz output=wfx scf=(conver=6) int=(grid=ultrafine)

title

0 1
c -4.491701378141483 -0.265622259414807 0.000000000000000
c -3.187364332543512 0.533203238668804 0.000000000000000
c -1.936053173707299 -0.349068198039789 0.000000000000000
c -0.625286222818492 0.441639616697148 0.000000000000000
c 0.625286222818492 -0.441639616697148 0.000000000000000
c 1.936053173707299 0.349068198039789 0.000000000000000
c 3.187364332543512 -0.533203238668804 0.000000000000000
c 4.491701378141483 0.265622259414807 0.000000000000000
h -5.363853546500112 0.392578573666782 0.000000000000000
h -4.561378634924378 -0.908418651050180 -0.882076914154370
h -4.561378634924378 -0.908418651050180 0.882076914154370
h -3.163304454403857 1.191907340214167 0.875419190576966
h -3.163304454403857 1.191907340214167 -0.875419190576966
h -1.960845972705758 -1.008708615144675 0.875983447196920
h -1.960845972705758 -1.008708615144675 -0.875983447196920
h -0.601483342698777 1.101082643094059 0.875984636935163
h -0.601483342698777 1.101082643094059 -0.875984636935163
h 0.601483342698777 -1.101082643094059 0.875984636935163
h 0.601483342698777 -1.101082643094059 -0.875984636935163
h 1.960845972705758 1.008708615144675 0.875983447196920
h 1.960845972705758 1.008708615144675 -0.875983447196920
h 3.163304454403857 -1.191907340214167 0.875419190576966
h 3.163304454403857 -1.191907340214167 -0.875419190576966
h 4.561378634924378 0.908418651050180 0.882076914154370
h 5.363853546500112 -0.392578573666782 0.000000000000000
h 4.561378634924378 0.908418651050180 -0.882076914154370

P11.wfx

