%nprocs=4
%mem=4GB
#p pbepbe aug-cc-pvtz output=wfx scf=(conver=6) int=(grid=ultrafine)

title

0 1
c 0.128382762257139 1.817066654919004 -0.186149301704020
n -0.486924517306383 0.519267671278514 0.046418133794612
n 0.486924517306383 -0.519267671278514 0.046418133794612
c -0.128382762257139 -1.817066654919004 -0.186149301704020
h -0.649799173722788 2.582884371407907 -0.148956272125705
h 0.579280502532181 1.824615358800183 -1.178699899849648
h 0.908890032621943 2.081037123169091 0.545743170580019
h -1.011727786748429 0.530121542519735 0.921644169304752
h 1.011727786748429 -0.530121542519735 0.921644169304752
h -0.579280502532181 -1.824615358800183 -1.178699899849648
h 0.649799173722788 -2.582884371407907 -0.148956272125705
h -0.908890032621943 -2.081037123169091 0.545743170580019

P17.wfx

